   2   2   1   0
  0.1050029E+02  0.3096817E-09  0.3096817E-09  0.3096817E-09  0.5000000E-15
  1.000000000000000E-004
  CAR 
 unknown system                          
     23.30468968     -8.80547548  301      8.43032463      1.00000000
     -8.805  0.0000E+00  0.0000E+00
     -8.698  0.0000E+00  0.0000E+00
     -8.591  0.0000E+00  0.0000E+00
     -8.484  0.0000E+00  0.0000E+00
     -8.377  0.0000E+00  0.0000E+00
     -8.270  0.0000E+00  0.0000E+00
     -8.163  0.0000E+00  0.0000E+00
     -8.056  0.0000E+00  0.0000E+00
     -7.949  0.0000E+00  0.0000E+00
     -7.842  0.6206E-12  0.6643E-13
     -7.735  0.1088E-07  0.1165E-08
     -7.628  0.2108E-04  0.2258E-05
     -7.521  0.4772E-02  0.5130E-03
     -7.414  0.1408E+00  0.1559E-01
     -7.307  0.6650E+00  0.8677E-01
     -7.200  0.7458E+00  0.1666E+00
     -7.093  0.4745E+00  0.2174E+00
     -6.986  0.3632E+00  0.2563E+00
     -6.879  0.3068E+00  0.2891E+00
     -6.772  0.2703E+00  0.3180E+00
     -6.665  0.2553E+00  0.3453E+00
     -6.558  0.2238E+00  0.3693E+00
     -6.451  0.2202E+00  0.3929E+00
     -6.344  0.2025E+00  0.4146E+00
     -6.237  0.1970E+00  0.4356E+00
     -6.130  0.1758E+00  0.4545E+00
     -6.023  0.1938E+00  0.4752E+00
     -5.916  0.1627E+00  0.4926E+00
     -5.809  0.1579E+00  0.5095E+00
     -5.701  0.1864E+00  0.5295E+00
     -5.594  0.1341E+00  0.5438E+00
     -5.487  0.1624E+00  0.5612E+00
     -5.380  0.1561E+00  0.5779E+00
     -5.273  0.1317E+00  0.5920E+00
     -5.166  0.1731E+00  0.6105E+00
     -5.059  0.1136E+00  0.6227E+00
     -4.952  0.1397E+00  0.6376E+00
     -4.845  0.1846E+00  0.6574E+00
     -4.738  0.9641E-01  0.6677E+00
     -4.631  0.1284E+00  0.6815E+00
     -4.524  0.1787E+00  0.7006E+00
     -4.417  0.1269E+00  0.7142E+00
     -4.310  0.1242E+00  0.7275E+00
     -4.203  0.1495E+00  0.7435E+00
     -4.096  0.1532E+00  0.7599E+00
     -3.989  0.1939E+00  0.7806E+00
     -3.882  0.2828E+00  0.8109E+00
     -3.775  0.5822E+00  0.8732E+00
     -3.668  0.4570E+00  0.9221E+00
     -3.561  0.3179E+00  0.9561E+00
     -3.454  0.2484E+00  0.9827E+00
     -3.347  0.2455E+00  0.1009E+01
     -3.240  0.2110E+00  0.1032E+01
     -3.133  0.2372E+00  0.1057E+01
     -3.026  0.2324E+00  0.1082E+01
     -2.919  0.1860E+00  0.1102E+01
     -2.812  0.2226E+00  0.1126E+01
     -2.705  0.2749E+00  0.1155E+01
     -2.598  0.2203E+00  0.1179E+01
     -2.490  0.5464E+00  0.1237E+01
     -2.383  0.2070E+01  0.1459E+01
     -2.276  0.2847E+01  0.1763E+01
     -2.169  0.1596E+01  0.1934E+01
     -2.062  0.5621E+00  0.1994E+01
     -1.955  0.5259E-01  0.2000E+01
     -1.848  0.7503E-03  0.2000E+01
     -1.741  0.1340E-05  0.2000E+01
     -1.634  0.2736E-09  0.2000E+01
     -1.527  0.6103E-14  0.2000E+01
     -1.420  0.0000E+00  0.2000E+01
     -1.313  0.0000E+00  0.2000E+01
     -1.206  0.0000E+00  0.2000E+01
     -1.099  0.1729E-16  0.2000E+01
     -0.992  0.2142E-11  0.2000E+01
     -0.885  0.2648E-07  0.2000E+01
     -0.778  0.3615E-04  0.2000E+01
     -0.671  0.5811E-02  0.2001E+01
     -0.564  0.1254E+00  0.2014E+01
     -0.457  0.4651E+00  0.2064E+01
     -0.350  0.4471E+00  0.2112E+01
     -0.243  0.2732E+00  0.2141E+01
     -0.136  0.2593E+00  0.2169E+01
     -0.029  0.1862E+00  0.2189E+01
      0.078  0.2206E+00  0.2212E+01
      0.185  0.8980E+00  0.2308E+01
      0.292  0.1622E+01  0.2482E+01
      0.399  0.1260E+01  0.2617E+01
      0.506  0.9363E+00  0.2717E+01
      0.614  0.9492E+00  0.2819E+01
      0.721  0.9771E+00  0.2923E+01
      0.828  0.8033E+00  0.3009E+01
      0.935  0.9380E+00  0.3109E+01
      1.042  0.7127E+00  0.3186E+01
      1.149  0.3396E+00  0.3222E+01
      1.256  0.1496E+00  0.3238E+01
      1.363  0.8893E-01  0.3248E+01
      1.470  0.3883E-01  0.3252E+01
      1.577  0.1451E+00  0.3267E+01
      1.684  0.2326E+00  0.3292E+01
      1.791  0.7713E-01  0.3300E+01
      1.898  0.6510E-01  0.3307E+01
      2.005  0.7570E-01  0.3316E+01
      2.112  0.6760E-01  0.3323E+01
      2.219  0.1959E+00  0.3344E+01
      2.326  0.2714E+00  0.3373E+01
      2.433  0.3155E+00  0.3407E+01
      2.540  0.3468E+00  0.3444E+01
      2.647  0.3096E+00  0.3477E+01
      2.754  0.4669E+00  0.3527E+01
      2.861  0.6648E+00  0.3598E+01
      2.968  0.5740E+00  0.3659E+01
      3.075  0.6548E+00  0.3729E+01
      3.182  0.6528E+00  0.3799E+01
      3.289  0.7928E+00  0.3884E+01
      3.396  0.9696E+00  0.3988E+01
      3.503  0.8540E+00  0.4079E+01
      3.610  0.6226E+00  0.4146E+01
      3.717  0.6138E+00  0.4212E+01
      3.825  0.6828E+00  0.4285E+01
      3.932  0.6574E+00  0.4355E+01
      4.039  0.6247E+00  0.4422E+01
      4.146  0.5372E+00  0.4480E+01
      4.253  0.5602E+00  0.4540E+01
      4.360  0.6878E+00  0.4613E+01
      4.467  0.7257E+00  0.4691E+01
      4.574  0.6867E+00  0.4764E+01
      4.681  0.8686E+00  0.4857E+01
      4.788  0.1910E+01  0.5062E+01
      4.895  0.2214E+01  0.5299E+01
      5.002  0.1191E+01  0.5426E+01
      5.109  0.8405E+00  0.5516E+01
      5.216  0.8244E+00  0.5604E+01
      5.323  0.8474E+00  0.5695E+01
      5.430  0.7082E+00  0.5771E+01
      5.537  0.5292E+00  0.5828E+01
      5.644  0.4265E+00  0.5873E+01
      5.751  0.4676E+00  0.5923E+01
      5.858  0.5552E+00  0.5983E+01
      5.965  0.4873E+00  0.6035E+01
      6.072  0.3931E+00  0.6077E+01
      6.179  0.4787E+00  0.6128E+01
      6.286  0.5455E+00  0.6186E+01
      6.393  0.4752E+00  0.6237E+01
      6.500  0.4906E+00  0.6290E+01
      6.607  0.4969E+00  0.6343E+01
      6.714  0.6965E+00  0.6418E+01
      6.821  0.8179E+00  0.6505E+01
      6.929  0.1509E+01  0.6667E+01
      7.036  0.1395E+01  0.6816E+01
      7.143  0.9809E+00  0.6921E+01
      7.250  0.8907E+00  0.7016E+01
      7.357  0.8060E+00  0.7103E+01
      7.464  0.8260E+00  0.7191E+01
      7.571  0.8792E+00  0.7285E+01
      7.678  0.1009E+01  0.7393E+01
      7.785  0.1186E+01  0.7520E+01
      7.892  0.1952E+01  0.7729E+01
      7.999  0.1999E+01  0.7943E+01
      8.106  0.5114E+00  0.7998E+01
      8.213  0.2158E-01  0.8000E+01
      8.320  0.1209E-03  0.8000E+01
      8.427  0.7977E-07  0.8000E+01
      8.534  0.5814E-11  0.8000E+01
      8.641  0.0000E+00  0.8000E+01
      8.748  0.3717E-15  0.8000E+01
      8.855  0.2769E-10  0.8000E+01
      8.962  0.2137E-06  0.8000E+01
      9.069  0.1857E-03  0.8000E+01
      9.176  0.1954E-01  0.8002E+01
      9.283  0.2854E+00  0.8033E+01
      9.390  0.7473E+00  0.8113E+01
      9.497  0.6074E+00  0.8178E+01
      9.604  0.4211E+00  0.8223E+01
      9.711  0.3510E+00  0.8260E+01
      9.818  0.3182E+00  0.8294E+01
      9.925  0.3173E+00  0.8328E+01
     10.032  0.2544E+00  0.8356E+01
     10.140  0.3253E+00  0.8390E+01
     10.247  0.2539E+00  0.8418E+01
     10.354  0.2623E+00  0.8446E+01
     10.461  0.2868E+00  0.8476E+01
     10.568  0.2847E+00  0.8507E+01
     10.675  0.2422E+00  0.8533E+01
     10.782  0.2333E+00  0.8558E+01
     10.889  0.3338E+00  0.8593E+01
     10.996  0.2746E+00  0.8623E+01
     11.103  0.2507E+00  0.8650E+01
     11.210  0.1731E+00  0.8668E+01
     11.317  0.1573E+00  0.8685E+01
     11.424  0.1830E+00  0.8705E+01
     11.531  0.1024E+00  0.8716E+01
     11.638  0.7468E-01  0.8724E+01
     11.745  0.2444E+00  0.8750E+01
     11.852  0.1475E+00  0.8765E+01
     11.959  0.5347E-01  0.8771E+01
     12.066  0.1725E+00  0.8790E+01
     12.173  0.4234E+00  0.8835E+01
     12.280  0.9222E+00  0.8934E+01
     12.387  0.7875E+00  0.9018E+01
     12.494  0.5609E+00  0.9078E+01
     12.601  0.5119E+00  0.9133E+01
     12.708  0.4384E+00  0.9180E+01
     12.815  0.4423E+00  0.9227E+01
     12.922  0.4336E+00  0.9273E+01
     13.029  0.7736E+00  0.9356E+01
     13.136  0.1331E+01  0.9499E+01
     13.244  0.1230E+01  0.9630E+01
     13.351  0.1131E+01  0.9751E+01
     13.458  0.8424E+00  0.9842E+01
     13.565  0.8032E+00  0.9928E+01
     13.672  0.6657E+00  0.9999E+01
     13.779  0.4969E+00  0.1005E+02
     13.886  0.3271E+00  0.1009E+02
     13.993  0.6858E+00  0.1016E+02
     14.100  0.1027E+01  0.1027E+02
     14.207  0.8100E+00  0.1036E+02
     14.314  0.7680E+00  0.1044E+02
     14.421  0.5811E+00  0.1050E+02
     14.528  0.4350E+00  0.1055E+02
     14.635  0.4489E+00  0.1060E+02
     14.742  0.6784E+00  0.1067E+02
     14.849  0.8337E+00  0.1076E+02
     14.956  0.7722E+00  0.1084E+02
     15.063  0.1636E+01  0.1102E+02
     15.170  0.3450E+01  0.1138E+02
     15.277  0.2882E+01  0.1169E+02
     15.384  0.1797E+01  0.1189E+02
     15.491  0.1449E+01  0.1204E+02
     15.598  0.1394E+01  0.1219E+02
     15.705  0.1589E+01  0.1236E+02
     15.812  0.1373E+01  0.1251E+02
     15.919  0.7631E+00  0.1259E+02
     16.026  0.5525E+00  0.1265E+02
     16.133  0.4609E+00  0.1270E+02
     16.240  0.3992E+00  0.1274E+02
     16.347  0.6111E+00  0.1281E+02
     16.455  0.5971E+00  0.1287E+02
     16.562  0.3350E+00  0.1291E+02
     16.669  0.5187E+00  0.1296E+02
     16.776  0.8190E+00  0.1305E+02
     16.883  0.5141E+00  0.1310E+02
     16.990  0.5229E+00  0.1316E+02
     17.097  0.5584E+00  0.1322E+02
     17.204  0.6834E+00  0.1329E+02
     17.311  0.9178E+00  0.1339E+02
     17.418  0.6433E+00  0.1346E+02
     17.525  0.4879E+00  0.1351E+02
     17.632  0.5872E+00  0.1357E+02
     17.739  0.8529E+00  0.1367E+02
     17.846  0.8895E+00  0.1376E+02
     17.953  0.1027E+01  0.1387E+02
     18.060  0.6772E+00  0.1394E+02
     18.167  0.6996E+00  0.1402E+02
     18.274  0.6680E+00  0.1409E+02
     18.381  0.4361E+00  0.1414E+02
     18.488  0.2516E+00  0.1416E+02
     18.595  0.4177E+00  0.1421E+02
     18.702  0.5763E+00  0.1427E+02
     18.809  0.5028E+00  0.1432E+02
     18.916  0.6655E+00  0.1439E+02
     19.023  0.5242E+00  0.1445E+02
     19.130  0.4927E+00  0.1450E+02
     19.237  0.4642E+00  0.1455E+02
     19.344  0.1668E+00  0.1457E+02
     19.451  0.1424E+00  0.1459E+02
     19.559  0.2389E+00  0.1461E+02
     19.666  0.4179E+00  0.1466E+02
     19.773  0.3108E+00  0.1469E+02
     19.880  0.3091E+00  0.1472E+02
     19.987  0.2971E+00  0.1475E+02
     20.094  0.2825E+00  0.1478E+02
     20.201  0.3899E+00  0.1483E+02
     20.308  0.4870E+00  0.1488E+02
     20.415  0.3369E+00  0.1491E+02
     20.522  0.3974E+00  0.1496E+02
     20.629  0.5580E+00  0.1502E+02
     20.736  0.3714E+00  0.1506E+02
     20.843  0.3455E+00  0.1509E+02
     20.950  0.5615E+00  0.1515E+02
     21.057  0.5035E+00  0.1521E+02
     21.164  0.4213E+00  0.1525E+02
     21.271  0.5565E+00  0.1531E+02
     21.378  0.6276E+00  0.1538E+02
     21.485  0.5795E+00  0.1544E+02
     21.592  0.7779E+00  0.1553E+02
     21.699  0.1050E+01  0.1564E+02
     21.806  0.1861E+01  0.1584E+02
     21.913  0.1328E+01  0.1598E+02
     22.020  0.1940E+00  0.1600E+02
     22.127  0.4508E-02  0.1600E+02
     22.234  0.1431E-04  0.1600E+02
     22.341  0.5652E-08  0.1600E+02
     22.448  0.2620E-12  0.1600E+02
     22.555  0.0000E+00  0.1600E+02
     22.662  0.0000E+00  0.1600E+02
     22.770  0.0000E+00  0.1600E+02
     22.877  0.0000E+00  0.1600E+02
     22.984  0.0000E+00  0.1600E+02
     23.091  0.0000E+00  0.1600E+02
     23.198  0.0000E+00  0.1600E+02
     23.305  0.0000E+00  0.1600E+02
     23.30468968     -8.80547548  301      8.43032463      1.00000000
     -8.805  0.0000E+00  0.0000E+00  0.0000E+00  0.0000E+00  0.0000E+00  0.0000E+00  0.0000E+00  0.0000E+00  0.0000E+00
     -8.698  0.0000E+00  0.0000E+00  0.0000E+00  0.0000E+00  0.0000E+00  0.0000E+00  0.0000E+00  0.0000E+00  0.0000E+00
     -8.591  0.0000E+00  0.0000E+00  0.0000E+00  0.0000E+00  0.0000E+00  0.0000E+00  0.0000E+00  0.0000E+00  0.0000E+00
     -8.484  0.0000E+00  0.0000E+00  0.0000E+00  0.0000E+00  0.0000E+00  0.0000E+00  0.0000E+00  0.0000E+00  0.0000E+00
     -8.377  0.0000E+00  0.0000E+00  0.0000E+00  0.0000E+00  0.0000E+00  0.0000E+00  0.0000E+00  0.0000E+00  0.0000E+00
     -8.270  0.0000E+00  0.0000E+00  0.0000E+00  0.0000E+00  0.0000E+00  0.0000E+00  0.0000E+00  0.0000E+00  0.0000E+00
     -8.163  0.0000E+00  0.0000E+00  0.0000E+00  0.0000E+00  0.0000E+00  0.0000E+00  0.0000E+00  0.0000E+00  0.0000E+00
     -8.056  0.0000E+00  0.0000E+00  0.0000E+00  0.0000E+00  0.0000E+00  0.0000E+00  0.0000E+00  0.0000E+00  0.0000E+00
     -7.949  0.0000E+00  0.0000E+00  0.0000E+00  0.0000E+00  0.0000E+00  0.0000E+00  0.0000E+00  0.0000E+00  0.0000E+00
     -7.842  0.1512E-12  0.1845E-16  0.4119E-17  0.8508E-17  0.0000E+00  0.0000E+00  0.0000E+00  0.0000E+00  0.0000E+00
     -7.735  0.2651E-08  0.4505E-12  0.9573E-13  0.2072E-12  0.0000E+00  0.0000E+00  0.0000E+00  0.0000E+00  0.0000E+00
     -7.628  0.5136E-05  0.1237E-08  0.2569E-09  0.5700E-09  0.0000E+00  0.0000E+00  0.0000E+00  0.0000E+00  0.0000E+00
     -7.521  0.1162E-02  0.4222E-06  0.8755E-07  0.1947E-06  0.0000E+00  0.0000E+00  0.0000E+00  0.0000E+00  0.0000E+00
     -7.414  0.3428E-01  0.2139E-04  0.4438E-05  0.9859E-05  0.0000E+00  0.0000E+00  0.0000E+00  0.0000E+00  0.0000E+00
     -7.307  0.1617E+00  0.2117E-03  0.4397E-04  0.9756E-04  0.0000E+00  0.0000E+00  0.0000E+00  0.0000E+00  0.0000E+00
     -7.200  0.1805E+00  0.6338E-03  0.1314E-03  0.2919E-03  0.0000E+00  0.0000E+00  0.0000E+00  0.0000E+00  0.0000E+00
     -7.093  0.1136E+00  0.9931E-03  0.2064E-03  0.4538E-03  0.0000E+00  0.0000E+00  0.0000E+00  0.0000E+00  0.0000E+00
     -6.986  0.8597E-01  0.1245E-02  0.2611E-03  0.5812E-03  0.0000E+00  0.0000E+00  0.0000E+00  0.0000E+00  0.0000E+00
     -6.879  0.7174E-01  0.1489E-02  0.3057E-03  0.6590E-03  0.0000E+00  0.0000E+00  0.0000E+00  0.0000E+00  0.0000E+00
     -6.772  0.6259E-01  0.1564E-02  0.3328E-03  0.7565E-03  0.0000E+00  0.0000E+00  0.0000E+00  0.0000E+00  0.0000E+00
     -6.665  0.5832E-01  0.1925E-02  0.3985E-03  0.8034E-03  0.0000E+00  0.0000E+00  0.0000E+00  0.0000E+00  0.0000E+00
     -6.558  0.5067E-01  0.1786E-02  0.3741E-03  0.9409E-03  0.0000E+00  0.0000E+00  0.0000E+00  0.0000E+00  0.0000E+00
     -6.451  0.4914E-01  0.2260E-02  0.4898E-03  0.8389E-03  0.0000E+00  0.0000E+00  0.0000E+00  0.0000E+00  0.0000E+00
     -6.344  0.4473E-01  0.2101E-02  0.3985E-03  0.1137E-02  0.0000E+00  0.0000E+00  0.0000E+00  0.0000E+00  0.0000E+00
     -6.237  0.4292E-01  0.2344E-02  0.5930E-03  0.1031E-02  0.0000E+00  0.0000E+00  0.0000E+00  0.0000E+00  0.0000E+00
     -6.130  0.3785E-01  0.2604E-02  0.4002E-03  0.8838E-03  0.0000E+00  0.0000E+00  0.0000E+00  0.0000E+00  0.0000E+00
     -6.023  0.4120E-01  0.2336E-02  0.6810E-03  0.1626E-02  0.0000E+00  0.0000E+00  0.0000E+00  0.0000E+00  0.0000E+00
     -5.916  0.3415E-01  0.2887E-02  0.4999E-03  0.8305E-03  0.0000E+00  0.0000E+00  0.0000E+00  0.0000E+00  0.0000E+00
     -5.809  0.3258E-01  0.2821E-02  0.5487E-03  0.1098E-02  0.0000E+00  0.0000E+00  0.0000E+00  0.0000E+00  0.0000E+00
     -5.701  0.3815E-01  0.2617E-02  0.8483E-03  0.1991E-02  0.0000E+00  0.0000E+00  0.0000E+00  0.0000E+00  0.0000E+00
     -5.594  0.2691E-01  0.3221E-02  0.3686E-03  0.7448E-03  0.0000E+00  0.0000E+00  0.0000E+00  0.0000E+00  0.0000E+00
     -5.487  0.3214E-01  0.3394E-02  0.8654E-03  0.1228E-02  0.0000E+00  0.0000E+00  0.0000E+00  0.0000E+00  0.0000E+00
     -5.380  0.3062E-01  0.2562E-02  0.7857E-03  0.2080E-02  0.0000E+00  0.0000E+00  0.0000E+00  0.0000E+00  0.0000E+00
     -5.273  0.2520E-01  0.3367E-02  0.4702E-03  0.1192E-02  0.0000E+00  0.0000E+00  0.0000E+00  0.0000E+00  0.0000E+00
     -5.166  0.3272E-01  0.4520E-02  0.1074E-02  0.1215E-02  0.0000E+00  0.0000E+00  0.0000E+00  0.0000E+00  0.0000E+00
     -5.059  0.2121E-01  0.2348E-02  0.6701E-03  0.1571E-02  0.0000E+00  0.0000E+00  0.0000E+00  0.0000E+00  0.0000E+00
     -4.952  0.2547E-01  0.3100E-02  0.7561E-03  0.2148E-02  0.0000E+00  0.0000E+00  0.0000E+00  0.0000E+00  0.0000E+00
     -4.845  0.3307E-01  0.5529E-02  0.1235E-02  0.1560E-02  0.0000E+00  0.0000E+00  0.0000E+00  0.0000E+00  0.0000E+00
     -4.738  0.1703E-01  0.3257E-02  0.5212E-03  0.7342E-03  0.0000E+00  0.0000E+00  0.0000E+00  0.0000E+00  0.0000E+00
     -4.631  0.2208E-01  0.2696E-02  0.1081E-02  0.2366E-02  0.0000E+00  0.0000E+00  0.0000E+00  0.0000E+00  0.0000E+00
     -4.524  0.3038E-01  0.4586E-02  0.1506E-02  0.2703E-02  0.0000E+00  0.0000E+00  0.0000E+00  0.0000E+00  0.0000E+00
     -4.417  0.2072E-01  0.5694E-02  0.5381E-03  0.7098E-03  0.0000E+00  0.0000E+00  0.0000E+00  0.0000E+00  0.0000E+00
     -4.310  0.2009E-01  0.3590E-02  0.1315E-02  0.1613E-02  0.0000E+00  0.0000E+00  0.0000E+00  0.0000E+00  0.0000E+00
     -4.203  0.2379E-01  0.3307E-02  0.1637E-02  0.3038E-02  0.0000E+00  0.0000E+00  0.0000E+00  0.0000E+00  0.0000E+00
     -4.096  0.2339E-01  0.4963E-02  0.1411E-02  0.2394E-02  0.0000E+00  0.0000E+00  0.0000E+00  0.0000E+00  0.0000E+00
     -3.989  0.2873E-01  0.7731E-02  0.1811E-02  0.1923E-02  0.0000E+00  0.0000E+00  0.0000E+00  0.0000E+00  0.0000E+00
     -3.882  0.4098E-01  0.6687E-02  0.4372E-02  0.4683E-02  0.0000E+00  0.0000E+00  0.0000E+00  0.0000E+00  0.0000E+00
     -3.775  0.8311E-01  0.1151E-01  0.9966E-02  0.1092E-01  0.0000E+00  0.0000E+00  0.0000E+00  0.0000E+00  0.0000E+00
     -3.668  0.6316E-01  0.1142E-01  0.7747E-02  0.7648E-02  0.0000E+00  0.0000E+00  0.0000E+00  0.0000E+00  0.0000E+00
     -3.561  0.4114E-01  0.1184E-01  0.4988E-02  0.3888E-02  0.0000E+00  0.0000E+00  0.0000E+00  0.0000E+00  0.0000E+00
     -3.454  0.3080E-01  0.7680E-02  0.5027E-02  0.3887E-02  0.0000E+00  0.0000E+00  0.0000E+00  0.0000E+00  0.0000E+00
     -3.347  0.2909E-01  0.6764E-02  0.5649E-02  0.4608E-02  0.0000E+00  0.0000E+00  0.0000E+00  0.0000E+00  0.0000E+00
     -3.240  0.2292E-01  0.8619E-02  0.4556E-02  0.2718E-02  0.0000E+00  0.0000E+00  0.0000E+00  0.0000E+00  0.0000E+00
     -3.133  0.2351E-01  0.1245E-01  0.4652E-02  0.2244E-02  0.0000E+00  0.0000E+00  0.0000E+00  0.0000E+00  0.0000E+00
     -3.026  0.2212E-01  0.8705E-02  0.6519E-02  0.3616E-02  0.0000E+00  0.0000E+00  0.0000E+00  0.0000E+00  0.0000E+00
     -2.919  0.1635E-01  0.6918E-02  0.5915E-02  0.2718E-02  0.0000E+00  0.0000E+00  0.0000E+00  0.0000E+00  0.0000E+00
     -2.812  0.1582E-01  0.1279E-01  0.6062E-02  0.2004E-02  0.0000E+00  0.0000E+00  0.0000E+00  0.0000E+00  0.0000E+00
     -2.705  0.1806E-01  0.1437E-01  0.8787E-02  0.3070E-02  0.0000E+00  0.0000E+00  0.0000E+00  0.0000E+00  0.0000E+00
     -2.598  0.1186E-01  0.1075E-01  0.8794E-02  0.2316E-02  0.0000E+00  0.0000E+00  0.0000E+00  0.0000E+00  0.0000E+00
     -2.490  0.1268E-01  0.4682E-01  0.1354E-01  0.3261E-02  0.0000E+00  0.0000E+00  0.0000E+00  0.0000E+00  0.0000E+00
     -2.383  0.1510E-01  0.2291E+00  0.2294E-01  0.7307E-02  0.0000E+00  0.0000E+00  0.0000E+00  0.0000E+00  0.0000E+00
     -2.276  0.1273E-01  0.3145E+00  0.3420E-01  0.8628E-02  0.0000E+00  0.0000E+00  0.0000E+00  0.0000E+00  0.0000E+00
     -2.169  0.3844E-02  0.1476E+00  0.4551E-01  0.2270E-02  0.0000E+00  0.0000E+00  0.0000E+00  0.0000E+00  0.0000E+00
     -2.062  0.4688E-03  0.4235E-01  0.2501E-01  0.1307E-03  0.0000E+00  0.0000E+00  0.0000E+00  0.0000E+00  0.0000E+00
     -1.955  0.2140E-04  0.3662E-02  0.2619E-02  0.3048E-05  0.0000E+00  0.0000E+00  0.0000E+00  0.0000E+00  0.0000E+00
     -1.848  0.1936E-06  0.5038E-04  0.3910E-04  0.2427E-07  0.0000E+00  0.0000E+00  0.0000E+00  0.0000E+00  0.0000E+00
     -1.741  0.2401E-09  0.8802E-07  0.7166E-07  0.2981E-10  0.0000E+00  0.0000E+00  0.0000E+00  0.0000E+00  0.0000E+00
     -1.634  0.3469E-13  0.1771E-10  0.1488E-10  0.4304E-14  0.0000E+00  0.0000E+00  0.0000E+00  0.0000E+00  0.0000E+00
     -1.527  0.5252E-18  0.3908E-15  0.3360E-15  0.6516E-19  0.0000E+00  0.0000E+00  0.0000E+00  0.0000E+00  0.0000E+00
     -1.420  0.0000E+00  0.0000E+00  0.0000E+00  0.0000E+00  0.0000E+00  0.0000E+00  0.0000E+00  0.0000E+00  0.0000E+00
     -1.313  0.0000E+00  0.0000E+00  0.0000E+00  0.0000E+00  0.0000E+00  0.0000E+00  0.0000E+00  0.0000E+00  0.0000E+00
     -1.206  0.0000E+00  0.0000E+00  0.0000E+00  0.0000E+00  0.0000E+00  0.0000E+00  0.0000E+00  0.0000E+00  0.0000E+00
     -1.099  0.2763E-17  0.6626E-18  0.6626E-18  0.6626E-18  0.0000E+00  0.0000E+00  0.0000E+00  0.0000E+00  0.0000E+00
     -0.992  0.3425E-12  0.8209E-13  0.8209E-13  0.8207E-13  0.0000E+00  0.0000E+00  0.0000E+00  0.0000E+00  0.0000E+00
     -0.885  0.4234E-08  0.1015E-08  0.1015E-08  0.1014E-08  0.0000E+00  0.0000E+00  0.0000E+00  0.0000E+00  0.0000E+00
     -0.778  0.5782E-05  0.1385E-05  0.1385E-05  0.1385E-05  0.0000E+00  0.0000E+00  0.0000E+00  0.0000E+00  0.0000E+00
     -0.671  0.9296E-03  0.2227E-03  0.2227E-03  0.2225E-03  0.0000E+00  0.0000E+00  0.0000E+00  0.0000E+00  0.0000E+00
     -0.564  0.2008E-01  0.4805E-02  0.4805E-02  0.4799E-02  0.0000E+00  0.0000E+00  0.0000E+00  0.0000E+00  0.0000E+00
     -0.457  0.7450E-01  0.1781E-01  0.1781E-01  0.1775E-01  0.0000E+00  0.0000E+00  0.0000E+00  0.0000E+00  0.0000E+00
     -0.350  0.7207E-01  0.1708E-01  0.1708E-01  0.1694E-01  0.0000E+00  0.0000E+00  0.0000E+00  0.0000E+00  0.0000E+00
     -0.243  0.4467E-01  0.1037E-01  0.1037E-01  0.1016E-01  0.0000E+00  0.0000E+00  0.0000E+00  0.0000E+00  0.0000E+00
     -0.136  0.4240E-01  0.9807E-02  0.9807E-02  0.9535E-02  0.0000E+00  0.0000E+00  0.0000E+00  0.0000E+00  0.0000E+00
     -0.029  0.3199E-01  0.6904E-02  0.6904E-02  0.6574E-02  0.0000E+00  0.0000E+00  0.0000E+00  0.0000E+00  0.0000E+00
      0.078  0.5051E-01  0.5652E-02  0.5654E-02  0.5270E-02  0.0000E+00  0.0000E+00  0.0000E+00  0.0000E+00  0.0000E+00
      0.185  0.2772E+00  0.7597E-02  0.7612E-02  0.7235E-02  0.0000E+00  0.0000E+00  0.0000E+00  0.0000E+00  0.0000E+00
      0.292  0.5374E+00  0.6863E-02  0.6669E-02  0.6488E-02  0.0000E+00  0.0000E+00  0.0000E+00  0.0000E+00  0.0000E+00
      0.399  0.4257E+00  0.5140E-02  0.4620E-02  0.4652E-02  0.0000E+00  0.0000E+00  0.0000E+00  0.0000E+00  0.0000E+00
      0.506  0.3168E+00  0.5410E-02  0.4748E-02  0.4834E-02  0.0000E+00  0.0000E+00  0.0000E+00  0.0000E+00  0.0000E+00
      0.614  0.3103E+00  0.9610E-02  0.7213E-02  0.6996E-02  0.0000E+00  0.0000E+00  0.0000E+00  0.0000E+00  0.0000E+00
      0.721  0.3235E+00  0.1110E-01  0.7908E-02  0.6099E-02  0.0000E+00  0.0000E+00  0.0000E+00  0.0000E+00  0.0000E+00
      0.828  0.2831E+00  0.6007E-02  0.8030E-02  0.3296E-02  0.0000E+00  0.0000E+00  0.0000E+00  0.0000E+00  0.0000E+00
      0.935  0.3508E+00  0.3713E-02  0.9828E-02  0.2041E-02  0.0000E+00  0.0000E+00  0.0000E+00  0.0000E+00  0.0000E+00
      1.042  0.2566E+00  0.3725E-02  0.1004E-01  0.1943E-02  0.0000E+00  0.0000E+00  0.0000E+00  0.0000E+00  0.0000E+00
      1.149  0.8427E-01  0.6540E-02  0.1074E-01  0.3501E-02  0.0000E+00  0.0000E+00  0.0000E+00  0.0000E+00  0.0000E+00
      1.256  0.3034E-01  0.2931E-02  0.7359E-02  0.1368E-02  0.0000E+00  0.0000E+00  0.0000E+00  0.0000E+00  0.0000E+00
      1.363  0.1731E-01  0.2318E-03  0.7671E-02  0.1121E-03  0.0000E+00  0.0000E+00  0.0000E+00  0.0000E+00  0.0000E+00
      1.470  0.6954E-02  0.2009E-03  0.3341E-02  0.1019E-03  0.0000E+00  0.0000E+00  0.0000E+00  0.0000E+00  0.0000E+00
      1.577  0.2348E-01  0.3093E-02  0.8764E-02  0.1463E-02  0.0000E+00  0.0000E+00  0.0000E+00  0.0000E+00  0.0000E+00
      1.684  0.3759E-01  0.7350E-02  0.9552E-02  0.3537E-02  0.0000E+00  0.0000E+00  0.0000E+00  0.0000E+00  0.0000E+00
      1.791  0.1216E-01  0.2660E-02  0.2820E-02  0.1326E-02  0.0000E+00  0.0000E+00  0.0000E+00  0.0000E+00  0.0000E+00
      1.898  0.8684E-02  0.2637E-03  0.6443E-02  0.1981E-03  0.0000E+00  0.0000E+00  0.0000E+00  0.0000E+00  0.0000E+00
      2.005  0.1009E-01  0.2795E-03  0.7550E-02  0.1805E-03  0.0000E+00  0.0000E+00  0.0000E+00  0.0000E+00  0.0000E+00
      2.112  0.1025E-01  0.2603E-02  0.2183E-02  0.8450E-03  0.0000E+00  0.0000E+00  0.0000E+00  0.0000E+00  0.0000E+00
      2.219  0.2637E-01  0.8463E-02  0.5776E-02  0.4072E-02  0.0000E+00  0.0000E+00  0.0000E+00  0.0000E+00  0.0000E+00
      2.326  0.2112E-01  0.1101E-01  0.1641E-01  0.9410E-02  0.0000E+00  0.0000E+00  0.0000E+00  0.0000E+00  0.0000E+00
      2.433  0.9684E-02  0.1667E-01  0.2047E-01  0.1730E-01  0.0000E+00  0.0000E+00  0.0000E+00  0.0000E+00  0.0000E+00
      2.540  0.4951E-02  0.2082E-01  0.2116E-01  0.2320E-01  0.0000E+00  0.0000E+00  0.0000E+00  0.0000E+00  0.0000E+00
      2.647  0.9775E-02  0.1677E-01  0.1845E-01  0.1880E-01  0.0000E+00  0.0000E+00  0.0000E+00  0.0000E+00  0.0000E+00
      2.754  0.3034E-01  0.1990E-01  0.2491E-01  0.2242E-01  0.0000E+00  0.0000E+00  0.0000E+00  0.0000E+00  0.0000E+00
      2.861  0.3108E-01  0.2707E-01  0.3305E-01  0.4499E-01  0.0000E+00  0.0000E+00  0.0000E+00  0.0000E+00  0.0000E+00
      2.968  0.1252E-01  0.1847E-01  0.2263E-01  0.5783E-01  0.0000E+00  0.0000E+00  0.0000E+00  0.0000E+00  0.0000E+00
      3.075  0.9802E-02  0.1219E-01  0.1608E-01  0.8224E-01  0.0000E+00  0.0000E+00  0.0000E+00  0.0000E+00  0.0000E+00
      3.182  0.2040E-01  0.1607E-01  0.2089E-01  0.6905E-01  0.0000E+00  0.0000E+00  0.0000E+00  0.0000E+00  0.0000E+00
      3.289  0.3199E-01  0.3810E-01  0.4780E-01  0.4755E-01  0.0000E+00  0.0000E+00  0.0000E+00  0.0000E+00  0.0000E+00
      3.396  0.2404E-01  0.6485E-01  0.8051E-01  0.4207E-01  0.0000E+00  0.0000E+00  0.0000E+00  0.0000E+00  0.0000E+00
      3.503  0.2048E-01  0.5116E-01  0.7087E-01  0.4534E-01  0.0000E+00  0.0000E+00  0.0000E+00  0.0000E+00  0.0000E+00
      3.610  0.1361E-01  0.3074E-01  0.5198E-01  0.4035E-01  0.0000E+00  0.0000E+00  0.0000E+00  0.0000E+00  0.0000E+00
      3.717  0.1499E-01  0.2572E-01  0.5229E-01  0.3869E-01  0.0000E+00  0.0000E+00  0.0000E+00  0.0000E+00  0.0000E+00
      3.825  0.2827E-01  0.2511E-01  0.5184E-01  0.3845E-01  0.0000E+00  0.0000E+00  0.0000E+00  0.0000E+00  0.0000E+00
      3.932  0.2264E-01  0.2586E-01  0.4850E-01  0.4327E-01  0.0000E+00  0.0000E+00  0.0000E+00  0.0000E+00  0.0000E+00
      4.039  0.1831E-01  0.2245E-01  0.4793E-01  0.4516E-01  0.0000E+00  0.0000E+00  0.0000E+00  0.0000E+00  0.0000E+00
      4.146  0.1373E-01  0.1599E-01  0.4526E-01  0.4156E-01  0.0000E+00  0.0000E+00  0.0000E+00  0.0000E+00  0.0000E+00
      4.253  0.1162E-01  0.1557E-01  0.4884E-01  0.4352E-01  0.0000E+00  0.0000E+00  0.0000E+00  0.0000E+00  0.0000E+00
      4.360  0.2358E-01  0.1877E-01  0.5325E-01  0.4713E-01  0.0000E+00  0.0000E+00  0.0000E+00  0.0000E+00  0.0000E+00
      4.467  0.2174E-01  0.2060E-01  0.5716E-01  0.5544E-01  0.0000E+00  0.0000E+00  0.0000E+00  0.0000E+00  0.0000E+00
      4.574  0.1112E-01  0.1397E-01  0.6138E-01  0.6121E-01  0.0000E+00  0.0000E+00  0.0000E+00  0.0000E+00  0.0000E+00
      4.681  0.7430E-02  0.8340E-02  0.8557E-01  0.8720E-01  0.0000E+00  0.0000E+00  0.0000E+00  0.0000E+00  0.0000E+00
      4.788  0.1283E-01  0.1529E-01  0.1940E+00  0.1969E+00  0.0000E+00  0.0000E+00  0.0000E+00  0.0000E+00  0.0000E+00
      4.895  0.2229E-01  0.1898E-01  0.2193E+00  0.2173E+00  0.0000E+00  0.0000E+00  0.0000E+00  0.0000E+00  0.0000E+00
      5.002  0.8656E-02  0.7709E-02  0.1202E+00  0.1180E+00  0.0000E+00  0.0000E+00  0.0000E+00  0.0000E+00  0.0000E+00
      5.109  0.3795E-02  0.7909E-02  0.8339E-01  0.8351E-01  0.0000E+00  0.0000E+00  0.0000E+00  0.0000E+00  0.0000E+00
      5.216  0.1074E-01  0.1262E-01  0.7331E-01  0.7240E-01  0.0000E+00  0.0000E+00  0.0000E+00  0.0000E+00  0.0000E+00
      5.323  0.1294E-01  0.2039E-01  0.6487E-01  0.7141E-01  0.0000E+00  0.0000E+00  0.0000E+00  0.0000E+00  0.0000E+00
      5.430  0.1155E-01  0.2210E-01  0.4695E-01  0.5570E-01  0.0000E+00  0.0000E+00  0.0000E+00  0.0000E+00  0.0000E+00
      5.537  0.8697E-02  0.1810E-01  0.3498E-01  0.3814E-01  0.0000E+00  0.0000E+00  0.0000E+00  0.0000E+00  0.0000E+00
      5.644  0.5287E-02  0.1907E-01  0.2502E-01  0.3314E-01  0.0000E+00  0.0000E+00  0.0000E+00  0.0000E+00  0.0000E+00
      5.751  0.6761E-02  0.1879E-01  0.2489E-01  0.3549E-01  0.0000E+00  0.0000E+00  0.0000E+00  0.0000E+00  0.0000E+00
      5.858  0.1238E-01  0.2627E-01  0.2367E-01  0.3348E-01  0.0000E+00  0.0000E+00  0.0000E+00  0.0000E+00  0.0000E+00
      5.965  0.8329E-02  0.1932E-01  0.2654E-01  0.3082E-01  0.0000E+00  0.0000E+00  0.0000E+00  0.0000E+00  0.0000E+00
      6.072  0.4517E-02  0.1567E-01  0.1983E-01  0.2691E-01  0.0000E+00  0.0000E+00  0.0000E+00  0.0000E+00  0.0000E+00
      6.179  0.5338E-02  0.1779E-01  0.2640E-01  0.3209E-01  0.0000E+00  0.0000E+00  0.0000E+00  0.0000E+00  0.0000E+00
      6.286  0.8673E-02  0.2610E-01  0.2291E-01  0.3180E-01  0.0000E+00  0.0000E+00  0.0000E+00  0.0000E+00  0.0000E+00
      6.393  0.7105E-02  0.1810E-01  0.1964E-01  0.2745E-01  0.0000E+00  0.0000E+00  0.0000E+00  0.0000E+00  0.0000E+00
      6.500  0.3373E-02  0.1985E-01  0.2377E-01  0.3251E-01  0.0000E+00  0.0000E+00  0.0000E+00  0.0000E+00  0.0000E+00
      6.607  0.4665E-02  0.2005E-01  0.2228E-01  0.2900E-01  0.0000E+00  0.0000E+00  0.0000E+00  0.0000E+00  0.0000E+00
      6.714  0.5935E-02  0.2660E-01  0.2958E-01  0.4008E-01  0.0000E+00  0.0000E+00  0.0000E+00  0.0000E+00  0.0000E+00
      6.821  0.4814E-02  0.3581E-01  0.3337E-01  0.4615E-01  0.0000E+00  0.0000E+00  0.0000E+00  0.0000E+00  0.0000E+00
      6.929  0.2585E-02  0.6738E-01  0.6964E-01  0.8469E-01  0.0000E+00  0.0000E+00  0.0000E+00  0.0000E+00  0.0000E+00
      7.036  0.2103E-02  0.6190E-01  0.6495E-01  0.7296E-01  0.0000E+00  0.0000E+00  0.0000E+00  0.0000E+00  0.0000E+00
      7.143  0.3941E-02  0.4202E-01  0.3785E-01  0.4337E-01  0.0000E+00  0.0000E+00  0.0000E+00  0.0000E+00  0.0000E+00
      7.250  0.2746E-02  0.3182E-01  0.3434E-01  0.3926E-01  0.0000E+00  0.0000E+00  0.0000E+00  0.0000E+00  0.0000E+00
      7.357  0.1831E-02  0.2880E-01  0.2875E-01  0.3340E-01  0.0000E+00  0.0000E+00  0.0000E+00  0.0000E+00  0.0000E+00
      7.464  0.1926E-02  0.2732E-01  0.2613E-01  0.3156E-01  0.0000E+00  0.0000E+00  0.0000E+00  0.0000E+00  0.0000E+00
      7.571  0.1946E-02  0.2715E-01  0.2487E-01  0.3042E-01  0.0000E+00  0.0000E+00  0.0000E+00  0.0000E+00  0.0000E+00
      7.678  0.1535E-02  0.2728E-01  0.2706E-01  0.3218E-01  0.0000E+00  0.0000E+00  0.0000E+00  0.0000E+00  0.0000E+00
      7.785  0.1137E-02  0.3053E-01  0.2686E-01  0.3301E-01  0.0000E+00  0.0000E+00  0.0000E+00  0.0000E+00  0.0000E+00
      7.892  0.7132E-03  0.4349E-01  0.3745E-01  0.4721E-01  0.0000E+00  0.0000E+00  0.0000E+00  0.0000E+00  0.0000E+00
      7.999  0.2985E-03  0.4206E-01  0.3491E-01  0.4409E-01  0.0000E+00  0.0000E+00  0.0000E+00  0.0000E+00  0.0000E+00
      8.106  0.2725E-04  0.1048E-01  0.8679E-02  0.1093E-01  0.0000E+00  0.0000E+00  0.0000E+00  0.0000E+00  0.0000E+00
      8.213  0.3626E-06  0.4399E-03  0.3605E-03  0.4545E-03  0.0000E+00  0.0000E+00  0.0000E+00  0.0000E+00  0.0000E+00
      8.320  0.6066E-09  0.2465E-05  0.2009E-05  0.2516E-05  0.0000E+00  0.0000E+00  0.0000E+00  0.0000E+00  0.0000E+00
      8.427  0.1174E-12  0.1623E-08  0.1328E-08  0.1642E-08  0.0000E+00  0.0000E+00  0.0000E+00  0.0000E+00  0.0000E+00
      8.534  0.2495E-17  0.1180E-12  0.9741E-13  0.1187E-12  0.0000E+00  0.0000E+00  0.0000E+00  0.0000E+00  0.0000E+00
      8.641  0.0000E+00  0.0000E+00  0.0000E+00  0.0000E+00  0.0000E+00  0.0000E+00  0.0000E+00  0.0000E+00  0.0000E+00
      8.748  0.1177E-21  0.3671E-16  0.8835E-20  0.3777E-20  0.0000E+00  0.0000E+00  0.0000E+00  0.0000E+00  0.0000E+00
      8.855  0.2856E-15  0.2734E-11  0.9014E-15  0.4222E-15  0.0000E+00  0.0000E+00  0.0000E+00  0.0000E+00  0.0000E+00
      8.962  0.4033E-11  0.2110E-07  0.1014E-10  0.4384E-11  0.0000E+00  0.0000E+00  0.0000E+00  0.0000E+00  0.0000E+00
      9.069  0.6249E-08  0.1834E-04  0.1313E-07  0.5430E-08  0.0000E+00  0.0000E+00  0.0000E+00  0.0000E+00  0.0000E+00
      9.176  0.1146E-05  0.1929E-02  0.2176E-05  0.8939E-06  0.0000E+00  0.0000E+00  0.0000E+00  0.0000E+00  0.0000E+00
      9.283  0.3146E-04  0.2815E-01  0.5772E-04  0.2365E-04  0.0000E+00  0.0000E+00  0.0000E+00  0.0000E+00  0.0000E+00
      9.390  0.2103E-03  0.7353E-01  0.3410E-03  0.1385E-03  0.0000E+00  0.0000E+00  0.0000E+00  0.0000E+00  0.0000E+00
      9.497  0.5189E-03  0.5929E-01  0.7334E-03  0.2911E-03  0.0000E+00  0.0000E+00  0.0000E+00  0.0000E+00  0.0000E+00
      9.604  0.9498E-03  0.4068E-01  0.9615E-03  0.3767E-03  0.0000E+00  0.0000E+00  0.0000E+00  0.0000E+00  0.0000E+00
      9.711  0.1247E-02  0.3318E-01  0.1142E-02  0.4122E-03  0.0000E+00  0.0000E+00  0.0000E+00  0.0000E+00  0.0000E+00
      9.818  0.1961E-02  0.3010E-01  0.1146E-02  0.4174E-03  0.0000E+00  0.0000E+00  0.0000E+00  0.0000E+00  0.0000E+00
      9.925  0.2502E-02  0.2943E-01  0.1308E-02  0.3996E-03  0.0000E+00  0.0000E+00  0.0000E+00  0.0000E+00  0.0000E+00
     10.032  0.2830E-02  0.2249E-01  0.1127E-02  0.3634E-03  0.0000E+00  0.0000E+00  0.0000E+00  0.0000E+00  0.0000E+00
     10.140  0.4573E-02  0.3048E-01  0.1400E-02  0.3133E-03  0.0000E+00  0.0000E+00  0.0000E+00  0.0000E+00  0.0000E+00
     10.247  0.4671E-02  0.2227E-01  0.9510E-03  0.2542E-03  0.0000E+00  0.0000E+00  0.0000E+00  0.0000E+00  0.0000E+00
     10.354  0.5141E-02  0.2115E-01  0.1423E-02  0.1916E-03  0.0000E+00  0.0000E+00  0.0000E+00  0.0000E+00  0.0000E+00
     10.461  0.7625E-02  0.2700E-01  0.8701E-03  0.1312E-03  0.0000E+00  0.0000E+00  0.0000E+00  0.0000E+00  0.0000E+00
     10.568  0.7958E-02  0.2486E-01  0.1121E-02  0.7857E-04  0.0000E+00  0.0000E+00  0.0000E+00  0.0000E+00  0.0000E+00
     10.675  0.7446E-02  0.1772E-01  0.1178E-02  0.3820E-04  0.0000E+00  0.0000E+00  0.0000E+00  0.0000E+00  0.0000E+00
     10.782  0.9194E-02  0.1950E-01  0.6132E-03  0.1301E-04  0.0000E+00  0.0000E+00  0.0000E+00  0.0000E+00  0.0000E+00
     10.889  0.1184E-01  0.3108E-01  0.1564E-02  0.4785E-05  0.0000E+00  0.0000E+00  0.0000E+00  0.0000E+00  0.0000E+00
     10.996  0.1250E-01  0.1877E-01  0.3418E-02  0.1795E-04  0.0000E+00  0.0000E+00  0.0000E+00  0.0000E+00  0.0000E+00
     11.103  0.1193E-01  0.1114E-01  0.6320E-02  0.3088E-04  0.0000E+00  0.0000E+00  0.0000E+00  0.0000E+00  0.0000E+00
     11.210  0.4948E-02  0.1364E-01  0.3193E-02  0.1198E-04  0.0000E+00  0.0000E+00  0.0000E+00  0.0000E+00  0.0000E+00
     11.317  0.6708E-02  0.1876E-01  0.2992E-02  0.4344E-04  0.0000E+00  0.0000E+00  0.0000E+00  0.0000E+00  0.0000E+00
     11.424  0.7275E-02  0.1013E-01  0.6366E-02  0.9499E-04  0.0000E+00  0.0000E+00  0.0000E+00  0.0000E+00  0.0000E+00
     11.531  0.2102E-02  0.4551E-02  0.2912E-02  0.3429E-04  0.0000E+00  0.0000E+00  0.0000E+00  0.0000E+00  0.0000E+00
     11.638  0.3046E-02  0.5942E-02  0.2074E-02  0.7263E-04  0.0000E+00  0.0000E+00  0.0000E+00  0.0000E+00  0.0000E+00
     11.745  0.1066E-01  0.2246E-01  0.6297E-02  0.2338E-03  0.0000E+00  0.0000E+00  0.0000E+00  0.0000E+00  0.0000E+00
     11.852  0.5820E-02  0.1426E-01  0.3323E-02  0.1154E-03  0.0000E+00  0.0000E+00  0.0000E+00  0.0000E+00  0.0000E+00
     11.959  0.1196E-02  0.2810E-02  0.1160E-02  0.5361E-04  0.0000E+00  0.0000E+00  0.0000E+00  0.0000E+00  0.0000E+00
     12.066  0.9171E-02  0.5938E-02  0.4995E-02  0.3334E-03  0.0000E+00  0.0000E+00  0.0000E+00  0.0000E+00  0.0000E+00
     12.173  0.7327E-01  0.1705E-01  0.4749E-02  0.4190E-03  0.0000E+00  0.0000E+00  0.0000E+00  0.0000E+00  0.0000E+00
     12.280  0.2006E+00  0.2200E-01  0.1422E-02  0.5178E-03  0.0000E+00  0.0000E+00  0.0000E+00  0.0000E+00  0.0000E+00
     12.387  0.1697E+00  0.7368E-02  0.2630E-02  0.1273E-02  0.0000E+00  0.0000E+00  0.0000E+00  0.0000E+00  0.0000E+00
     12.494  0.1124E+00  0.3145E-02  0.6051E-02  0.2179E-02  0.0000E+00  0.0000E+00  0.0000E+00  0.0000E+00  0.0000E+00
     12.601  0.8949E-01  0.1264E-01  0.3792E-02  0.2175E-02  0.0000E+00  0.0000E+00  0.0000E+00  0.0000E+00  0.0000E+00
     12.708  0.7316E-01  0.2705E-01  0.1403E-02  0.2135E-02  0.0000E+00  0.0000E+00  0.0000E+00  0.0000E+00  0.0000E+00
     12.815  0.7010E-01  0.1347E-01  0.3452E-02  0.2673E-02  0.0000E+00  0.0000E+00  0.0000E+00  0.0000E+00  0.0000E+00
     12.922  0.5952E-01  0.4290E-02  0.6619E-02  0.3639E-02  0.0000E+00  0.0000E+00  0.0000E+00  0.0000E+00  0.0000E+00
     13.029  0.6570E-01  0.1143E-01  0.5855E-02  0.4464E-02  0.0000E+00  0.0000E+00  0.0000E+00  0.0000E+00  0.0000E+00
     13.136  0.7798E-01  0.3491E-01  0.9210E-02  0.6059E-02  0.0000E+00  0.0000E+00  0.0000E+00  0.0000E+00  0.0000E+00
     13.244  0.1527E+00  0.2857E-01  0.1336E-01  0.9109E-02  0.0000E+00  0.0000E+00  0.0000E+00  0.0000E+00  0.0000E+00
     13.351  0.2219E+00  0.1607E-01  0.1832E-01  0.1144E-01  0.0000E+00  0.0000E+00  0.0000E+00  0.0000E+00  0.0000E+00
     13.458  0.1666E+00  0.1808E-01  0.1440E-01  0.1063E-01  0.0000E+00  0.0000E+00  0.0000E+00  0.0000E+00  0.0000E+00
     13.565  0.1436E+00  0.4042E-01  0.1476E-01  0.9469E-02  0.0000E+00  0.0000E+00  0.0000E+00  0.0000E+00  0.0000E+00
     13.672  0.1130E+00  0.3284E-01  0.1445E-01  0.9520E-02  0.0000E+00  0.0000E+00  0.0000E+00  0.0000E+00  0.0000E+00
     13.779  0.8519E-01  0.1209E-01  0.1347E-01  0.1284E-01  0.0000E+00  0.0000E+00  0.0000E+00  0.0000E+00  0.0000E+00
     13.886  0.5054E-01  0.1879E-01  0.9096E-02  0.9675E-02  0.0000E+00  0.0000E+00  0.0000E+00  0.0000E+00  0.0000E+00
     13.993  0.9021E-01  0.4103E-01  0.9604E-02  0.1111E-01  0.0000E+00  0.0000E+00  0.0000E+00  0.0000E+00  0.0000E+00
     14.100  0.1363E+00  0.2675E-01  0.1441E-01  0.1606E-01  0.0000E+00  0.0000E+00  0.0000E+00  0.0000E+00  0.0000E+00
     14.207  0.9409E-01  0.2744E-01  0.1864E-01  0.1715E-01  0.0000E+00  0.0000E+00  0.0000E+00  0.0000E+00  0.0000E+00
     14.314  0.7814E-01  0.5120E-01  0.1804E-01  0.1795E-01  0.0000E+00  0.0000E+00  0.0000E+00  0.0000E+00  0.0000E+00
     14.421  0.6318E-01  0.3372E-01  0.1198E-01  0.1221E-01  0.0000E+00  0.0000E+00  0.0000E+00  0.0000E+00  0.0000E+00
     14.528  0.4945E-01  0.1410E-01  0.1602E-01  0.9024E-02  0.0000E+00  0.0000E+00  0.0000E+00  0.0000E+00  0.0000E+00
     14.635  0.3561E-01  0.2287E-01  0.3032E-01  0.1024E-01  0.0000E+00  0.0000E+00  0.0000E+00  0.0000E+00  0.0000E+00
     14.742  0.5755E-01  0.4524E-01  0.4139E-01  0.1760E-01  0.0000E+00  0.0000E+00  0.0000E+00  0.0000E+00  0.0000E+00
     14.849  0.8153E-01  0.6898E-01  0.3881E-01  0.1962E-01  0.0000E+00  0.0000E+00  0.0000E+00  0.0000E+00  0.0000E+00
     14.956  0.6179E-01  0.8975E-01  0.3622E-01  0.2822E-01  0.0000E+00  0.0000E+00  0.0000E+00  0.0000E+00  0.0000E+00
     15.063  0.1061E+00  0.2008E+00  0.9831E-01  0.1362E+00  0.0000E+00  0.0000E+00  0.0000E+00  0.0000E+00  0.0000E+00
     15.170  0.1229E+00  0.4345E+00  0.3363E+00  0.4214E+00  0.0000E+00  0.0000E+00  0.0000E+00  0.0000E+00  0.0000E+00
     15.277  0.5010E-01  0.3470E+00  0.3612E+00  0.4039E+00  0.0000E+00  0.0000E+00  0.0000E+00  0.0000E+00  0.0000E+00
     15.384  0.3551E-01  0.1775E+00  0.2345E+00  0.2433E+00  0.0000E+00  0.0000E+00  0.0000E+00  0.0000E+00  0.0000E+00
     15.491  0.3784E-01  0.1398E+00  0.1757E+00  0.1828E+00  0.0000E+00  0.0000E+00  0.0000E+00  0.0000E+00  0.0000E+00
     15.598  0.3322E-01  0.1339E+00  0.1605E+00  0.1780E+00  0.0000E+00  0.0000E+00  0.0000E+00  0.0000E+00  0.0000E+00
     15.705  0.3676E-01  0.1529E+00  0.1928E+00  0.1954E+00  0.0000E+00  0.0000E+00  0.0000E+00  0.0000E+00  0.0000E+00
     15.812  0.3029E-01  0.1447E+00  0.1665E+00  0.1599E+00  0.0000E+00  0.0000E+00  0.0000E+00  0.0000E+00  0.0000E+00
     15.919  0.2136E-01  0.6263E-01  0.8398E-01  0.1047E+00  0.0000E+00  0.0000E+00  0.0000E+00  0.0000E+00  0.0000E+00
     16.026  0.1534E-01  0.3326E-01  0.6415E-01  0.7146E-01  0.0000E+00  0.0000E+00  0.0000E+00  0.0000E+00  0.0000E+00
     16.133  0.1847E-01  0.2690E-01  0.5653E-01  0.3349E-01  0.0000E+00  0.0000E+00  0.0000E+00  0.0000E+00  0.0000E+00
     16.240  0.2153E-01  0.2318E-01  0.3402E-01  0.4342E-01  0.0000E+00  0.0000E+00  0.0000E+00  0.0000E+00  0.0000E+00
     16.347  0.2599E-01  0.2191E-01  0.6453E-01  0.6881E-01  0.0000E+00  0.0000E+00  0.0000E+00  0.0000E+00  0.0000E+00
     16.455  0.2670E-01  0.2455E-01  0.5862E-01  0.4386E-01  0.0000E+00  0.0000E+00  0.0000E+00  0.0000E+00  0.0000E+00
     16.562  0.2147E-01  0.1631E-01  0.2844E-01  0.1828E-01  0.0000E+00  0.0000E+00  0.0000E+00  0.0000E+00  0.0000E+00
     16.669  0.2877E-01  0.1504E-01  0.5507E-01  0.3465E-01  0.0000E+00  0.0000E+00  0.0000E+00  0.0000E+00  0.0000E+00
     16.776  0.3588E-01  0.2201E-01  0.8795E-01  0.6307E-01  0.0000E+00  0.0000E+00  0.0000E+00  0.0000E+00  0.0000E+00
     16.883  0.3269E-01  0.1191E-01  0.4218E-01  0.2854E-01  0.0000E+00  0.0000E+00  0.0000E+00  0.0000E+00  0.0000E+00
     16.990  0.4652E-01  0.1485E-01  0.1993E-01  0.1711E-01  0.0000E+00  0.0000E+00  0.0000E+00  0.0000E+00  0.0000E+00
     17.097  0.4644E-01  0.1888E-01  0.2630E-01  0.2525E-01  0.0000E+00  0.0000E+00  0.0000E+00  0.0000E+00  0.0000E+00
     17.204  0.5329E-01  0.1497E-01  0.5512E-01  0.4069E-01  0.0000E+00  0.0000E+00  0.0000E+00  0.0000E+00  0.0000E+00
     17.311  0.7344E-01  0.4255E-01  0.6291E-01  0.3675E-01  0.0000E+00  0.0000E+00  0.0000E+00  0.0000E+00  0.0000E+00
     17.418  0.4950E-01  0.4184E-01  0.3694E-01  0.2129E-01  0.0000E+00  0.0000E+00  0.0000E+00  0.0000E+00  0.0000E+00
     17.525  0.4484E-01  0.2007E-01  0.2393E-01  0.1483E-01  0.0000E+00  0.0000E+00  0.0000E+00  0.0000E+00  0.0000E+00
     17.632  0.3070E-01  0.1306E-01  0.3668E-01  0.4851E-01  0.0000E+00  0.0000E+00  0.0000E+00  0.0000E+00  0.0000E+00
     17.739  0.3437E-01  0.2155E-01  0.4741E-01  0.7725E-01  0.0000E+00  0.0000E+00  0.0000E+00  0.0000E+00  0.0000E+00
     17.846  0.4152E-01  0.2170E-01  0.2287E-01  0.4655E-01  0.0000E+00  0.0000E+00  0.0000E+00  0.0000E+00  0.0000E+00
     17.953  0.3241E-01  0.1768E-01  0.2170E-01  0.2519E-01  0.0000E+00  0.0000E+00  0.0000E+00  0.0000E+00  0.0000E+00
     18.060  0.2470E-01  0.1252E-01  0.2155E-01  0.2375E-01  0.0000E+00  0.0000E+00  0.0000E+00  0.0000E+00  0.0000E+00
     18.167  0.3603E-01  0.1777E-01  0.4546E-01  0.5078E-01  0.0000E+00  0.0000E+00  0.0000E+00  0.0000E+00  0.0000E+00
     18.274  0.3837E-01  0.2336E-01  0.3917E-01  0.4559E-01  0.0000E+00  0.0000E+00  0.0000E+00  0.0000E+00  0.0000E+00
     18.381  0.2728E-01  0.1363E-01  0.1531E-01  0.2286E-01  0.0000E+00  0.0000E+00  0.0000E+00  0.0000E+00  0.0000E+00
     18.488  0.1328E-01  0.8400E-02  0.1356E-01  0.7570E-02  0.0000E+00  0.0000E+00  0.0000E+00  0.0000E+00  0.0000E+00
     18.595  0.1626E-01  0.1399E-01  0.3413E-01  0.1908E-01  0.0000E+00  0.0000E+00  0.0000E+00  0.0000E+00  0.0000E+00
     18.702  0.1513E-01  0.1931E-01  0.4177E-01  0.4788E-01  0.0000E+00  0.0000E+00  0.0000E+00  0.0000E+00  0.0000E+00
     18.809  0.1791E-01  0.1828E-01  0.2536E-01  0.2155E-01  0.0000E+00  0.0000E+00  0.0000E+00  0.0000E+00  0.0000E+00
     18.916  0.2715E-01  0.2536E-01  0.3501E-01  0.4704E-02  0.0000E+00  0.0000E+00  0.0000E+00  0.0000E+00  0.0000E+00
     19.023  0.2414E-01  0.1625E-01  0.2605E-01  0.8444E-02  0.0000E+00  0.0000E+00  0.0000E+00  0.0000E+00  0.0000E+00
     19.130  0.1299E-01  0.1157E-01  0.2933E-01  0.3393E-01  0.0000E+00  0.0000E+00  0.0000E+00  0.0000E+00  0.0000E+00
     19.237  0.5541E-02  0.1572E-01  0.3681E-01  0.3482E-01  0.0000E+00  0.0000E+00  0.0000E+00  0.0000E+00  0.0000E+00
     19.344  0.5268E-02  0.6092E-02  0.1605E-01  0.6329E-02  0.0000E+00  0.0000E+00  0.0000E+00  0.0000E+00  0.0000E+00
     19.451  0.1274E-01  0.1231E-02  0.7639E-02  0.4342E-02  0.0000E+00  0.0000E+00  0.0000E+00  0.0000E+00  0.0000E+00
     19.559  0.1058E-01  0.3916E-02  0.1929E-01  0.1718E-01  0.0000E+00  0.0000E+00  0.0000E+00  0.0000E+00  0.0000E+00
     19.666  0.2741E-02  0.1100E-01  0.4512E-01  0.4163E-01  0.0000E+00  0.0000E+00  0.0000E+00  0.0000E+00  0.0000E+00
     19.773  0.3848E-02  0.8239E-02  0.2751E-01  0.2978E-01  0.0000E+00  0.0000E+00  0.0000E+00  0.0000E+00  0.0000E+00
     19.880  0.1263E-01  0.3814E-02  0.2381E-01  0.1862E-01  0.0000E+00  0.0000E+00  0.0000E+00  0.0000E+00  0.0000E+00
     19.987  0.8282E-02  0.4038E-02  0.2874E-01  0.1801E-01  0.0000E+00  0.0000E+00  0.0000E+00  0.0000E+00  0.0000E+00
     20.094  0.1381E-02  0.1609E-02  0.3422E-01  0.2979E-01  0.0000E+00  0.0000E+00  0.0000E+00  0.0000E+00  0.0000E+00
     20.201  0.6436E-02  0.5776E-02  0.3940E-01  0.3498E-01  0.0000E+00  0.0000E+00  0.0000E+00  0.0000E+00  0.0000E+00
     20.308  0.1493E-01  0.1452E-01  0.3823E-01  0.2591E-01  0.0000E+00  0.0000E+00  0.0000E+00  0.0000E+00  0.0000E+00
     20.415  0.7535E-02  0.1191E-01  0.2576E-01  0.2010E-01  0.0000E+00  0.0000E+00  0.0000E+00  0.0000E+00  0.0000E+00
     20.522  0.4835E-02  0.1055E-01  0.3663E-01  0.3256E-01  0.0000E+00  0.0000E+00  0.0000E+00  0.0000E+00  0.0000E+00
     20.629  0.9425E-02  0.1179E-01  0.5331E-01  0.4338E-01  0.0000E+00  0.0000E+00  0.0000E+00  0.0000E+00  0.0000E+00
     20.736  0.6119E-02  0.1049E-01  0.3106E-01  0.2718E-01  0.0000E+00  0.0000E+00  0.0000E+00  0.0000E+00  0.0000E+00
     20.843  0.2697E-02  0.1011E-01  0.3280E-01  0.2507E-01  0.0000E+00  0.0000E+00  0.0000E+00  0.0000E+00  0.0000E+00
     20.950  0.7348E-02  0.1032E-01  0.5501E-01  0.4426E-01  0.0000E+00  0.0000E+00  0.0000E+00  0.0000E+00  0.0000E+00
     21.057  0.5578E-02  0.8642E-02  0.4801E-01  0.4401E-01  0.0000E+00  0.0000E+00  0.0000E+00  0.0000E+00  0.0000E+00
     21.164  0.2605E-02  0.8428E-02  0.4476E-01  0.3107E-01  0.0000E+00  0.0000E+00  0.0000E+00  0.0000E+00  0.0000E+00
     21.271  0.7244E-02  0.7516E-02  0.5310E-01  0.4539E-01  0.0000E+00  0.0000E+00  0.0000E+00  0.0000E+00  0.0000E+00
     21.378  0.4504E-02  0.6729E-02  0.6703E-01  0.5395E-01  0.0000E+00  0.0000E+00  0.0000E+00  0.0000E+00  0.0000E+00
     21.485  0.4200E-02  0.5794E-02  0.6235E-01  0.4765E-01  0.0000E+00  0.0000E+00  0.0000E+00  0.0000E+00  0.0000E+00
     21.592  0.7056E-02  0.4576E-02  0.8242E-01  0.6611E-01  0.0000E+00  0.0000E+00  0.0000E+00  0.0000E+00  0.0000E+00
     21.699  0.4476E-02  0.3484E-02  0.1145E+00  0.9776E-01  0.0000E+00  0.0000E+00  0.0000E+00  0.0000E+00  0.0000E+00
     21.806  0.7104E-02  0.1948E-02  0.1674E+00  0.2162E+00  0.0000E+00  0.0000E+00  0.0000E+00  0.0000E+00  0.0000E+00
     21.913  0.3412E-02  0.4307E-03  0.9326E-01  0.1863E+00  0.0000E+00  0.0000E+00  0.0000E+00  0.0000E+00  0.0000E+00
     22.020  0.3721E-03  0.2458E-04  0.1022E-01  0.3128E-01  0.0000E+00  0.0000E+00  0.0000E+00  0.0000E+00  0.0000E+00
     22.127  0.9578E-05  0.2600E-06  0.1657E-03  0.8094E-03  0.0000E+00  0.0000E+00  0.0000E+00  0.0000E+00  0.0000E+00
     22.234  0.4016E-07  0.4279E-09  0.3373E-06  0.2784E-05  0.0000E+00  0.0000E+00  0.0000E+00  0.0000E+00  0.0000E+00
     22.341  0.2062E-10  0.1050E-12  0.7914E-10  0.1163E-08  0.0000E+00  0.0000E+00  0.0000E+00  0.0000E+00  0.0000E+00
     22.448  0.1171E-14  0.3647E-17  0.2050E-14  0.5580E-13  0.0000E+00  0.0000E+00  0.0000E+00  0.0000E+00  0.0000E+00
     22.555  0.0000E+00  0.0000E+00  0.0000E+00  0.0000E+00  0.0000E+00  0.0000E+00  0.0000E+00  0.0000E+00  0.0000E+00
     22.662  0.0000E+00  0.0000E+00  0.0000E+00  0.0000E+00  0.0000E+00  0.0000E+00  0.0000E+00  0.0000E+00  0.0000E+00
     22.770  0.0000E+00  0.0000E+00  0.0000E+00  0.0000E+00  0.0000E+00  0.0000E+00  0.0000E+00  0.0000E+00  0.0000E+00
     22.877  0.0000E+00  0.0000E+00  0.0000E+00  0.0000E+00  0.0000E+00  0.0000E+00  0.0000E+00  0.0000E+00  0.0000E+00
     22.984  0.0000E+00  0.0000E+00  0.0000E+00  0.0000E+00  0.0000E+00  0.0000E+00  0.0000E+00  0.0000E+00  0.0000E+00
     23.091  0.0000E+00  0.0000E+00  0.0000E+00  0.0000E+00  0.0000E+00  0.0000E+00  0.0000E+00  0.0000E+00  0.0000E+00
     23.198  0.0000E+00  0.0000E+00  0.0000E+00  0.0000E+00  0.0000E+00  0.0000E+00  0.0000E+00  0.0000E+00  0.0000E+00
     23.305  0.0000E+00  0.0000E+00  0.0000E+00  0.0000E+00  0.0000E+00  0.0000E+00  0.0000E+00  0.0000E+00  0.0000E+00
     23.30468968     -8.80547548  301      8.43032463      1.00000000
     -8.805  0.0000E+00  0.0000E+00  0.0000E+00  0.0000E+00  0.0000E+00  0.0000E+00  0.0000E+00  0.0000E+00  0.0000E+00
     -8.698  0.0000E+00  0.0000E+00  0.0000E+00  0.0000E+00  0.0000E+00  0.0000E+00  0.0000E+00  0.0000E+00  0.0000E+00
     -8.591  0.0000E+00  0.0000E+00  0.0000E+00  0.0000E+00  0.0000E+00  0.0000E+00  0.0000E+00  0.0000E+00  0.0000E+00
     -8.484  0.0000E+00  0.0000E+00  0.0000E+00  0.0000E+00  0.0000E+00  0.0000E+00  0.0000E+00  0.0000E+00  0.0000E+00
     -8.377  0.0000E+00  0.0000E+00  0.0000E+00  0.0000E+00  0.0000E+00  0.0000E+00  0.0000E+00  0.0000E+00  0.0000E+00
     -8.270  0.0000E+00  0.0000E+00  0.0000E+00  0.0000E+00  0.0000E+00  0.0000E+00  0.0000E+00  0.0000E+00  0.0000E+00
     -8.163  0.0000E+00  0.0000E+00  0.0000E+00  0.0000E+00  0.0000E+00  0.0000E+00  0.0000E+00  0.0000E+00  0.0000E+00
     -8.056  0.0000E+00  0.0000E+00  0.0000E+00  0.0000E+00  0.0000E+00  0.0000E+00  0.0000E+00  0.0000E+00  0.0000E+00
     -7.949  0.0000E+00  0.0000E+00  0.0000E+00  0.0000E+00  0.0000E+00  0.0000E+00  0.0000E+00  0.0000E+00  0.0000E+00
     -7.842  0.1566E-12  0.7278E-17  0.1622E-17  0.3355E-17  0.0000E+00  0.0000E+00  0.0000E+00  0.0000E+00  0.0000E+00
     -7.735  0.2745E-08  0.1777E-12  0.3771E-13  0.8173E-13  0.0000E+00  0.0000E+00  0.0000E+00  0.0000E+00  0.0000E+00
     -7.628  0.5319E-05  0.4882E-09  0.1012E-09  0.2248E-09  0.0000E+00  0.0000E+00  0.0000E+00  0.0000E+00  0.0000E+00
     -7.521  0.1204E-02  0.1666E-06  0.3449E-07  0.7680E-07  0.0000E+00  0.0000E+00  0.0000E+00  0.0000E+00  0.0000E+00
     -7.414  0.3554E-01  0.8437E-05  0.1748E-05  0.3888E-05  0.0000E+00  0.0000E+00  0.0000E+00  0.0000E+00  0.0000E+00
     -7.307  0.1679E+00  0.8348E-04  0.1731E-04  0.3847E-04  0.0000E+00  0.0000E+00  0.0000E+00  0.0000E+00  0.0000E+00
     -7.200  0.1884E+00  0.2498E-03  0.5164E-04  0.1151E-03  0.0000E+00  0.0000E+00  0.0000E+00  0.0000E+00  0.0000E+00
     -7.093  0.1202E+00  0.3911E-03  0.8087E-04  0.1787E-03  0.0000E+00  0.0000E+00  0.0000E+00  0.0000E+00  0.0000E+00
     -6.986  0.9227E-01  0.4893E-03  0.1019E-03  0.2285E-03  0.0000E+00  0.0000E+00  0.0000E+00  0.0000E+00  0.0000E+00
     -6.879  0.7819E-01  0.5839E-03  0.1186E-03  0.2584E-03  0.0000E+00  0.0000E+00  0.0000E+00  0.0000E+00  0.0000E+00
     -6.772  0.6909E-01  0.6119E-03  0.1284E-03  0.2961E-03  0.0000E+00  0.0000E+00  0.0000E+00  0.0000E+00  0.0000E+00
     -6.665  0.6553E-01  0.7503E-03  0.1529E-03  0.3131E-03  0.0000E+00  0.0000E+00  0.0000E+00  0.0000E+00  0.0000E+00
     -6.558  0.5763E-01  0.6943E-03  0.1418E-03  0.3661E-03  0.0000E+00  0.0000E+00  0.0000E+00  0.0000E+00  0.0000E+00
     -6.451  0.5696E-01  0.8743E-03  0.1861E-03  0.3243E-03  0.0000E+00  0.0000E+00  0.0000E+00  0.0000E+00  0.0000E+00
     -6.344  0.5257E-01  0.8116E-03  0.1467E-03  0.4391E-03  0.0000E+00  0.0000E+00  0.0000E+00  0.0000E+00  0.0000E+00
     -6.237  0.5138E-01  0.8979E-03  0.2218E-03  0.3950E-03  0.0000E+00  0.0000E+00  0.0000E+00  0.0000E+00  0.0000E+00
     -6.130  0.4604E-01  0.9957E-03  0.1457E-03  0.3371E-03  0.0000E+00  0.0000E+00  0.0000E+00  0.0000E+00  0.0000E+00
     -6.023  0.5110E-01  0.8875E-03  0.2435E-03  0.6175E-03  0.0000E+00  0.0000E+00  0.0000E+00  0.0000E+00  0.0000E+00
     -5.916  0.4299E-01  0.1088E-02  0.1821E-03  0.3130E-03  0.0000E+00  0.0000E+00  0.0000E+00  0.0000E+00  0.0000E+00
     -5.809  0.4207E-01  0.1058E-02  0.1908E-03  0.4083E-03  0.0000E+00  0.0000E+00  0.0000E+00  0.0000E+00  0.0000E+00
     -5.701  0.4996E-01  0.9748E-03  0.2894E-03  0.7420E-03  0.0000E+00  0.0000E+00  0.0000E+00  0.0000E+00  0.0000E+00
     -5.594  0.3605E-01  0.1189E-02  0.1255E-03  0.2745E-03  0.0000E+00  0.0000E+00  0.0000E+00  0.0000E+00  0.0000E+00
     -5.487  0.4411E-01  0.1238E-02  0.2940E-03  0.4378E-03  0.0000E+00  0.0000E+00  0.0000E+00  0.0000E+00  0.0000E+00
     -5.380  0.4272E-01  0.9325E-03  0.2437E-03  0.7570E-03  0.0000E+00  0.0000E+00  0.0000E+00  0.0000E+00  0.0000E+00
     -5.273  0.3624E-01  0.1206E-02  0.1408E-03  0.4270E-03  0.0000E+00  0.0000E+00  0.0000E+00  0.0000E+00  0.0000E+00
     -5.166  0.4802E-01  0.1590E-02  0.3504E-03  0.4065E-03  0.0000E+00  0.0000E+00  0.0000E+00  0.0000E+00  0.0000E+00
     -5.059  0.3183E-01  0.8259E-03  0.1893E-03  0.5480E-03  0.0000E+00  0.0000E+00  0.0000E+00  0.0000E+00  0.0000E+00
     -4.952  0.3964E-01  0.1068E-02  0.1874E-03  0.7418E-03  0.0000E+00  0.0000E+00  0.0000E+00  0.0000E+00  0.0000E+00
     -4.845  0.5263E-01  0.1852E-02  0.3637E-03  0.4929E-03  0.0000E+00  0.0000E+00  0.0000E+00  0.0000E+00  0.0000E+00
     -4.738  0.2755E-01  0.1094E-02  0.1445E-03  0.2304E-03  0.0000E+00  0.0000E+00  0.0000E+00  0.0000E+00  0.0000E+00
     -4.631  0.3794E-01  0.8622E-03  0.2330E-03  0.7516E-03  0.0000E+00  0.0000E+00  0.0000E+00  0.0000E+00  0.0000E+00
     -4.524  0.5294E-01  0.1435E-02  0.3477E-03  0.8309E-03  0.0000E+00  0.0000E+00  0.0000E+00  0.0000E+00  0.0000E+00
     -4.417  0.3737E-01  0.1792E-02  0.1239E-03  0.1933E-03  0.0000E+00  0.0000E+00  0.0000E+00  0.0000E+00  0.0000E+00
     -4.310  0.3825E-01  0.1021E-02  0.2627E-03  0.3875E-03  0.0000E+00  0.0000E+00  0.0000E+00  0.0000E+00  0.0000E+00
     -4.203  0.4649E-01  0.9328E-03  0.2661E-03  0.8513E-03  0.0000E+00  0.0000E+00  0.0000E+00  0.0000E+00  0.0000E+00
     -4.096  0.4830E-01  0.1343E-02  0.1872E-03  0.5983E-03  0.0000E+00  0.0000E+00  0.0000E+00  0.0000E+00  0.0000E+00
     -3.989  0.6226E-01  0.1967E-02  0.2359E-03  0.2836E-03  0.0000E+00  0.0000E+00  0.0000E+00  0.0000E+00  0.0000E+00
     -3.882  0.9755E-01  0.1059E-02  0.3270E-03  0.4812E-03  0.0000E+00  0.0000E+00  0.0000E+00  0.0000E+00  0.0000E+00
     -3.775  0.2044E+00  0.1313E-02  0.6551E-03  0.1179E-02  0.0000E+00  0.0000E+00  0.0000E+00  0.0000E+00  0.0000E+00
     -3.668  0.1607E+00  0.1608E-02  0.5546E-03  0.7156E-03  0.0000E+00  0.0000E+00  0.0000E+00  0.0000E+00  0.0000E+00
     -3.561  0.1112E+00  0.2141E-02  0.4270E-03  0.2433E-03  0.0000E+00  0.0000E+00  0.0000E+00  0.0000E+00  0.0000E+00
     -3.454  0.8860E-01  0.1251E-02  0.4453E-03  0.4138E-03  0.0000E+00  0.0000E+00  0.0000E+00  0.0000E+00  0.0000E+00
     -3.347  0.8847E-01  0.1065E-02  0.4876E-03  0.6853E-03  0.0000E+00  0.0000E+00  0.0000E+00  0.0000E+00  0.0000E+00
     -3.240  0.7673E-01  0.1321E-02  0.4397E-03  0.2704E-03  0.0000E+00  0.0000E+00  0.0000E+00  0.0000E+00  0.0000E+00
     -3.133  0.8646E-01  0.1999E-02  0.4379E-03  0.1746E-03  0.0000E+00  0.0000E+00  0.0000E+00  0.0000E+00  0.0000E+00
     -3.026  0.8698E-01  0.1291E-02  0.5014E-03  0.4773E-03  0.0000E+00  0.0000E+00  0.0000E+00  0.0000E+00  0.0000E+00
     -2.919  0.7115E-01  0.8286E-03  0.4689E-03  0.3185E-03  0.0000E+00  0.0000E+00  0.0000E+00  0.0000E+00  0.0000E+00
     -2.812  0.8643E-01  0.1363E-02  0.4435E-03  0.1581E-03  0.0000E+00  0.0000E+00  0.0000E+00  0.0000E+00  0.0000E+00
     -2.705  0.1082E+00  0.1512E-02  0.4860E-03  0.3147E-03  0.0000E+00  0.0000E+00  0.0000E+00  0.0000E+00  0.0000E+00
     -2.598  0.8980E-01  0.7435E-03  0.4369E-03  0.1885E-03  0.0000E+00  0.0000E+00  0.0000E+00  0.0000E+00  0.0000E+00
     -2.490  0.2316E+00  0.8855E-03  0.4515E-03  0.1844E-03  0.0000E+00  0.0000E+00  0.0000E+00  0.0000E+00  0.0000E+00
     -2.383  0.8955E+00  0.8167E-03  0.4780E-03  0.2255E-03  0.0000E+00  0.0000E+00  0.0000E+00  0.0000E+00  0.0000E+00
     -2.276  0.1244E+01  0.5416E-03  0.3664E-03  0.2006E-03  0.0000E+00  0.0000E+00  0.0000E+00  0.0000E+00  0.0000E+00
     -2.169  0.7108E+00  0.1932E-03  0.1462E-03  0.8310E-04  0.0000E+00  0.0000E+00  0.0000E+00  0.0000E+00  0.0000E+00
     -2.062  0.2542E+00  0.3029E-04  0.2820E-04  0.1676E-04  0.0000E+00  0.0000E+00  0.0000E+00  0.0000E+00  0.0000E+00
     -1.955  0.2387E-01  0.1511E-05  0.1499E-05  0.9337E-06  0.0000E+00  0.0000E+00  0.0000E+00  0.0000E+00  0.0000E+00
     -1.848  0.3411E-03  0.1389E-07  0.1388E-07  0.8867E-08  0.0000E+00  0.0000E+00  0.0000E+00  0.0000E+00  0.0000E+00
     -1.741  0.6095E-06  0.1729E-10  0.1729E-10  0.1147E-10  0.0000E+00  0.0000E+00  0.0000E+00  0.0000E+00  0.0000E+00
     -1.634  0.1245E-09  0.2501E-14  0.2501E-14  0.1801E-14  0.0000E+00  0.0000E+00  0.0000E+00  0.0000E+00  0.0000E+00
     -1.527  0.2778E-14  0.3788E-19  0.3788E-19  0.3203E-19  0.0000E+00  0.0000E+00  0.0000E+00  0.0000E+00  0.0000E+00
     -1.420  0.0000E+00  0.0000E+00  0.0000E+00  0.0000E+00  0.0000E+00  0.0000E+00  0.0000E+00  0.0000E+00  0.0000E+00
     -1.313  0.0000E+00  0.0000E+00  0.0000E+00  0.0000E+00  0.0000E+00  0.0000E+00  0.0000E+00  0.0000E+00  0.0000E+00
     -1.206  0.0000E+00  0.0000E+00  0.0000E+00  0.0000E+00  0.0000E+00  0.0000E+00  0.0000E+00  0.0000E+00  0.0000E+00
     -1.099  0.3015E-18  0.9241E-18  0.9241E-18  0.9241E-18  0.0000E+00  0.0000E+00  0.0000E+00  0.0000E+00  0.0000E+00
     -0.992  0.3735E-13  0.1145E-12  0.1145E-12  0.1145E-12  0.0000E+00  0.0000E+00  0.0000E+00  0.0000E+00  0.0000E+00
     -0.885  0.4618E-09  0.1416E-08  0.1416E-08  0.1415E-08  0.0000E+00  0.0000E+00  0.0000E+00  0.0000E+00  0.0000E+00
     -0.778  0.6307E-06  0.1933E-05  0.1933E-05  0.1932E-05  0.0000E+00  0.0000E+00  0.0000E+00  0.0000E+00  0.0000E+00
     -0.671  0.1016E-03  0.3108E-03  0.3108E-03  0.3106E-03  0.0000E+00  0.0000E+00  0.0000E+00  0.0000E+00  0.0000E+00
     -0.564  0.2213E-02  0.6712E-02  0.6712E-02  0.6703E-02  0.0000E+00  0.0000E+00  0.0000E+00  0.0000E+00  0.0000E+00
     -0.457  0.8415E-02  0.2491E-01  0.2491E-01  0.2484E-01  0.0000E+00  0.0000E+00  0.0000E+00  0.0000E+00  0.0000E+00
     -0.350  0.8357E-02  0.2405E-01  0.2405E-01  0.2384E-01  0.0000E+00  0.0000E+00  0.0000E+00  0.0000E+00  0.0000E+00
     -0.243  0.5582E-02  0.1485E-01  0.1485E-01  0.1451E-01  0.0000E+00  0.0000E+00  0.0000E+00  0.0000E+00  0.0000E+00
     -0.136  0.6360E-02  0.1416E-01  0.1416E-01  0.1369E-01  0.0000E+00  0.0000E+00  0.0000E+00  0.0000E+00  0.0000E+00
     -0.029  0.3996E-02  0.1049E-01  0.1032E-01  0.9713E-02  0.0000E+00  0.0000E+00  0.0000E+00  0.0000E+00  0.0000E+00
      0.078  0.3349E-02  0.2096E-01  0.8771E-02  0.8000E-02  0.0000E+00  0.0000E+00  0.0000E+00  0.0000E+00  0.0000E+00
      0.185  0.6596E-02  0.1389E+00  0.1176E-01  0.1068E-01  0.0000E+00  0.0000E+00  0.0000E+00  0.0000E+00  0.0000E+00
      0.292  0.6237E-02  0.2745E+00  0.1134E-01  0.9534E-02  0.0000E+00  0.0000E+00  0.0000E+00  0.0000E+00  0.0000E+00
      0.399  0.4227E-02  0.2129E+00  0.1006E-01  0.7186E-02  0.0000E+00  0.0000E+00  0.0000E+00  0.0000E+00  0.0000E+00
      0.506  0.4011E-02  0.1499E+00  0.1255E-01  0.8305E-02  0.0000E+00  0.0000E+00  0.0000E+00  0.0000E+00  0.0000E+00
      0.614  0.1056E-01  0.1365E+00  0.2135E-01  0.1335E-01  0.0000E+00  0.0000E+00  0.0000E+00  0.0000E+00  0.0000E+00
      0.721  0.1386E-01  0.1254E+00  0.3514E-01  0.1498E-01  0.0000E+00  0.0000E+00  0.0000E+00  0.0000E+00  0.0000E+00
      0.828  0.8105E-02  0.8759E-01  0.4573E-01  0.1159E-01  0.0000E+00  0.0000E+00  0.0000E+00  0.0000E+00  0.0000E+00
      0.935  0.7889E-02  0.8977E-01  0.6929E-01  0.1062E-01  0.0000E+00  0.0000E+00  0.0000E+00  0.0000E+00  0.0000E+00
      1.042  0.1171E-01  0.6461E-01  0.5373E-01  0.9664E-02  0.0000E+00  0.0000E+00  0.0000E+00  0.0000E+00  0.0000E+00
      1.149  0.2007E-01  0.3186E-01  0.1631E-01  0.1039E-01  0.0000E+00  0.0000E+00  0.0000E+00  0.0000E+00  0.0000E+00
      1.256  0.1193E-01  0.1413E-01  0.4894E-02  0.6208E-02  0.0000E+00  0.0000E+00  0.0000E+00  0.0000E+00  0.0000E+00
      1.363  0.7418E-02  0.6079E-02  0.3118E-02  0.5483E-02  0.0000E+00  0.0000E+00  0.0000E+00  0.0000E+00  0.0000E+00
      1.470  0.3546E-02  0.2820E-02  0.1228E-02  0.2424E-02  0.0000E+00  0.0000E+00  0.0000E+00  0.0000E+00  0.0000E+00
      1.577  0.1459E-01  0.1374E-01  0.3950E-02  0.7242E-02  0.0000E+00  0.0000E+00  0.0000E+00  0.0000E+00  0.0000E+00
      1.684  0.2322E-01  0.2457E-01  0.6639E-02  0.9361E-02  0.0000E+00  0.0000E+00  0.0000E+00  0.0000E+00  0.0000E+00
      1.791  0.7757E-02  0.8319E-02  0.2237E-02  0.2995E-02  0.0000E+00  0.0000E+00  0.0000E+00  0.0000E+00  0.0000E+00
      1.898  0.7385E-02  0.5075E-02  0.1315E-02  0.4814E-02  0.0000E+00  0.0000E+00  0.0000E+00  0.0000E+00  0.0000E+00
      2.005  0.8661E-02  0.5964E-02  0.1476E-02  0.5606E-02  0.0000E+00  0.0000E+00  0.0000E+00  0.0000E+00  0.0000E+00
      2.112  0.7747E-02  0.8619E-02  0.1513E-02  0.2263E-02  0.0000E+00  0.0000E+00  0.0000E+00  0.0000E+00  0.0000E+00
      2.219  0.2062E-01  0.2306E-01  0.6483E-02  0.7181E-02  0.0000E+00  0.0000E+00  0.0000E+00  0.0000E+00  0.0000E+00
      2.326  0.1851E-01  0.2170E-01  0.1609E-01  0.1584E-01  0.0000E+00  0.0000E+00  0.0000E+00  0.0000E+00  0.0000E+00
      2.433  0.7481E-02  0.1949E-01  0.2696E-01  0.2032E-01  0.0000E+00  0.0000E+00  0.0000E+00  0.0000E+00  0.0000E+00
      2.540  0.1187E-02  0.1937E-01  0.3309E-01  0.2348E-01  0.0000E+00  0.0000E+00  0.0000E+00  0.0000E+00  0.0000E+00
      2.647  0.6001E-02  0.1884E-01  0.2805E-01  0.2034E-01  0.0000E+00  0.0000E+00  0.0000E+00  0.0000E+00  0.0000E+00
      2.754  0.2643E-01  0.3918E-01  0.3201E-01  0.2777E-01  0.0000E+00  0.0000E+00  0.0000E+00  0.0000E+00  0.0000E+00
      2.861  0.2260E-01  0.4979E-01  0.5959E-01  0.3769E-01  0.0000E+00  0.0000E+00  0.0000E+00  0.0000E+00  0.0000E+00
      2.968  0.5135E-02  0.4680E-01  0.6161E-01  0.2683E-01  0.0000E+00  0.0000E+00  0.0000E+00  0.0000E+00  0.0000E+00
      3.075  0.2337E-02  0.5844E-01  0.8473E-01  0.1821E-01  0.0000E+00  0.0000E+00  0.0000E+00  0.0000E+00  0.0000E+00
      3.182  0.9687E-02  0.4811E-01  0.8797E-01  0.2231E-01  0.0000E+00  0.0000E+00  0.0000E+00  0.0000E+00  0.0000E+00
      3.289  0.2643E-01  0.4901E-01  0.6522E-01  0.6647E-01  0.0000E+00  0.0000E+00  0.0000E+00  0.0000E+00  0.0000E+00
      3.396  0.2015E-01  0.3436E-01  0.5805E-01  0.1245E+00  0.0000E+00  0.0000E+00  0.0000E+00  0.0000E+00  0.0000E+00
      3.503  0.9204E-02  0.2439E-01  0.7134E-01  0.1017E+00  0.0000E+00  0.0000E+00  0.0000E+00  0.0000E+00  0.0000E+00
      3.610  0.3239E-02  0.1363E-01  0.6459E-01  0.7064E-01  0.0000E+00  0.0000E+00  0.0000E+00  0.0000E+00  0.0000E+00
      3.717  0.1089E-01  0.2249E-01  0.5439E-01  0.7146E-01  0.0000E+00  0.0000E+00  0.0000E+00  0.0000E+00  0.0000E+00
      3.825  0.2607E-01  0.4201E-01  0.5746E-01  0.6632E-01  0.0000E+00  0.0000E+00  0.0000E+00  0.0000E+00  0.0000E+00
      3.932  0.1621E-01  0.2780E-01  0.7029E-01  0.6604E-01  0.0000E+00  0.0000E+00  0.0000E+00  0.0000E+00  0.0000E+00
      4.039  0.1134E-01  0.1915E-01  0.7484E-01  0.6558E-01  0.0000E+00  0.0000E+00  0.0000E+00  0.0000E+00  0.0000E+00
      4.146  0.7474E-02  0.1783E-01  0.6402E-01  0.5935E-01  0.0000E+00  0.0000E+00  0.0000E+00  0.0000E+00  0.0000E+00
      4.253  0.9548E-02  0.1914E-01  0.6107E-01  0.6924E-01  0.0000E+00  0.0000E+00  0.0000E+00  0.0000E+00  0.0000E+00
      4.360  0.2380E-01  0.3629E-01  0.7688E-01  0.7117E-01  0.0000E+00  0.0000E+00  0.0000E+00  0.0000E+00  0.0000E+00
      4.467  0.1570E-01  0.3212E-01  0.9318E-01  0.7535E-01  0.0000E+00  0.0000E+00  0.0000E+00  0.0000E+00  0.0000E+00
      4.574  0.8612E-02  0.1773E-01  0.9054E-01  0.8828E-01  0.0000E+00  0.0000E+00  0.0000E+00  0.0000E+00  0.0000E+00
      4.681  0.7803E-02  0.1088E-01  0.1259E+00  0.1233E+00  0.0000E+00  0.0000E+00  0.0000E+00  0.0000E+00  0.0000E+00
      4.788  0.9910E-02  0.2445E-01  0.2897E+00  0.2745E+00  0.0000E+00  0.0000E+00  0.0000E+00  0.0000E+00  0.0000E+00
      4.895  0.2373E-01  0.4637E-01  0.3271E+00  0.3092E+00  0.0000E+00  0.0000E+00  0.0000E+00  0.0000E+00  0.0000E+00
      5.002  0.1158E-01  0.2147E-01  0.1732E+00  0.1772E+00  0.0000E+00  0.0000E+00  0.0000E+00  0.0000E+00  0.0000E+00
      5.109  0.3438E-02  0.1249E-01  0.1242E+00  0.1298E+00  0.0000E+00  0.0000E+00  0.0000E+00  0.0000E+00  0.0000E+00
      5.216  0.9987E-02  0.2412E-01  0.1261E+00  0.1104E+00  0.0000E+00  0.0000E+00  0.0000E+00  0.0000E+00  0.0000E+00
      5.323  0.1256E-01  0.3592E-01  0.1235E+00  0.1095E+00  0.0000E+00  0.0000E+00  0.0000E+00  0.0000E+00  0.0000E+00
      5.430  0.1682E-01  0.5229E-01  0.7721E-01  0.9593E-01  0.0000E+00  0.0000E+00  0.0000E+00  0.0000E+00  0.0000E+00
      5.537  0.1220E-01  0.4482E-01  0.5281E-01  0.7300E-01  0.0000E+00  0.0000E+00  0.0000E+00  0.0000E+00  0.0000E+00
      5.644  0.4168E-02  0.3391E-01  0.4653E-01  0.6005E-01  0.0000E+00  0.0000E+00  0.0000E+00  0.0000E+00  0.0000E+00
      5.751  0.6599E-02  0.3040E-01  0.6536E-01  0.5941E-01  0.0000E+00  0.0000E+00  0.0000E+00  0.0000E+00  0.0000E+00
      5.858  0.1688E-01  0.6093E-01  0.6057E-01  0.6150E-01  0.0000E+00  0.0000E+00  0.0000E+00  0.0000E+00  0.0000E+00
      5.965  0.1145E-01  0.5076E-01  0.5187E-01  0.6245E-01  0.0000E+00  0.0000E+00  0.0000E+00  0.0000E+00  0.0000E+00
      6.072  0.7901E-02  0.3891E-01  0.3184E-01  0.6481E-01  0.0000E+00  0.0000E+00  0.0000E+00  0.0000E+00  0.0000E+00
      6.179  0.5494E-02  0.3529E-01  0.6804E-01  0.6549E-01  0.0000E+00  0.0000E+00  0.0000E+00  0.0000E+00  0.0000E+00
      6.286  0.1115E-01  0.6301E-01  0.6726E-01  0.6279E-01  0.0000E+00  0.0000E+00  0.0000E+00  0.0000E+00  0.0000E+00
      6.393  0.1305E-01  0.5493E-01  0.4921E-01  0.6583E-01  0.0000E+00  0.0000E+00  0.0000E+00  0.0000E+00  0.0000E+00
      6.500  0.4575E-02  0.4752E-01  0.5794E-01  0.7692E-01  0.0000E+00  0.0000E+00  0.0000E+00  0.0000E+00  0.0000E+00
      6.607  0.6303E-02  0.4932E-01  0.6549E-01  0.7191E-01  0.0000E+00  0.0000E+00  0.0000E+00  0.0000E+00  0.0000E+00
      6.714  0.1032E-01  0.7934E-01  0.8397E-01  0.1027E+00  0.0000E+00  0.0000E+00  0.0000E+00  0.0000E+00  0.0000E+00
      6.821  0.9633E-02  0.1089E+00  0.9115E-01  0.1231E+00  0.0000E+00  0.0000E+00  0.0000E+00  0.0000E+00  0.0000E+00
      6.929  0.4801E-02  0.1820E+00  0.2024E+00  0.2292E+00  0.0000E+00  0.0000E+00  0.0000E+00  0.0000E+00  0.0000E+00
      7.036  0.3162E-02  0.1698E+00  0.2036E+00  0.1974E+00  0.0000E+00  0.0000E+00  0.0000E+00  0.0000E+00  0.0000E+00
      7.143  0.9124E-02  0.1494E+00  0.1162E+00  0.1377E+00  0.0000E+00  0.0000E+00  0.0000E+00  0.0000E+00  0.0000E+00
      7.250  0.6503E-02  0.1162E+00  0.1202E+00  0.1342E+00  0.0000E+00  0.0000E+00  0.0000E+00  0.0000E+00  0.0000E+00
      7.357  0.3668E-02  0.9975E-01  0.1275E+00  0.1139E+00  0.0000E+00  0.0000E+00  0.0000E+00  0.0000E+00  0.0000E+00
      7.464  0.4503E-02  0.1177E+00  0.1149E+00  0.1225E+00  0.0000E+00  0.0000E+00  0.0000E+00  0.0000E+00  0.0000E+00
      7.571  0.4817E-02  0.1294E+00  0.1196E+00  0.1352E+00  0.0000E+00  0.0000E+00  0.0000E+00  0.0000E+00  0.0000E+00
      7.678  0.3770E-02  0.1393E+00  0.1514E+00  0.1583E+00  0.0000E+00  0.0000E+00  0.0000E+00  0.0000E+00  0.0000E+00
      7.785  0.2921E-02  0.1815E+00  0.1713E+00  0.1867E+00  0.0000E+00  0.0000E+00  0.0000E+00  0.0000E+00  0.0000E+00
      7.892  0.1874E-02  0.3057E+00  0.2750E+00  0.3257E+00  0.0000E+00  0.0000E+00  0.0000E+00  0.0000E+00  0.0000E+00
      7.999  0.8036E-03  0.3239E+00  0.2757E+00  0.3369E+00  0.0000E+00  0.0000E+00  0.0000E+00  0.0000E+00  0.0000E+00
      8.106  0.7359E-04  0.8338E-01  0.7026E-01  0.8665E-01  0.0000E+00  0.0000E+00  0.0000E+00  0.0000E+00  0.0000E+00
      8.213  0.9736E-06  0.3548E-02  0.2944E-02  0.3658E-02  0.0000E+00  0.0000E+00  0.0000E+00  0.0000E+00  0.0000E+00
      8.320  0.1612E-08  0.2003E-04  0.1647E-04  0.2042E-04  0.0000E+00  0.0000E+00  0.0000E+00  0.0000E+00  0.0000E+00
      8.427  0.3071E-12  0.1325E-07  0.1091E-07  0.1339E-07  0.0000E+00  0.0000E+00  0.0000E+00  0.0000E+00  0.0000E+00
      8.534  0.6377E-17  0.9651E-12  0.8015E-12  0.9705E-12  0.0000E+00  0.0000E+00  0.0000E+00  0.0000E+00  0.0000E+00
      8.641  0.0000E+00  0.0000E+00  0.0000E+00  0.0000E+00  0.0000E+00  0.0000E+00  0.0000E+00  0.0000E+00  0.0000E+00
      8.748  0.3379E-16  0.1786E-22  0.1346E-19  0.3147E-19  0.0000E+00  0.0000E+00  0.0000E+00  0.0000E+00  0.0000E+00
      8.855  0.2516E-11  0.4744E-17  0.1509E-14  0.3215E-14  0.0000E+00  0.0000E+00  0.0000E+00  0.0000E+00  0.0000E+00
      8.962  0.1941E-07  0.6358E-13  0.1571E-10  0.3621E-10  0.0000E+00  0.0000E+00  0.0000E+00  0.0000E+00  0.0000E+00
      9.069  0.1687E-04  0.1016E-09  0.1954E-07  0.4696E-07  0.0000E+00  0.0000E+00  0.0000E+00  0.0000E+00  0.0000E+00
      9.176  0.1773E-02  0.2150E-07  0.3242E-05  0.7821E-05  0.0000E+00  0.0000E+00  0.0000E+00  0.0000E+00  0.0000E+00
      9.283  0.2584E-01  0.7791E-06  0.8701E-04  0.2095E-03  0.0000E+00  0.0000E+00  0.0000E+00  0.0000E+00  0.0000E+00
      9.390  0.6730E-01  0.7293E-05  0.5249E-03  0.1261E-02  0.0000E+00  0.0000E+00  0.0000E+00  0.0000E+00  0.0000E+00
      9.497  0.5377E-01  0.2702E-04  0.1167E-02  0.2809E-02  0.0000E+00  0.0000E+00  0.0000E+00  0.0000E+00  0.0000E+00
      9.604  0.3613E-01  0.6265E-04  0.1645E-02  0.3880E-02  0.0000E+00  0.0000E+00  0.0000E+00  0.0000E+00  0.0000E+00
      9.711  0.2928E-01  0.1113E-03  0.2006E-02  0.4888E-02  0.0000E+00  0.0000E+00  0.0000E+00  0.0000E+00  0.0000E+00
      9.818  0.2568E-01  0.1799E-03  0.2307E-02  0.5298E-02  0.0000E+00  0.0000E+00  0.0000E+00  0.0000E+00  0.0000E+00
      9.925  0.2500E-01  0.2623E-03  0.2568E-02  0.6407E-02  0.0000E+00  0.0000E+00  0.0000E+00  0.0000E+00  0.0000E+00
     10.032  0.1932E-01  0.3595E-03  0.2793E-02  0.6187E-02  0.0000E+00  0.0000E+00  0.0000E+00  0.0000E+00  0.0000E+00
     10.140  0.2404E-01  0.4905E-03  0.2984E-02  0.7946E-02  0.0000E+00  0.0000E+00  0.0000E+00  0.0000E+00  0.0000E+00
     10.247  0.1820E-01  0.6150E-03  0.3139E-02  0.6480E-02  0.0000E+00  0.0000E+00  0.0000E+00  0.0000E+00  0.0000E+00
     10.354  0.1811E-01  0.7570E-03  0.3258E-02  0.9423E-02  0.0000E+00  0.0000E+00  0.0000E+00  0.0000E+00  0.0000E+00
     10.461  0.1924E-01  0.9347E-03  0.3339E-02  0.7118E-02  0.0000E+00  0.0000E+00  0.0000E+00  0.0000E+00  0.0000E+00
     10.568  0.1851E-01  0.1085E-02  0.3385E-02  0.9195E-02  0.0000E+00  0.0000E+00  0.0000E+00  0.0000E+00  0.0000E+00
     10.675  0.1521E-01  0.1223E-02  0.3399E-02  0.9794E-02  0.0000E+00  0.0000E+00  0.0000E+00  0.0000E+00  0.0000E+00
     10.782  0.1402E-01  0.1388E-02  0.3387E-02  0.7066E-02  0.0000E+00  0.0000E+00  0.0000E+00  0.0000E+00  0.0000E+00
     10.889  0.1977E-01  0.1613E-02  0.3384E-02  0.1221E-01  0.0000E+00  0.0000E+00  0.0000E+00  0.0000E+00  0.0000E+00
     10.996  0.1557E-01  0.2469E-02  0.3700E-02  0.8893E-02  0.0000E+00  0.0000E+00  0.0000E+00  0.0000E+00  0.0000E+00
     11.103  0.1365E-01  0.2980E-02  0.3280E-02  0.9989E-02  0.0000E+00  0.0000E+00  0.0000E+00  0.0000E+00  0.0000E+00
     11.210  0.9483E-02  0.9137E-03  0.8877E-03  0.1114E-01  0.0000E+00  0.0000E+00  0.0000E+00  0.0000E+00  0.0000E+00
     11.317  0.8412E-02  0.8795E-03  0.5634E-03  0.4684E-02  0.0000E+00  0.0000E+00  0.0000E+00  0.0000E+00  0.0000E+00
     11.424  0.9222E-02  0.1761E-02  0.1165E-02  0.1076E-01  0.0000E+00  0.0000E+00  0.0000E+00  0.0000E+00  0.0000E+00
     11.531  0.5063E-02  0.5971E-03  0.4016E-03  0.1035E-01  0.0000E+00  0.0000E+00  0.0000E+00  0.0000E+00  0.0000E+00
     11.638  0.3469E-02  0.5639E-03  0.4390E-03  0.4742E-02  0.0000E+00  0.0000E+00  0.0000E+00  0.0000E+00  0.0000E+00
     11.745  0.1120E-01  0.1777E-02  0.1384E-02  0.1399E-01  0.0000E+00  0.0000E+00  0.0000E+00  0.0000E+00  0.0000E+00
     11.852  0.6745E-02  0.8815E-03  0.6817E-03  0.9522E-02  0.0000E+00  0.0000E+00  0.0000E+00  0.0000E+00  0.0000E+00
     11.959  0.2109E-02  0.2514E-03  0.2229E-03  0.6558E-02  0.0000E+00  0.0000E+00  0.0000E+00  0.0000E+00  0.0000E+00
     12.066  0.6112E-02  0.1857E-02  0.1278E-02  0.1630E-01  0.0000E+00  0.0000E+00  0.0000E+00  0.0000E+00  0.0000E+00
     12.173  0.6864E-02  0.1034E-01  0.1446E-02  0.8744E-02  0.0000E+00  0.0000E+00  0.0000E+00  0.0000E+00  0.0000E+00
     12.280  0.5628E-02  0.2733E-01  0.8558E-03  0.1196E-01  0.0000E+00  0.0000E+00  0.0000E+00  0.0000E+00  0.0000E+00
     12.387  0.3984E-02  0.2396E-01  0.2065E-02  0.1623E-01  0.0000E+00  0.0000E+00  0.0000E+00  0.0000E+00  0.0000E+00
     12.494  0.4440E-02  0.1692E-01  0.4071E-02  0.1148E-01  0.0000E+00  0.0000E+00  0.0000E+00  0.0000E+00  0.0000E+00
     12.601  0.4947E-02  0.1336E-01  0.3612E-02  0.2044E-01  0.0000E+00  0.0000E+00  0.0000E+00  0.0000E+00  0.0000E+00
     12.708  0.5015E-02  0.1033E-01  0.3175E-02  0.1450E-01  0.0000E+00  0.0000E+00  0.0000E+00  0.0000E+00  0.0000E+00
     12.815  0.4332E-02  0.1102E-01  0.4385E-02  0.2252E-01  0.0000E+00  0.0000E+00  0.0000E+00  0.0000E+00  0.0000E+00
     12.922  0.4243E-02  0.9997E-02  0.6365E-02  0.3085E-01  0.0000E+00  0.0000E+00  0.0000E+00  0.0000E+00  0.0000E+00
     13.029  0.3239E-02  0.1166E-01  0.6626E-02  0.1107E+00  0.0000E+00  0.0000E+00  0.0000E+00  0.0000E+00  0.0000E+00
     13.136  0.1263E-01  0.1175E-01  0.8458E-02  0.2281E+00  0.0000E+00  0.0000E+00  0.0000E+00  0.0000E+00  0.0000E+00
     13.244  0.7656E-01  0.1151E-01  0.1018E-01  0.1261E+00  0.0000E+00  0.0000E+00  0.0000E+00  0.0000E+00  0.0000E+00
     13.351  0.1319E+00  0.1438E-01  0.1087E-01  0.3019E-01  0.0000E+00  0.0000E+00  0.0000E+00  0.0000E+00  0.0000E+00
     13.458  0.9528E-01  0.1259E-01  0.1218E-01  0.1506E-01  0.0000E+00  0.0000E+00  0.0000E+00  0.0000E+00  0.0000E+00
     13.565  0.7790E-01  0.1437E-01  0.1407E-01  0.1338E-01  0.0000E+00  0.0000E+00  0.0000E+00  0.0000E+00  0.0000E+00
     13.672  0.5897E-01  0.1480E-01  0.1181E-01  0.8279E-02  0.0000E+00  0.0000E+00  0.0000E+00  0.0000E+00  0.0000E+00
     13.779  0.3787E-01  0.1064E-01  0.1257E-01  0.5656E-02  0.0000E+00  0.0000E+00  0.0000E+00  0.0000E+00  0.0000E+00
     13.886  0.4438E-01  0.3772E-02  0.5135E-02  0.2591E-02  0.0000E+00  0.0000E+00  0.0000E+00  0.0000E+00  0.0000E+00
     13.993  0.1582E+00  0.8150E-02  0.6641E-02  0.3655E-02  0.0000E+00  0.0000E+00  0.0000E+00  0.0000E+00  0.0000E+00
     14.100  0.2742E+00  0.1403E-01  0.1293E-01  0.5222E-02  0.0000E+00  0.0000E+00  0.0000E+00  0.0000E+00  0.0000E+00
     14.207  0.2268E+00  0.9676E-02  0.9749E-02  0.6035E-02  0.0000E+00  0.0000E+00  0.0000E+00  0.0000E+00  0.0000E+00
     14.314  0.1928E+00  0.1107E-01  0.9418E-02  0.7427E-02  0.0000E+00  0.0000E+00  0.0000E+00  0.0000E+00  0.0000E+00
     14.421  0.1123E+00  0.1707E-01  0.1191E-01  0.4957E-02  0.0000E+00  0.0000E+00  0.0000E+00  0.0000E+00  0.0000E+00
     14.528  0.5483E-01  0.1396E-01  0.1372E-01  0.8278E-02  0.0000E+00  0.0000E+00  0.0000E+00  0.0000E+00  0.0000E+00
     14.635  0.5198E-01  0.7258E-02  0.9859E-02  0.1050E-01  0.0000E+00  0.0000E+00  0.0000E+00  0.0000E+00  0.0000E+00
     14.742  0.6312E-01  0.1529E-01  0.1815E-01  0.1126E-01  0.0000E+00  0.0000E+00  0.0000E+00  0.0000E+00  0.0000E+00
     14.849  0.7347E-01  0.3084E-01  0.2366E-01  0.1227E-01  0.0000E+00  0.0000E+00  0.0000E+00  0.0000E+00  0.0000E+00
     14.956  0.6183E-01  0.2468E-01  0.2608E-01  0.7915E-02  0.0000E+00  0.0000E+00  0.0000E+00  0.0000E+00  0.0000E+00
     15.063  0.6633E-01  0.3982E-01  0.5422E-01  0.1315E-01  0.0000E+00  0.0000E+00  0.0000E+00  0.0000E+00  0.0000E+00
     15.170  0.8045E-01  0.5648E-01  0.6033E-01  0.2510E-01  0.0000E+00  0.0000E+00  0.0000E+00  0.0000E+00  0.0000E+00
     15.277  0.5077E-01  0.3334E-01  0.2894E-01  0.2439E-01  0.0000E+00  0.0000E+00  0.0000E+00  0.0000E+00  0.0000E+00
     15.384  0.3364E-01  0.2052E-01  0.2585E-01  0.2525E-01  0.0000E+00  0.0000E+00  0.0000E+00  0.0000E+00  0.0000E+00
     15.491  0.2805E-01  0.2128E-01  0.2890E-01  0.2210E-01  0.0000E+00  0.0000E+00  0.0000E+00  0.0000E+00  0.0000E+00
     15.598  0.2927E-01  0.2436E-01  0.2662E-01  0.2844E-01  0.0000E+00  0.0000E+00  0.0000E+00  0.0000E+00  0.0000E+00
     15.705  0.2299E-01  0.3250E-01  0.3157E-01  0.3920E-01  0.0000E+00  0.0000E+00  0.0000E+00  0.0000E+00  0.0000E+00
     15.812  0.3132E-01  0.2928E-01  0.3051E-01  0.2757E-01  0.0000E+00  0.0000E+00  0.0000E+00  0.0000E+00  0.0000E+00
     15.919  0.1897E-01  0.1479E-01  0.2205E-01  0.1479E-01  0.0000E+00  0.0000E+00  0.0000E+00  0.0000E+00  0.0000E+00
     16.026  0.2220E-01  0.1527E-01  0.1460E-01  0.1660E-01  0.0000E+00  0.0000E+00  0.0000E+00  0.0000E+00  0.0000E+00
     16.133  0.3180E-01  0.1922E-01  0.1292E-01  0.1707E-01  0.0000E+00  0.0000E+00  0.0000E+00  0.0000E+00  0.0000E+00
     16.240  0.1372E-01  0.1281E-01  0.1838E-01  0.1048E-01  0.0000E+00  0.0000E+00  0.0000E+00  0.0000E+00  0.0000E+00
     16.347  0.2188E-01  0.2315E-01  0.2424E-01  0.2484E-01  0.0000E+00  0.0000E+00  0.0000E+00  0.0000E+00  0.0000E+00
     16.455  0.2942E-01  0.3550E-01  0.1717E-01  0.3560E-01  0.0000E+00  0.0000E+00  0.0000E+00  0.0000E+00  0.0000E+00
     16.562  0.1574E-01  0.1939E-01  0.1318E-01  0.1489E-01  0.0000E+00  0.0000E+00  0.0000E+00  0.0000E+00  0.0000E+00
     16.669  0.1937E-01  0.2981E-01  0.2547E-01  0.2790E-01  0.0000E+00  0.0000E+00  0.0000E+00  0.0000E+00  0.0000E+00
     16.776  0.3086E-01  0.4734E-01  0.3858E-01  0.5032E-01  0.0000E+00  0.0000E+00  0.0000E+00  0.0000E+00  0.0000E+00
     16.883  0.1854E-01  0.3415E-01  0.3015E-01  0.3172E-01  0.0000E+00  0.0000E+00  0.0000E+00  0.0000E+00  0.0000E+00
     16.990  0.2119E-01  0.4392E-01  0.3598E-01  0.3705E-01  0.0000E+00  0.0000E+00  0.0000E+00  0.0000E+00  0.0000E+00
     17.097  0.2425E-01  0.4293E-01  0.3995E-01  0.3571E-01  0.0000E+00  0.0000E+00  0.0000E+00  0.0000E+00  0.0000E+00
     17.204  0.2657E-01  0.4878E-01  0.4961E-01  0.4179E-01  0.0000E+00  0.0000E+00  0.0000E+00  0.0000E+00  0.0000E+00
     17.311  0.4575E-01  0.6728E-01  0.6057E-01  0.3935E-01  0.0000E+00  0.0000E+00  0.0000E+00  0.0000E+00  0.0000E+00
     17.418  0.3234E-01  0.4310E-01  0.4427E-01  0.2127E-01  0.0000E+00  0.0000E+00  0.0000E+00  0.0000E+00  0.0000E+00
     17.525  0.1892E-01  0.3562E-01  0.4827E-01  0.1998E-01  0.0000E+00  0.0000E+00  0.0000E+00  0.0000E+00  0.0000E+00
     17.632  0.1412E-01  0.3402E-01  0.4580E-01  0.2651E-01  0.0000E+00  0.0000E+00  0.0000E+00  0.0000E+00  0.0000E+00
     17.739  0.1607E-01  0.4868E-01  0.6463E-01  0.4168E-01  0.0000E+00  0.0000E+00  0.0000E+00  0.0000E+00  0.0000E+00
     17.846  0.1606E-01  0.7300E-01  0.8300E-01  0.5640E-01  0.0000E+00  0.0000E+00  0.0000E+00  0.0000E+00  0.0000E+00
     17.953  0.2121E-01  0.9911E-01  0.9159E-01  0.8117E-01  0.0000E+00  0.0000E+00  0.0000E+00  0.0000E+00  0.0000E+00
     18.060  0.1183E-01  0.5963E-01  0.6281E-01  0.4818E-01  0.0000E+00  0.0000E+00  0.0000E+00  0.0000E+00  0.0000E+00
     18.167  0.8042E-02  0.4469E-01  0.7309E-01  0.4383E-01  0.0000E+00  0.0000E+00  0.0000E+00  0.0000E+00  0.0000E+00
     18.274  0.9585E-02  0.5276E-01  0.5798E-01  0.4117E-01  0.0000E+00  0.0000E+00  0.0000E+00  0.0000E+00  0.0000E+00
     18.381  0.5853E-02  0.4630E-01  0.3482E-01  0.2093E-01  0.0000E+00  0.0000E+00  0.0000E+00  0.0000E+00  0.0000E+00
     18.488  0.5104E-02  0.1864E-01  0.2793E-01  0.1368E-01  0.0000E+00  0.0000E+00  0.0000E+00  0.0000E+00  0.0000E+00
     18.595  0.8012E-02  0.2052E-01  0.4836E-01  0.2845E-01  0.0000E+00  0.0000E+00  0.0000E+00  0.0000E+00  0.0000E+00
     18.702  0.4868E-02  0.4080E-01  0.4387E-01  0.3490E-01  0.0000E+00  0.0000E+00  0.0000E+00  0.0000E+00  0.0000E+00
     18.809  0.3470E-02  0.5413E-01  0.4552E-01  0.2879E-01  0.0000E+00  0.0000E+00  0.0000E+00  0.0000E+00  0.0000E+00
     18.916  0.7753E-02  0.6753E-01  0.8117E-01  0.3785E-01  0.0000E+00  0.0000E+00  0.0000E+00  0.0000E+00  0.0000E+00
     19.023  0.4930E-02  0.4732E-01  0.7116E-01  0.2218E-01  0.0000E+00  0.0000E+00  0.0000E+00  0.0000E+00  0.0000E+00
     19.130  0.1862E-02  0.4206E-01  0.4060E-01  0.2192E-01  0.0000E+00  0.0000E+00  0.0000E+00  0.0000E+00  0.0000E+00
     19.237  0.4980E-02  0.2904E-01  0.2743E-01  0.3272E-01  0.0000E+00  0.0000E+00  0.0000E+00  0.0000E+00  0.0000E+00
     19.344  0.4455E-02  0.4743E-02  0.1851E-01  0.1313E-01  0.0000E+00  0.0000E+00  0.0000E+00  0.0000E+00  0.0000E+00
     19.451  0.1999E-02  0.1047E-01  0.2981E-01  0.2578E-02  0.0000E+00  0.0000E+00  0.0000E+00  0.0000E+00  0.0000E+00
     19.559  0.3284E-02  0.2189E-01  0.1710E-01  0.1731E-01  0.0000E+00  0.0000E+00  0.0000E+00  0.0000E+00  0.0000E+00
     19.666  0.4294E-02  0.1375E-01  0.2769E-01  0.4650E-01  0.0000E+00  0.0000E+00  0.0000E+00  0.0000E+00  0.0000E+00
     19.773  0.2248E-02  0.1020E-01  0.3091E-01  0.2938E-01  0.0000E+00  0.0000E+00  0.0000E+00  0.0000E+00  0.0000E+00
     19.880  0.4525E-02  0.1966E-01  0.3932E-01  0.2003E-01  0.0000E+00  0.0000E+00  0.0000E+00  0.0000E+00  0.0000E+00
     19.987  0.4858E-02  0.1788E-01  0.2335E-01  0.2918E-01  0.0000E+00  0.0000E+00  0.0000E+00  0.0000E+00  0.0000E+00
     20.094  0.1725E-02  0.3829E-02  0.2837E-01  0.3290E-01  0.0000E+00  0.0000E+00  0.0000E+00  0.0000E+00  0.0000E+00
     20.201  0.5433E-02  0.2075E-01  0.3868E-01  0.3580E-01  0.0000E+00  0.0000E+00  0.0000E+00  0.0000E+00  0.0000E+00
     20.308  0.1336E-01  0.5037E-01  0.3720E-01  0.3570E-01  0.0000E+00  0.0000E+00  0.0000E+00  0.0000E+00  0.0000E+00
     20.415  0.9568E-02  0.3397E-01  0.2381E-01  0.2587E-01  0.0000E+00  0.0000E+00  0.0000E+00  0.0000E+00  0.0000E+00
     20.522  0.8216E-02  0.2813E-01  0.3226E-01  0.3846E-01  0.0000E+00  0.0000E+00  0.0000E+00  0.0000E+00  0.0000E+00
     20.629  0.1016E-01  0.4412E-01  0.4085E-01  0.5809E-01  0.0000E+00  0.0000E+00  0.0000E+00  0.0000E+00  0.0000E+00
     20.736  0.9211E-02  0.3172E-01  0.2723E-01  0.3509E-01  0.0000E+00  0.0000E+00  0.0000E+00  0.0000E+00  0.0000E+00
     20.843  0.9230E-02  0.1897E-01  0.2786E-01  0.3919E-01  0.0000E+00  0.0000E+00  0.0000E+00  0.0000E+00  0.0000E+00
     20.950  0.9868E-02  0.3662E-01  0.4753E-01  0.6593E-01  0.0000E+00  0.0000E+00  0.0000E+00  0.0000E+00  0.0000E+00
     21.057  0.8436E-02  0.2838E-01  0.4900E-01  0.5757E-01  0.0000E+00  0.0000E+00  0.0000E+00  0.0000E+00  0.0000E+00
     21.164  0.8528E-02  0.1636E-01  0.3772E-01  0.5784E-01  0.0000E+00  0.0000E+00  0.0000E+00  0.0000E+00  0.0000E+00
     21.271  0.7758E-02  0.3608E-01  0.5440E-01  0.6909E-01  0.0000E+00  0.0000E+00  0.0000E+00  0.0000E+00  0.0000E+00
     21.378  0.7099E-02  0.2310E-01  0.6734E-01  0.8824E-01  0.0000E+00  0.0000E+00  0.0000E+00  0.0000E+00  0.0000E+00
     21.485  0.6209E-02  0.2204E-01  0.6205E-01  0.8520E-01  0.0000E+00  0.0000E+00  0.0000E+00  0.0000E+00  0.0000E+00
     21.592  0.4967E-02  0.3497E-01  0.8744E-01  0.1149E+00  0.0000E+00  0.0000E+00  0.0000E+00  0.0000E+00  0.0000E+00
     21.699  0.3837E-02  0.2280E-01  0.1358E+00  0.1632E+00  0.0000E+00  0.0000E+00  0.0000E+00  0.0000E+00  0.0000E+00
     21.806  0.2159E-02  0.3398E-01  0.3054E+00  0.2424E+00  0.0000E+00  0.0000E+00  0.0000E+00  0.0000E+00  0.0000E+00
     21.913  0.4763E-03  0.1535E-01  0.2636E+00  0.1357E+00  0.0000E+00  0.0000E+00  0.0000E+00  0.0000E+00  0.0000E+00
     22.020  0.2682E-04  0.1484E-02  0.4397E-01  0.1491E-01  0.0000E+00  0.0000E+00  0.0000E+00  0.0000E+00  0.0000E+00
     22.127  0.2716E-06  0.3386E-04  0.1126E-02  0.2420E-03  0.0000E+00  0.0000E+00  0.0000E+00  0.0000E+00  0.0000E+00
     22.234  0.4036E-09  0.1344E-06  0.3826E-05  0.4934E-06  0.0000E+00  0.0000E+00  0.0000E+00  0.0000E+00  0.0000E+00
     22.341  0.8366E-13  0.6761E-10  0.1580E-08  0.1160E-09  0.0000E+00  0.0000E+00  0.0000E+00  0.0000E+00  0.0000E+00
     22.448  0.2398E-17  0.3811E-14  0.7507E-13  0.3010E-14  0.0000E+00  0.0000E+00  0.0000E+00  0.0000E+00  0.0000E+00
     22.555  0.0000E+00  0.0000E+00  0.0000E+00  0.0000E+00  0.0000E+00  0.0000E+00  0.0000E+00  0.0000E+00  0.0000E+00
     22.662  0.0000E+00  0.0000E+00  0.0000E+00  0.0000E+00  0.0000E+00  0.0000E+00  0.0000E+00  0.0000E+00  0.0000E+00
     22.770  0.0000E+00  0.0000E+00  0.0000E+00  0.0000E+00  0.0000E+00  0.0000E+00  0.0000E+00  0.0000E+00  0.0000E+00
     22.877  0.0000E+00  0.0000E+00  0.0000E+00  0.0000E+00  0.0000E+00  0.0000E+00  0.0000E+00  0.0000E+00  0.0000E+00
     22.984  0.0000E+00  0.0000E+00  0.0000E+00  0.0000E+00  0.0000E+00  0.0000E+00  0.0000E+00  0.0000E+00  0.0000E+00
     23.091  0.0000E+00  0.0000E+00  0.0000E+00  0.0000E+00  0.0000E+00  0.0000E+00  0.0000E+00  0.0000E+00  0.0000E+00
     23.198  0.0000E+00  0.0000E+00  0.0000E+00  0.0000E+00  0.0000E+00  0.0000E+00  0.0000E+00  0.0000E+00  0.0000E+00
     23.305  0.0000E+00  0.0000E+00  0.0000E+00  0.0000E+00  0.0000E+00  0.0000E+00  0.0000E+00  0.0000E+00  0.0000E+00
