    2    2    1    1
  0.1050029E+02  0.3096817E-09  0.3096817E-09  0.3096817E-09  0.5000000E-15
  1.000000000000000E-004
  CAR 
 unknown system                          
      8    240      8
 
  0.0000000E+00  0.0000000E+00  0.0000000E+00  0.4166667E-02
    1       -7.345923   1.000000
    2        7.941520   1.000000
    3        7.941520   1.000000
    4        7.941521   1.000000
    5       14.002152   0.000000
    6       15.146896   0.000000
    7       15.146896   0.000000
    8       15.146896   0.000000
 
  0.2631579E-01  0.0000000E+00  0.2631579E-01  0.4166667E-02
    1       -7.328064   1.000000
    2        7.881984   1.000000
    3        7.905242   1.000000
    4        7.905242   1.000000
    5       14.056968   0.000000
    6       15.097415   0.000000
    7       15.199352   0.000000
    8       15.199352   0.000000
 
  0.5263158E-01  0.0000000E+00  0.5263158E-01  0.4166667E-02
    1       -7.274454   1.000000
    2        7.710690   1.000000
    3        7.800228   1.000000
    4        7.800228   1.000000
    5       14.205245   0.000000
    6       14.959594   0.000000
    7       15.352655   0.000000
    8       15.352655   0.000000
 
  0.7894737E-01  0.0000000E+00  0.7894737E-01  0.4166667E-02
    1       -7.185320   1.000000
    2        7.445824   1.000000
    3        7.636663   1.000000
    4        7.636663   1.000000
    5       14.369909   0.000000
    6       14.794126   0.000000
    7       15.595859   0.000000
    8       15.595859   0.000000
 
  0.1052632E+00  0.0000000E+00  0.1052632E+00  0.4166667E-02
    1       -7.060802   1.000000
    2        7.108850   1.000000
    3        7.428170   1.000000
    4        7.428171   1.000000
    5       14.272095   0.000000
    6       14.851345   0.000000
    7       15.914271   0.000000
    8       15.914271   0.000000
 
  0.1315789E+00  0.0000000E+00  0.1315789E+00  0.4166667E-02
    1       -6.901321   1.000000
    2        6.718718   1.000000
    3        7.188901   1.000000
    4        7.188902   1.000000
    5       13.945408   0.000000
    6       15.049400   0.000000
    7       16.292291   0.000000
    8       16.292291   0.000000
 
  0.1578947E+00  0.0000000E+00  0.1578947E+00  0.4166667E-02
    1       -6.707315   1.000000
    2        6.289722   1.000000
    3        6.931682   1.000000
    4        6.931682   1.000000
    5       13.549225   0.000000
    6       15.154931   0.000000
    7       16.715487   0.000000
    8       16.715487   0.000000
 
  0.1842105E+00  0.0000000E+00  0.1842105E+00  0.4166667E-02
    1       -6.479450   1.000000
    2        5.831588   1.000000
    3        6.667267   1.000000
    4        6.667268   1.000000
    5       13.115741   0.000000
    6       15.067951   0.000000
    7       17.171304   0.000000
    8       17.171304   0.000000
 
  0.2105263E+00  0.0000000E+00  0.2105263E+00  0.4166667E-02
    1       -6.218509   1.000000
    2        5.350541   1.000000
    3        6.404277   1.000000
    4        6.404277   1.000000
    5       12.658450   0.000000
    6       14.792844   0.000000
    7       17.649297   0.000000
    8       17.649321   0.000000
 
  0.2368421E+00  0.0000000E+00  0.2368421E+00  0.4166667E-02
    1       -5.925579   1.000000
    2        4.850439   1.000000
    3        6.149472   1.000000
    4        6.149472   1.000000
    5       12.188462   0.000000
    6       14.415777   0.000000
    7       18.140732   0.000000
    8       18.140794   0.000000
 
  0.2631579E+00  0.0000000E+00  0.2631579E+00  0.4166667E-02
    1       -5.602015   1.000000
    2        4.333892   1.000000
    3        5.908112   1.000000
    4        5.908112   1.000000
    5       11.718158   0.000000
    6       14.016502   0.000000
    7       18.638025   0.000000
    8       18.638134   0.000000
 
  0.2894737E+00  0.0000000E+00  0.2894737E+00  0.4166667E-02
    1       -5.249609   1.000000
    2        3.803210   1.000000
    3        5.684281   1.000000
    4        5.684281   1.000000
    5       11.261556   0.000000
    6       13.638399   0.000000
    7       19.134362   0.000000
    8       19.135262   0.000000
 
  0.3157895E+00  0.0000000E+00  0.3157895E+00  0.4166667E-02
    1       -4.870840   1.000000
    2        3.261313   1.000000
    3        5.481131   1.000000
    4        5.481131   1.000000
    5       10.832773   0.000000
    6       13.299963   0.000000
    7       19.622615   0.000000
    8       19.622745   0.000000
 
  0.3421053E+00  0.0000000E+00  0.3421053E+00  0.4166667E-02
    1       -4.469220   1.000000
    2        2.712537   1.000000
    3        5.301105   1.000000
    4        5.301106   1.000000
    5       10.444155   0.000000
    6       13.007379   0.000000
    7       20.094657   0.000000
    8       20.095377   0.000000
 
  0.3684211E+00  0.0000000E+00  0.3684211E+00  0.4166667E-02
    1       -4.049989   1.000000
    2        2.163546   1.000000
    3        5.146088   1.000000
    4        5.146089   1.000000
    5       10.105257   0.000000
    6       12.761778   0.000000
    7       20.540260   0.000000
    8       20.543888   0.000000
 
  0.3947368E+00  0.0000000E+00  0.3947368E+00  0.4166667E-02
    1       -3.621670   1.000000
    2        1.624749   1.000000
    3        5.017523   1.000000
    4        5.017523   1.000000
    5        9.822610   0.000000
    6       12.562565   0.000000
    7       20.946259   0.000000
    8       20.947352   0.000000
 
  0.4210526E+00  0.0000000E+00  0.4210526E+00  0.4166667E-02
    1       -3.199290   1.000000
    2        1.113404   1.000000
    3        4.916500   1.000000
    4        4.916500   1.000000
    5        9.600278   0.000000
    6       12.408779   0.000000
    7       21.295810   0.000000
    8       21.298158   0.000000
 
  0.4473684E+00  0.0000000E+00  0.4473684E+00  0.4166667E-02
    1       -2.811695   1.000000
    2        0.660356   1.000000
    3        4.843799   1.000000
    4        4.843800   1.000000
    5        9.440464   0.000000
    6       12.299505   0.000000
    7       21.568520   0.000000
    8       21.571423   0.000000
 
  0.4736842E+00  0.0000000E+00  0.4736842E+00  0.4166667E-02
    1       -2.515192   1.000000
    2        0.323788   1.000000
    3        4.799974   1.000000
    4        4.799974   1.000000
    5        9.344287   0.000000
    6       12.234189   0.000000
    7       21.743503   0.000000
    8       21.745790   0.000000
 
  0.5000000E+00  0.0000000E+00  0.5000000E+00  0.4166667E-02
    1       -2.398310   1.000000
    2        0.193332   1.000000
    3        4.785322   1.000000
    4        4.785322   1.000000
    5        9.312179   0.000000
    6       12.212447   0.000000
    7       21.803739   0.000000
    8       21.814193   0.000000
 
  0.5000000E+00  0.0000000E+00  0.5000000E+00  0.4166667E-02
    1       -2.398310   1.000000
    2        0.193332   1.000000
    3        4.785322   1.000000
    4        4.785322   1.000000
    5        9.312179   0.000000
    6       12.212447   0.000000
    7       21.803739   0.000000
    8       21.804466   0.000000
 
  0.5065789E+00  0.1315789E-01  0.5065789E+00  0.4166667E-02
    1       -2.397615   1.000000
    2        0.195113   1.000000
    3        4.770300   1.000000
    4        4.787010   1.000000
    5        9.324026   0.000000
    6       12.223087   0.000000
    7       21.796288   0.000000
    8       21.801097   0.000000
 
  0.5131579E+00  0.2631579E-01  0.5131579E+00  0.4166667E-02
    1       -2.395510   1.000000
    2        0.200463   1.000000
    3        4.725975   1.000000
    4        4.792079   1.000000
    5        9.358785   0.000000
    6       12.255077   0.000000
    7       21.774408   0.000000
    8       21.782145   0.000000
 
  0.5197368E+00  0.3947368E-01  0.5197368E+00  0.4166667E-02
    1       -2.392126   1.000000
    2        0.209322   1.000000
    3        4.654403   1.000000
    4        4.800509   1.000000
    5        9.414233   0.000000
    6       12.308575   0.000000
    7       21.737725   0.000000
    8       21.756457   0.000000
 
  0.5263158E+00  0.5263158E-01  0.5263158E+00  0.4166667E-02
    1       -2.387527   1.000000
    2        0.221663   1.000000
    3        4.558676   1.000000
    4        4.812297   1.000000
    5        9.487134   0.000000
    6       12.383813   0.000000
    7       21.676643   0.000000
    8       21.716822   0.000000
 
  0.5328947E+00  0.6578947E-01  0.5328947E+00  0.4166667E-02
    1       -2.381853   1.000000
    2        0.237420   1.000000
    3        4.442459   1.000000
    4        4.827426   1.000000
    5        9.573726   0.000000
    6       12.480976   0.000000
    7       21.609949   0.000000
    8       21.671934   0.000000
 
  0.5394737E+00  0.7894737E-01  0.5394737E+00  0.4166667E-02
    1       -2.375282   1.000000
    2        0.256512   1.000000
    3        4.309615   1.000000
    4        4.845878   1.000000
    5        9.670218   0.000000
    6       12.600107   0.000000
    7       21.522285   0.000000
    8       21.648020   0.000000
 
  0.5460526E+00  0.9210526E-01  0.5460526E+00  0.4166667E-02
    1       -2.368049   1.000000
    2        0.278834   1.000000
    3        4.163942   1.000000
    4        4.867633   1.000000
    5        9.773175   0.000000
    6       12.741012   0.000000
    7       21.426115   0.000000
    8       21.545775   0.000000
 
  0.5526316E+00  0.1052632E+00  0.5526316E+00  0.4166667E-02
    1       -2.360466   1.000000
    2        0.304211   1.000000
    3        4.008977   1.000000
    4        4.892651   1.000000
    5        9.879735   0.000000
    6       12.903134   0.000000
    7       21.317868   0.000000
    8       21.471188   0.000000
 
  0.5592105E+00  0.1184211E+00  0.5592105E+00  0.4166667E-02
    1       -2.352864   1.000000
    2        0.332492   1.000000
    3        3.847992   1.000000
    4        4.920903   1.000000
    5        9.987759   0.000000
    6       13.085580   0.000000
    7       21.199159   0.000000
    8       21.387803   0.000000
 
  0.5657895E+00  0.1315789E+00  0.5657895E+00  0.4166667E-02
    1       -2.345656   1.000000
    2        0.363465   1.000000
    3        3.683953   1.000000
    4        4.952351   1.000000
    5       10.095794   0.000000
    6       13.287073   0.000000
    7       21.072067   0.000000
    8       21.297588   0.000000
 
  0.5723684E+00  0.1447368E+00  0.5723684E+00  0.4166667E-02
    1       -2.339338   1.000000
    2        0.396878   1.000000
    3        3.519575   1.000000
    4        4.986949   1.000000
    5       10.202995   0.000000
    6       13.506001   0.000000
    7       20.934619   0.000000
    8       21.201068   0.000000
 
  0.5789474E+00  0.1578947E+00  0.5789474E+00  0.4166667E-02
    1       -2.334401   1.000000
    2        0.432447   1.000000
    3        3.357398   1.000000
    4        5.024657   1.000000
    5       10.309014   0.000000
    6       13.740514   0.000000
    7       20.791757   0.000000
    8       21.098299   0.000000
 
  0.5855263E+00  0.1710526E+00  0.5855263E+00  0.4166667E-02
    1       -2.331564   1.000000
    2        0.469783   1.000000
    3        3.199782   1.000000
    4        5.065407   1.000000
    5       10.413842   0.000000
    6       13.988503   0.000000
    7       20.641206   0.000000
    8       20.990294   0.000000
 
  0.5921053E+00  0.1842105E+00  0.5921053E+00  0.4166667E-02
    1       -2.331509   1.000000
    2        0.508489   1.000000
    3        3.049011   1.000000
    4        5.109143   1.000000
    5       10.517715   0.000000
    6       14.247742   0.000000
    7       20.485943   0.000000
    8       20.876508   0.000000
 
  0.5986842E+00  0.1973684E+00  0.5986842E+00  0.4166667E-02
    1       -2.335030   1.000000
    2        0.548096   1.000000
    3        2.907308   1.000000
    4        5.155799   1.000000
    5       10.620997   0.000000
    6       14.515861   0.000000
    7       20.326583   0.000000
    8       20.759431   0.000000
 
  0.6052632E+00  0.2105263E+00  0.6052632E+00  0.4166667E-02
    1       -2.342988   1.000000
    2        0.588088   1.000000
    3        2.776849   1.000000
    4        5.205300   1.000000
    5       10.724113   0.000000
    6       14.790336   0.000000
    7       20.164113   0.000000
    8       20.641897   0.000000
 
  0.6118421E+00  0.2236842E+00  0.6118421E+00  0.4166667E-02
    1       -2.356285   1.000000
    2        0.627941   1.000000
    3        2.659742   1.000000
    4        5.257570   1.000000
    5       10.827500   0.000000
    6       15.068469   0.000000
    7       19.998367   0.000000
    8       20.508651   0.000000
 
  0.6184211E+00  0.2368421E+00  0.6184211E+00  0.4166667E-02
    1       -2.375907   1.000000
    2        0.667117   1.000000
    3        2.557979   1.000000
    4        5.312512   1.000000
    5       10.931564   0.000000
    6       15.347178   0.000000
    7       19.831154   0.000000
    8       20.377065   0.000000
 
  0.6250000E+00  0.2500000E+00  0.6250000E+00  0.4166667E-02
    1       -2.402724   1.000000
    2        0.705255   1.000000
    3        2.473342   1.000000
    4        5.370045   1.000000
    5       11.036692   0.000000
    6       15.623122   0.000000
    7       19.662702   0.000000
    8       20.241684   0.000000
 
  0.3750000E+00  0.3750000E+00  0.7500000E+00  0.4166667E-02
    1       -2.402724   1.000000
    2        0.705255   1.000000
    3        2.473342   1.000000
    4        5.370045   1.000000
    5       11.036692   0.000000
    6       15.623122   0.000000
    7       19.662733   0.000000
    8       20.242217   0.000000
 
  0.3552632E+00  0.3552632E+00  0.7105263E+00  0.4166667E-02
    1       -2.534334   1.000000
    2        0.813195   1.000000
    3        2.333955   1.000000
    4        5.557095   1.000000
    5       11.361498   0.000000
    6       16.392302   0.000000
    7       19.157362   0.000000
    8       19.817812   0.000000
 
  0.3355263E+00  0.3355263E+00  0.6710526E+00  0.4166667E-02
    1       -2.751821   1.000000
    2        0.925737   1.000000
    3        2.366141   1.000000
    4        5.763241   1.000000
    5       11.704823   0.000000
    6       16.962104   0.000000
    7       18.662718   0.000000
    8       19.381173   0.000000
 
  0.3157895E+00  0.3157895E+00  0.6315789E+00  0.4166667E-02
    1       -3.050901   1.000000
    2        1.075769   1.000000
    3        2.536614   1.000000
    4        5.984551   1.000000
    5       12.069547   0.000000
    6       17.213146   0.000000
    7       18.190767   0.000000
    8       18.948743   0.000000
 
  0.2960526E+00  0.2960526E+00  0.5921053E+00  0.4166667E-02
    1       -3.411753   1.000000
    2        1.287475   1.000000
    3        2.802911   1.000000
    4        6.216286   1.000000
    5       12.455669   0.000000
    6       17.173078   0.000000
    7       17.750921   0.000000
    8       18.531978   0.000000
 
  0.2763158E+00  0.2763158E+00  0.5526316E+00  0.4166667E-02
    1       -3.809718   1.000000
    2        1.566295   1.000000
    3        3.134509   1.000000
    4        6.452901   1.000000
    5       12.860459   0.000000
    6       16.964881   0.000000
    7       17.350226   0.000000
    8       18.138525   0.000000
 
  0.2565789E+00  0.2565789E+00  0.5131579E+00  0.4166667E-02
    1       -4.222963   1.000000
    2        1.907379   1.000000
    3        3.512600   1.000000
    4        6.688142   1.000000
    5       13.278173   0.000000
    6       16.682602   0.000000
    7       16.993696   0.000000
    8       17.775132   0.000000
 
  0.2368421E+00  0.2368421E+00  0.4736842E+00  0.4166667E-02
    1       -4.635151   1.000000
    2        2.303172   1.000000
    3        3.924795   1.000000
    4        6.915249   1.000000
    5       13.698762   0.000000
    6       16.376480   0.000000
    7       16.683585   0.000000
    8       17.449043   0.000000
 
  0.2171053E+00  0.2171053E+00  0.4342105E+00  0.4166667E-02
    1       -5.034670   1.000000
    2        2.746510   1.000000
    3        4.361583   1.000000
    4        7.127416   1.000000
    5       14.105793   0.000000
    6       16.072800   0.000000
    7       16.419046   0.000000
    8       17.170711   0.000000
 
  0.1973684E+00  0.1973684E+00  0.3947368E+00  0.4166667E-02
    1       -5.413456   1.000000
    2        3.230941   1.000000
    3        4.814346   1.000000
    4        7.318425   1.000000
    5       14.473281   0.000000
    6       15.785881   0.000000
    7       16.195718   0.000000
    8       16.954288   0.000000
 
  0.1776316E+00  0.1776316E+00  0.3552632E+00  0.4166667E-02
    1       -5.765889   1.000000
    2        3.750479   1.000000
    3        5.274286   1.000000
    4        7.483406   1.000000
    5       14.765060   0.000000
    6       15.524308   0.000000
    7       16.006237   0.000000
    8       16.815619   0.000000
 
  0.1578947E+00  0.1578947E+00  0.3157895E+00  0.4166667E-02
    1       -6.088004   1.000000
    2        4.298850   1.000000
    3        5.731761   1.000000
    4        7.619530   1.000000
    5       14.946054   0.000000
    6       15.294731   0.000000
    7       15.841993   0.000000
    8       16.753857   0.000000
 
  0.1381579E+00  0.1381579E+00  0.2763158E+00  0.4166667E-02
    1       -6.376876   1.000000
    2        4.868847   1.000000
    3        6.176059   1.000000
    4        7.726377   1.000000
    5       14.989784   0.000000
    6       15.124869   0.000000
    7       15.695777   0.000000
    8       16.719929   0.000000
 
  0.1184211E+00  0.1184211E+00  0.2368421E+00  0.4166667E-02
    1       -6.630433   1.000000
    2        5.451215   1.000000
    3        6.595360   1.000000
    4        7.805844   1.000000
    5       14.863442   0.000000
    6       15.083167   0.000000
    7       15.563709   0.000000
    8       16.621997   0.000000
 
  0.9868421E-01  0.9868421E-01  0.1973684E+00  0.4166667E-02
    1       -6.847090   1.000000
    2        6.033190   1.000000
    3        6.977101   1.000000
    4        7.861602   1.000000
    5       14.703129   0.000000
    6       15.071198   0.000000
    7       15.445462   0.000000
    8       16.395937   0.000000
 
  0.7894737E-01  0.7894737E-01  0.1578947E+00  0.4166667E-02
    1       -7.025717   1.000000
    2        6.596233   1.000000
    3        7.308757   1.000000
    4        7.898318   1.000000
    5       14.543962   0.000000
    6       15.071304   0.000000
    7       15.343088   0.000000
    8       16.059876   0.000000
 
  0.5921053E-01  0.5921053E-01  0.1184211E+00  0.4166667E-02
    1       -7.165417   1.000000
    2        7.112909   1.000000
    3        7.578925   1.000000
    4        7.920839   1.000000
    5       14.379375   0.000000
    6       15.087432   0.000000
    7       15.259563   0.000000
    8       15.694963   0.000000
 
  0.3947368E-01  0.3947368E-01  0.7894737E-01  0.4166667E-02
    1       -7.265554   1.000000
    2        7.543491   1.000000
    3        7.778325   1.000000
    4        7.933512   1.000000
    5       14.208217   0.000000
    6       15.113610   0.000000
    7       15.197726   0.000000
    8       15.392317   0.000000
 
  0.1973684E-01  0.1973684E-01  0.3947368E-01  0.4166667E-02
    1       -7.325830   1.000000
    2        7.836467   1.000000
    3        7.900427   1.000000
    4        7.939699   1.000000
    5       14.061935   0.000000
    6       15.137364   0.000000
    7       15.159715   0.000000
    8       15.207017   0.000000
 
  0.0000000E+00  0.0000000E+00  0.0000000E+00  0.4166667E-02
    1       -7.345923   1.000000
    2        7.941520   1.000000
    3        7.941520   1.000000
    4        7.941521   1.000000
    5       14.002152   0.000000
    6       15.146896   0.000000
    7       15.146896   0.000000
    8       15.146896   0.000000
 
  0.0000000E+00  0.0000000E+00  0.0000000E+00  0.4166667E-02
    1       -7.345923   1.000000
    2        7.941520   1.000000
    3        7.941520   1.000000
    4        7.941521   1.000000
    5       14.002152   0.000000
    6       15.146896   0.000000
    7       15.146896   0.000000
    8       15.146896   0.000000
 
  0.2631579E-01  0.2631579E-01  0.2631579E-01  0.4166667E-02
    1       -7.332522   1.000000
    2        7.862254   1.000000
    3        7.931637   1.000000
    4        7.931637   1.000000
    5       14.042405   0.000000
    6       15.151619   0.000000
    7       15.165659   0.000000
    8       15.165659   0.000000
 
  0.5263158E-01  0.5263158E-01  0.5263158E-01  0.4166667E-02
    1       -7.292347   1.000000
    2        7.634657   1.000000
    3        7.902600   1.000000
    4        7.902600   1.000000
    5       14.142091   0.000000
    6       15.178403   0.000000
    7       15.220098   0.000000
    8       15.220098   0.000000
 
  0.7894737E-01  0.7894737E-01  0.7894737E-01  0.4166667E-02
    1       -7.225467   1.000000
    2        7.283978   1.000000
    3        7.856159   1.000000
    4        7.856159   1.000000
    5       14.243867   0.000000
    6       15.264253   0.000000
    7       15.304687   0.000000
    8       15.304687   0.000000
 
  0.1052632E+00  0.1052632E+00  0.1052632E+00  0.4166667E-02
    1       -7.132139   1.000000
    2        6.839943   1.000000
    3        7.794942   1.000000
    4        7.794942   1.000000
    5       14.287157   0.000000
    6       15.410259   0.000000
    7       15.410259   0.000000
    8       15.446835   0.000000
 
  0.1315789E+00  0.1315789E+00  0.1315789E+00  0.4166667E-02
    1       -7.012584   1.000000
    2        6.329341   1.000000
    3        7.722123   1.000000
    4        7.722123   1.000000
    5       14.258825   0.000000
    6       15.524283   0.000000
    7       15.524283   0.000000
    8       15.719719   0.000000
 
  0.1578947E+00  0.1578947E+00  0.1578947E+00  0.4166667E-02
    1       -6.867275   1.000000
    2        5.773544   1.000000
    3        7.641074   1.000000
    4        7.641074   1.000000
    5       14.182330   0.000000
    6       15.631572   0.000000
    7       15.631572   0.000000
    8       16.044300   0.000000
 
  0.1842105E+00  0.1842105E+00  0.1842105E+00  0.4166667E-02
    1       -6.696674   1.000000
    2        5.188890   1.000000
    3        7.555101   1.000000
    4        7.555101   1.000000
    5       14.080891   0.000000
    6       15.716261   0.000000
    7       15.716261   0.000000
    8       16.385447   0.000000
 
  0.2105263E+00  0.2105263E+00  0.2105263E+00  0.4166667E-02
    1       -6.501528   1.000000
    2        4.587815   1.000000
    3        7.467253   1.000000
    4        7.467253   1.000000
    5       13.969124   0.000000
    6       15.765011   0.000000
    7       15.765011   0.000000
    8       16.718290   0.000000
 
  0.2368421E+00  0.2368421E+00  0.2368421E+00  0.4166667E-02
    1       -6.282799   1.000000
    2        3.980029   1.000000
    3        7.380220   1.000000
    4        7.380220   1.000000
    5       13.855798   0.000000
    6       15.770885   0.000000
    7       15.770885   0.000000
    8       17.024644   0.000000
 
  0.2631579E+00  0.2631579E+00  0.2631579E+00  0.4166667E-02
    1       -6.041833   1.000000
    2        3.373458   1.000000
    3        7.296287   1.000000
    4        7.296287   1.000000
    5       13.746346   0.000000
    6       15.735272   0.000000
    7       15.735272   0.000000
    8       17.290680   0.000000
 
  0.2894737E+00  0.2894737E+00  0.2894737E+00  0.4166667E-02
    1       -5.780371   1.000000
    2        2.775001   1.000000
    3        7.217358   1.000000
    4        7.217358   1.000000
    5       13.644284   0.000000
    6       15.666524   0.000000
    7       15.666524   0.000000
    8       17.507393   0.000000
 
  0.3157895E+00  0.3157895E+00  0.3157895E+00  0.4166667E-02
    1       -5.501020   1.000000
    2        2.191110   1.000000
    3        7.144957   1.000000
    4        7.144957   1.000000
    5       13.551832   0.000000
    6       15.576393   0.000000
    7       15.576393   0.000000
    8       17.670916   0.000000
 
  0.3421053E+00  0.3421053E+00  0.3421053E+00  0.4166667E-02
    1       -5.207563   1.000000
    2        1.628666   1.000000
    3        7.080293   1.000000
    4        7.080293   1.000000
    5       13.470429   0.000000
    6       15.476778   0.000000
    7       15.476778   0.000000
    8       17.784021   0.000000
 
  0.3684211E+00  0.3684211E+00  0.3684211E+00  0.4166667E-02
    1       -4.905811   1.000000
    2        1.095765   1.000000
    3        7.024297   1.000000
    4        7.024297   1.000000
    5       13.400903   0.000000
    6       15.377877   0.000000
    7       15.377877   0.000000
    8       17.854041   0.000000
 
  0.3947368E+00  0.3947368E+00  0.3947368E+00  0.4166667E-02
    1       -4.604733   1.000000
    2        0.603377   1.000000
    3        6.977679   1.000000
    4        6.977679   1.000000
    5       13.343764   0.000000
    6       15.287730   0.000000
    7       15.287730   0.000000
    8       17.892120   0.000000
 
  0.4210526E+00  0.4210526E+00  0.4210526E+00  0.4166667E-02
    1       -4.319086   1.000000
    2        0.167566   1.000000
    3        6.940952   1.000000
    4        6.940952   1.000000
    5       13.299244   0.000000
    6       15.212266   0.000000
    7       15.212266   0.000000
    8       17.908988   0.000000
 
  0.4473684E+00  0.4473684E+00  0.4473684E+00  0.4166667E-02
    1       -4.072258   1.000000
    2       -0.187213   1.000000
    3        6.914484   1.000000
    4        6.914484   1.000000
    5       13.267444   0.000000
    6       15.155662   0.000000
    7       15.155662   0.000000
    8       17.914013   0.000000
 
  0.4736842E+00  0.4736842E+00  0.4736842E+00  0.4166667E-02
    1       -3.898331   1.000000
    2       -0.426186   1.000000
    3        6.898514   1.000000
    4        6.898514   1.000000
    5       13.248371   0.000000
    6       15.120670   0.000000
    7       15.120670   0.000000
    8       17.914237   0.000000
 
  0.5000000E+00  0.5000000E+00  0.5000000E+00  0.4166667E-02
    1       -3.834482   1.000000
    2       -0.511749   1.000000
    3        6.893179   1.000000
    4        6.893179   1.000000
    5       13.242017   0.000000
    6       15.108844   0.000000
    7       15.108844   0.000000
    8       17.913862   0.000000
 
  0.5000000E+00  0.5000000E+00  0.5000000E+00  0.4166667E-02
    1       -3.834482   1.000000
    2       -0.511749   1.000000
    3        6.893179   1.000000
    4        6.893179   1.000000
    5       13.242017   0.000000
    6       15.108844   0.000000
    7       15.108844   0.000000
    8       17.913862   0.000000
 
  0.5000000E+00  0.4868421E+00  0.5131579E+00  0.4166667E-02
    1       -3.826982   1.000000
    2       -0.503600   1.000000
    3        6.844502   1.000000
    4        6.880511   1.000000
    5       13.275514   0.000000
    6       15.061732   0.000000
    7       15.137931   0.000000
    8       17.969882   0.000000
 
  0.5000000E+00  0.4736842E+00  0.5263158E+00  0.4166667E-02
    1       -3.804510   1.000000
    2       -0.479203   1.000000
    3        6.703811   1.000000
    4        6.842309   1.000000
    5       13.364796   0.000000
    6       14.939389   0.000000
    7       15.228069   0.000000
    8       18.119667   0.000000
 
  0.5000000E+00  0.4605263E+00  0.5394737E+00  0.4166667E-02
    1       -3.767198   1.000000
    2       -0.438699   1.000000
    3        6.484966   1.000000
    4        6.778024   1.000000
    5       13.477752   0.000000
    6       14.787039   0.000000
    7       15.386847   0.000000
    8       18.321917   0.000000
 
  0.5000000E+00  0.4473684E+00  0.5526316E+00  0.4166667E-02
    1       -3.715305   1.000000
    2       -0.382351   1.000000
    3        6.205718   1.000000
    4        6.686922   1.000000
    5       13.566110   0.000000
    6       14.659608   0.000000
    7       15.622763   0.000000
    8       18.533113   0.000000
 
  0.5000000E+00  0.4342105E+00  0.5657895E+00  0.4166667E-02
    1       -3.649195   1.000000
    2       -0.310561   1.000000
    3        5.883637   1.000000
    4        6.568339   1.000000
    5       13.582224   0.000000
    6       14.607507   0.000000
    7       15.938780   0.000000
    8       18.717236   0.000000
 
  0.5000000E+00  0.4210526E+00  0.5789474E+00  0.4166667E-02
    1       -3.569368   1.000000
    2       -0.223921   1.000000
    3        5.534053   1.000000
    4        6.421990   1.000000
    5       13.518229   0.000000
    6       14.644428   0.000000
    7       16.327702   0.000000
    8       18.848230   0.000000
 
  0.5000000E+00  0.4078947E+00  0.5921053E+00  0.4166667E-02
    1       -3.476465   1.000000
    2       -0.123203   1.000000
    3        5.169616   1.000000
    4        6.248268   1.000000
    5       13.411088   0.000000
    6       14.743157   0.000000
    7       16.773441   0.000000
    8       18.912122   0.000000
 
  0.5000000E+00  0.3947368E+00  0.6052632E+00  0.4166667E-02
    1       -3.371393   1.000000
    2       -0.009536   1.000000
    3        4.800671   1.000000
    4        6.048440   1.000000
    5       13.298056   0.000000
    6       14.876278   0.000000
    7       17.254083   0.000000
    8       18.908199   0.000000
 
  0.5000000E+00  0.3815789E+00  0.6184211E+00  0.4166667E-02
    1       -3.255291   1.000000
    2        0.115492   1.000000
    3        4.436037   1.000000
    4        5.824732   1.000000
    5       13.199417   0.000000
    6       15.030624   0.000000
    7       17.739458   0.000000
    8       18.852016   0.000000
 
  0.5000000E+00  0.3684211E+00  0.6315789E+00  0.4166667E-02
    1       -3.129669   1.000000
    2        0.249598   1.000000
    3        4.083782   1.000000
    4        5.580245   1.000000
    5       13.123652   0.000000
    6       15.201301   0.000000
    7       18.162012   0.000000
    8       18.796708   0.000000
 
  0.5000000E+00  0.3552632E+00  0.6447368E+00  0.4166667E-02
    1       -2.996489   1.000000
    2        0.389449   1.000000
    3        3.752162   1.000000
    4        5.318816   1.000000
    5       13.072890   0.000000
    6       15.386684   0.000000
    7       18.320557   0.000000
    8       18.911842   0.000000
 
  0.5000000E+00  0.3421053E+00  0.6578947E+00  0.4166667E-02
    1       -2.858348   1.000000
    2        0.530073   1.000000
    3        3.450522   1.000000
    4        5.044769   1.000000
    5       13.045734   0.000000
    6       15.586199   0.000000
    7       18.216239   0.000000
    8       19.116093   0.000000
 
  0.5000000E+00  0.3289474E+00  0.6710526E+00  0.4166667E-02
    1       -2.718672   1.000000
    2        0.664175   1.000000
    3        3.190392   1.000000
    4        4.762738   1.000000
    5       13.038702   0.000000
    6       15.799575   0.000000
    7       18.047148   0.000000
    8       19.118794   0.000000
 
  0.5000000E+00  0.3157895E+00  0.6842105E+00  0.4166667E-02
    1       -2.581880   1.000000
    2        0.781703   1.000000
    3        2.986204   1.000000
    4        4.477588   1.000000
    5       13.047094   0.000000
    6       16.026445   0.000000
    7       17.870077   0.000000
    8       18.927919   0.000000
 
  0.5000000E+00  0.3026316E+00  0.6973684E+00  0.4166667E-02
    1       -2.453674   1.000000
    2        0.871010   1.000000
    3        2.854115   1.000000
    4        4.194500   1.000000
    5       13.065405   0.000000
    6       16.266167   0.000000
    7       17.704803   0.000000
    8       18.653274   0.000000
 
  0.5000000E+00  0.2894737E+00  0.7105263E+00  0.4166667E-02
    1       -2.341061   1.000000
    2        0.924080   1.000000
    3        2.806482   1.000000
    4        3.919425   1.000000
    5       13.087853   0.000000
    6       16.517414   0.000000
    7       17.562922   0.000000
    8       18.352968   0.000000
 
  0.5000000E+00  0.2763158E+00  0.7236842E+00  0.4166667E-02
    1       -2.252061   1.000000
    2        0.943877   1.000000
    3        2.842741   1.000000
    4        3.660433   1.000000
    5       13.108838   0.000000
    6       16.777091   0.000000
    7       17.451441   0.000000
    8       18.053610   0.000000
 
  0.5000000E+00  0.2631579E+00  0.7368421E+00  0.4166667E-02
    1       -2.194551   1.000000
    2        0.944859   1.000000
    3        2.941676   1.000000
    4        3.434000   1.000000
    5       13.123596   0.000000
    6       17.035620   0.000000
    7       17.367359   0.000000
    8       17.783364   0.000000
 
  0.5000000E+00  0.2500000E+00  0.7500000E+00  0.4166667E-02
    1       -2.174612   1.000000
    2        0.942959   1.000000
    3        3.021536   1.000000
    4        3.312982   1.000000
    5       13.128899   0.000000
    6       17.242390   0.000000
    7       17.266735   0.000000
    8       17.644437   0.000000
 
  0.5000000E+00  0.2500000E+00  0.7500000E+00  0.4166667E-02
    1       -2.174612   1.000000
    2        0.942959   1.000000
    3        3.021536   1.000000
    4        3.312982   1.000000
    5       13.128899   0.000000
    6       17.242390   0.000000
    7       17.266735   0.000000
    8       17.644437   0.000000
 
  0.5000000E+00  0.2368421E+00  0.7368421E+00  0.4166667E-02
    1       -2.176289   1.000000
    2        0.934722   1.000000
    3        3.035336   1.000000
    4        3.320823   1.000000
    5       13.087508   0.000000
    6       16.986884   0.000000
    7       17.312618   0.000000
    8       17.902091   0.000000
 
  0.5000000E+00  0.2236842E+00  0.7236842E+00  0.4166667E-02
    1       -2.181263   1.000000
    2        0.910785   1.000000
    3        3.075885   1.000000
    4        3.344231   1.000000
    5       12.968861   0.000000
    6       16.603131   0.000000
    7       17.444664   0.000000
    8       18.292133   0.000000
 
  0.5000000E+00  0.2105263E+00  0.7105263E+00  0.4166667E-02
    1       -2.189368   1.000000
    2        0.873254   1.000000
    3        3.140853   1.000000
    4        3.382862   1.000000
    5       12.786732   0.000000
    6       16.210781   0.000000
    7       17.648861   0.000000
    8       18.694376   0.000000
 
  0.5000000E+00  0.1973684E+00  0.6973684E+00  0.4166667E-02
    1       -2.200311   1.000000
    2        0.825035   1.000000
    3        3.226956   1.000000
    4        3.436151   1.000000
    5       12.557597   0.000000
    6       15.821960   0.000000
    7       17.908306   0.000000
    8       19.095829   0.000000
 
  0.5000000E+00  0.1842105E+00  0.6842105E+00  0.4166667E-02
    1       -2.213690   1.000000
    2        0.769264   1.000000
    3        3.330537   1.000000
    4        3.503309   1.000000
    5       12.296485   0.000000
    6       15.440668   0.000000
    7       18.207464   0.000000
    8       19.491477   0.000000
 
  0.5000000E+00  0.1710526E+00  0.6710526E+00  0.4166667E-02
    1       -2.229092   1.000000
    2        0.708862   1.000000
    3        3.447927   1.000000
    4        3.583308   1.000000
    5       12.015451   0.000000
    6       15.069355   0.000000
    7       18.533459   0.000000
    8       19.877285   0.000000
 
  0.5000000E+00  0.1578947E+00  0.6578947E+00  0.4166667E-02
    1       -2.246030   1.000000
    2        0.646332   1.000000
    3        3.575658   1.000000
    4        3.674904   1.000000
    5       11.723763   0.000000
    6       14.710100   0.000000
    7       18.876049   0.000000
    8       20.249120   0.000000
 
  0.5000000E+00  0.1447368E+00  0.6447368E+00  0.4166667E-02
    1       -2.263996   1.000000
    2        0.583764   1.000000
    3        3.710482   1.000000
    4        3.776602   1.000000
    5       11.428524   0.000000
    6       14.364927   0.000000
    7       19.226915   0.000000
    8       20.602926   0.000000
 
  0.5000000E+00  0.1315789E+00  0.6315789E+00  0.4166667E-02
    1       -2.282429   1.000000
    2        0.522874   1.000000
    3        3.849324   1.000000
    4        3.886659   1.000000
    5       11.135426   0.000000
    6       14.035984   0.000000
    7       19.579074   0.000000
    8       20.935861   0.000000
 
  0.5000000E+00  0.1184211E+00  0.6184211E+00  0.4166667E-02
    1       -2.300832   1.000000
    2        0.464971   1.000000
    3        3.989174   1.000000
    4        4.002992   1.000000
    5       10.849230   0.000000
    6       13.725501   0.000000
    7       19.926112   0.000000
    8       21.240157   0.000000
 
  0.5000000E+00  0.1052632E+00  0.6052632E+00  0.4166667E-02
    1       -2.318711   1.000000
    2        0.411098   1.000000
    3        4.123168   1.000000
    4        4.127029   1.000000
    5       10.574244   0.000000
    6       13.435921   0.000000
    7       20.261934   0.000000
    8       21.515798   0.000000
 
  0.5000000E+00  0.9210526E-01  0.5921053E+00  0.4166667E-02
    1       -2.335610   1.000000
    2        0.362074   1.000000
    3        4.244320   1.000000
    4        4.259822   1.000000
    5       10.314638   0.000000
    6       13.169900   0.000000
    7       20.580448   0.000000
    8       21.753931   0.000000
 
  0.5000000E+00  0.7894737E-01  0.5789474E+00  0.4166667E-02
    1       -2.351112   1.000000
    2        0.318537   1.000000
    3        4.363079   1.000000
    4        4.384387   1.000000
    5       10.074687   0.000000
    6       12.930305   0.000000
    7       20.875392   0.000000
    8       21.845137   0.000000
 
  0.5000000E+00  0.6578947E-01  0.5657895E+00  0.4166667E-02
    1       -2.364886   1.000000
    2        0.280961   1.000000
    3        4.475533   1.000000
    4        4.497460   1.000000
    5        9.858917   0.000000
    6       12.720150   0.000000
    7       21.140235   0.000000
    8       21.836014   0.000000
 
  0.5000000E+00  0.5263158E-01  0.5526316E+00  0.4166667E-02
    1       -2.376567   1.000000
    2        0.249758   1.000000
    3        4.577272   1.000000
    4        4.595790   1.000000
    5        9.672190   0.000000
    6       12.542554   0.000000
    7       21.368988   0.000000
    8       21.825328   0.000000
 
  0.5000000E+00  0.3947368E-01  0.5394737E+00  0.4166667E-02
    1       -2.385920   1.000000
    2        0.225224   1.000000
    3        4.663532   1.000000
    4        4.676249   1.000000
    5        9.519580   0.000000
    6       12.400547   0.000000
    7       21.554769   0.000000
    8       21.814029   0.000000
 
  0.5000000E+00  0.2631579E-01  0.5263158E+00  0.4166667E-02
    1       -2.392740   1.000000
    2        0.207559   1.000000
    3        4.729548   1.000000
    4        4.736031   1.000000
    5        9.406050   0.000000
    6       12.296856   0.000000
    7       21.691330   0.000000
    8       21.812885   0.000000
 
  0.5000000E+00  0.1315789E-01  0.5131579E+00  0.4166667E-02
    1       -2.396903   1.000000
    2        0.196900   1.000000
    3        4.771115   1.000000
    4        4.772875   1.000000
    5        9.335917   0.000000
    6       12.233677   0.000000
    7       21.777075   0.000000
    8       21.805107   0.000000
 
  0.5000000E+00  0.0000000E+00  0.5000000E+00  0.4166667E-02
    1       -2.398310   1.000000
    2        0.193332   1.000000
    3        4.785322   1.000000
    4        4.785322   1.000000
    5        9.312179   0.000000
    6       12.212447   0.000000
    7       21.803739   0.000000
    8       21.804850   0.000000
 
  0.0000000E+00  0.0000000E+00  0.0000000E+00  0.4166667E-02
    1       -7.345923   1.000000
    2        7.941520   1.000000
    3        7.941520   1.000000
    4        7.941521   1.000000
    5       14.002152   0.000000
    6       15.146896   0.000000
    7       15.146896   0.000000
    8       15.146896   0.000000
 
 -0.2631579E-01  0.0000000E+00 -0.2631579E-01  0.4166667E-02
    1       -7.328064   1.000000
    2        7.881984   1.000000
    3        7.905242   1.000000
    4        7.905242   1.000000
    5       14.056968   0.000000
    6       15.097415   0.000000
    7       15.199352   0.000000
    8       15.199352   0.000000
 
 -0.5263158E-01  0.0000000E+00 -0.5263158E-01  0.4166667E-02
    1       -7.274454   1.000000
    2        7.710690   1.000000
    3        7.800228   1.000000
    4        7.800228   1.000000
    5       14.205245   0.000000
    6       14.959594   0.000000
    7       15.352655   0.000000
    8       15.352655   0.000000
 
 -0.7894737E-01  0.0000000E+00 -0.7894737E-01  0.4166667E-02
    1       -7.185320   1.000000
    2        7.445824   1.000000
    3        7.636663   1.000000
    4        7.636663   1.000000
    5       14.369909   0.000000
    6       14.794126   0.000000
    7       15.595859   0.000000
    8       15.595859   0.000000
 
 -0.1052632E+00  0.0000000E+00 -0.1052632E+00  0.4166667E-02
    1       -7.060802   1.000000
    2        7.108850   1.000000
    3        7.428170   1.000000
    4        7.428171   1.000000
    5       14.272095   0.000000
    6       14.851345   0.000000
    7       15.914271   0.000000
    8       15.914271   0.000000
 
 -0.1315789E+00  0.0000000E+00 -0.1315789E+00  0.4166667E-02
    1       -6.901321   1.000000
    2        6.718718   1.000000
    3        7.188901   1.000000
    4        7.188902   1.000000
    5       13.945408   0.000000
    6       15.049400   0.000000
    7       16.292291   0.000000
    8       16.292291   0.000000
 
 -0.1578947E+00  0.0000000E+00 -0.1578947E+00  0.4166667E-02
    1       -6.707315   1.000000
    2        6.289722   1.000000
    3        6.931682   1.000000
    4        6.931682   1.000000
    5       13.549225   0.000000
    6       15.154931   0.000000
    7       16.715487   0.000000
    8       16.715487   0.000000
 
 -0.1842105E+00  0.0000000E+00 -0.1842105E+00  0.4166667E-02
    1       -6.479450   1.000000
    2        5.831588   1.000000
    3        6.667267   1.000000
    4        6.667268   1.000000
    5       13.115741   0.000000
    6       15.067951   0.000000
    7       17.171304   0.000000
    8       17.171304   0.000000
 
 -0.2105263E+00  0.0000000E+00 -0.2105263E+00  0.4166667E-02
    1       -6.218509   1.000000
    2        5.350541   1.000000
    3        6.404277   1.000000
    4        6.404277   1.000000
    5       12.658450   0.000000
    6       14.792844   0.000000
    7       17.649297   0.000000
    8       17.649301   0.000000
 
 -0.2368421E+00  0.0000000E+00 -0.2368421E+00  0.4166667E-02
    1       -5.925579   1.000000
    2        4.850439   1.000000
    3        6.149472   1.000000
    4        6.149472   1.000000
    5       12.188462   0.000000
    6       14.415777   0.000000
    7       18.140732   0.000000
    8       18.140766   0.000000
 
 -0.2631579E+00  0.0000000E+00 -0.2631579E+00  0.4166667E-02
    1       -5.602015   1.000000
    2        4.333892   1.000000
    3        5.908112   1.000000
    4        5.908112   1.000000
    5       11.718158   0.000000
    6       14.016502   0.000000
    7       18.638025   0.000000
    8       18.638040   0.000000
 
 -0.2894737E+00  0.0000000E+00 -0.2894737E+00  0.4166667E-02
    1       -5.249609   1.000000
    2        3.803210   1.000000
    3        5.684281   1.000000
    4        5.684281   1.000000
    5       11.261556   0.000000
    6       13.638399   0.000000
    7       19.134362   0.000000
    8       19.134454   0.000000
 
 -0.3157895E+00  0.0000000E+00 -0.3157895E+00  0.4166667E-02
    1       -4.870840   1.000000
    2        3.261313   1.000000
    3        5.481131   1.000000
    4        5.481131   1.000000
    5       10.832773   0.000000
    6       13.299963   0.000000
    7       19.622615   0.000000
    8       19.622720   0.000000
 
 -0.3421053E+00  0.0000000E+00 -0.3421053E+00  0.4166667E-02
    1       -4.469220   1.000000
    2        2.712537   1.000000
    3        5.301105   1.000000
    4        5.301106   1.000000
    5       10.444155   0.000000
    6       13.007379   0.000000
    7       20.094657   0.000000
    8       20.097255   0.000000
 
 -0.3684211E+00  0.0000000E+00 -0.3684211E+00  0.4166667E-02
    1       -4.049989   1.000000
    2        2.163546   1.000000
    3        5.146088   1.000000
    4        5.146089   1.000000
    5       10.105257   0.000000
    6       12.761778   0.000000
    7       20.540260   0.000000
    8       20.542408   0.000000
 
 -0.3947368E+00  0.0000000E+00 -0.3947368E+00  0.4166667E-02
    1       -3.621670   1.000000
    2        1.624749   1.000000
    3        5.017523   1.000000
    4        5.017523   1.000000
    5        9.822610   0.000000
    6       12.562565   0.000000
    7       20.946260   0.000000
    8       20.946495   0.000000
 
 -0.4210526E+00  0.0000000E+00 -0.4210526E+00  0.4166667E-02
    1       -3.199290   1.000000
    2        1.113404   1.000000
    3        4.916500   1.000000
    4        4.916500   1.000000
    5        9.600278   0.000000
    6       12.408779   0.000000
    7       21.295810   0.000000
    8       21.300061   0.000000
 
 -0.4473684E+00  0.0000000E+00 -0.4473684E+00  0.4166667E-02
    1       -2.811695   1.000000
    2        0.660356   1.000000
    3        4.843799   1.000000
    4        4.843800   1.000000
    5        9.440464   0.000000
    6       12.299505   0.000000
    7       21.568520   0.000000
    8       21.569199   0.000000
 
 -0.4736842E+00  0.0000000E+00 -0.4736842E+00  0.4166667E-02
    1       -2.515192   1.000000
    2        0.323788   1.000000
    3        4.799974   1.000000
    4        4.799974   1.000000
    5        9.344287   0.000000
    6       12.234189   0.000000
    7       21.743503   0.000000
    8       21.761062   0.000000
 
 -0.5000000E+00  0.0000000E+00 -0.5000000E+00  0.4166667E-02
    1       -2.398310   1.000000
    2        0.193332   1.000000
    3        4.785322   1.000000
    4        4.785322   1.000000
    5        9.312179   0.000000
    6       12.212447   0.000000
    7       21.803739   0.000000
    8       21.803914   0.000000
 
 -0.5000000E+00  0.0000000E+00 -0.5000000E+00  0.4166667E-02
    1       -2.398310   1.000000
    2        0.193332   1.000000
    3        4.785322   1.000000
    4        4.785322   1.000000
    5        9.312179   0.000000
    6       12.212447   0.000000
    7       21.803739   0.000000
    8       21.826428   0.000000
 
 -0.5065789E+00 -0.1315789E-01 -0.5065789E+00  0.4166667E-02
    1       -2.397615   1.000000
    2        0.195113   1.000000
    3        4.770300   1.000000
    4        4.787010   1.000000
    5        9.324026   0.000000
    6       12.223087   0.000000
    7       21.795984   0.000000
    8       21.798304   0.000000
 
 -0.5131579E+00 -0.2631579E-01 -0.5131579E+00  0.4166667E-02
    1       -2.395510   1.000000
    2        0.200463   1.000000
    3        4.725975   1.000000
    4        4.792079   1.000000
    5        9.358785   0.000000
    6       12.255077   0.000000
    7       21.777772   0.000000
    8       21.782746   0.000000
 
 -0.5197368E+00 -0.3947368E-01 -0.5197368E+00  0.4166667E-02
    1       -2.392126   1.000000
    2        0.209322   1.000000
    3        4.654403   1.000000
    4        4.800509   1.000000
    5        9.414233   0.000000
    6       12.308575   0.000000
    7       21.731516   0.000000
    8       21.755482   0.000000
 
 -0.5263158E+00 -0.5263158E-01 -0.5263158E+00  0.4166667E-02
    1       -2.387527   1.000000
    2        0.221663   1.000000
    3        4.558676   1.000000
    4        4.812297   1.000000
    5        9.487134   0.000000
    6       12.383813   0.000000
    7       21.679638   0.000000
    8       21.718598   0.000000
 
 -0.5328947E+00 -0.6578947E-01 -0.5328947E+00  0.4166667E-02
    1       -2.381853   1.000000
    2        0.237420   1.000000
    3        4.442459   1.000000
    4        4.827426   1.000000
    5        9.573726   0.000000
    6       12.480976   0.000000
    7       21.606830   0.000000
    8       21.669241   0.000000
 
 -0.5394737E+00 -0.7894737E-01 -0.5394737E+00  0.4166667E-02
    1       -2.375282   1.000000
    2        0.256512   1.000000
    3        4.309615   1.000000
    4        4.845878   1.000000
    5        9.670218   0.000000
    6       12.600107   0.000000
    7       21.522356   0.000000
    8       21.614393   0.000000
 
 -0.5460526E+00 -0.9210526E-01 -0.5460526E+00  0.4166667E-02
    1       -2.368049   1.000000
    2        0.278834   1.000000
    3        4.163942   1.000000
    4        4.867633   1.000000
    5        9.773175   0.000000
    6       12.741012   0.000000
    7       21.426347   0.000000
    8       21.545271   0.000000
 
 -0.5526316E+00 -0.1052632E+00 -0.5526316E+00  0.4166667E-02
    1       -2.360466   1.000000
    2        0.304211   1.000000
    3        4.008977   1.000000
    4        4.892651   1.000000
    5        9.879735   0.000000
    6       12.903134   0.000000
    7       21.319140   0.000000
    8       21.471511   0.000000
 
 -0.5592105E+00 -0.1184211E+00 -0.5592105E+00  0.4166667E-02
    1       -2.352864   1.000000
    2        0.332492   1.000000
    3        3.847992   1.000000
    4        4.920903   1.000000
    5        9.987759   0.000000
    6       13.085580   0.000000
    7       21.200320   0.000000
    8       21.387654   0.000000
 
 -0.5657895E+00 -0.1315789E+00 -0.5657895E+00  0.4166667E-02
    1       -2.345656   1.000000
    2        0.363465   1.000000
    3        3.683953   1.000000
    4        4.952351   1.000000
    5       10.095794   0.000000
    6       13.287073   0.000000
    7       21.071646   0.000000
    8       21.298378   0.000000
 
 -0.5723684E+00 -0.1447368E+00 -0.5723684E+00  0.4166667E-02
    1       -2.339338   1.000000
    2        0.396878   1.000000
    3        3.519575   1.000000
    4        4.986949   1.000000
    5       10.202995   0.000000
    6       13.506001   0.000000
    7       20.935015   0.000000
    8       21.209371   0.000000
 
 -0.5789474E+00 -0.1578947E+00 -0.5789474E+00  0.4166667E-02
    1       -2.334401   1.000000
    2        0.432447   1.000000
    3        3.357398   1.000000
    4        5.024657   1.000000
    5       10.309014   0.000000
    6       13.740514   0.000000
    7       20.791921   0.000000
    8       21.099274   0.000000
 
 -0.5855263E+00 -0.1710526E+00 -0.5855263E+00  0.4166667E-02
    1       -2.331564   1.000000
    2        0.469783   1.000000
    3        3.199782   1.000000
    4        5.065407   1.000000
    5       10.413842   0.000000
    6       13.988503   0.000000
    7       20.641298   0.000000
    8       20.989923   0.000000
 
 -0.5921053E+00 -0.1842105E+00 -0.5921053E+00  0.4166667E-02
    1       -2.331509   1.000000
    2        0.508489   1.000000
    3        3.049011   1.000000
    4        5.109143   1.000000
    5       10.517715   0.000000
    6       14.247742   0.000000
    7       20.486437   0.000000
    8       20.878173   0.000000
 
 -0.5986842E+00 -0.1973684E+00 -0.5986842E+00  0.4166667E-02
    1       -2.335030   1.000000
    2        0.548096   1.000000
    3        2.907308   1.000000
    4        5.155799   1.000000
    5       10.620997   0.000000
    6       14.515861   0.000000
    7       20.326572   0.000000
    8       20.758511   0.000000
 
 -0.6052632E+00 -0.2105263E+00 -0.6052632E+00  0.4166667E-02
    1       -2.342988   1.000000
    2        0.588088   1.000000
    3        2.776849   1.000000
    4        5.205300   1.000000
    5       10.724113   0.000000
    6       14.790336   0.000000
    7       20.164259   0.000000
    8       20.635883   0.000000
 
 -0.6118421E+00 -0.2236842E+00 -0.6118421E+00  0.4166667E-02
    1       -2.356285   1.000000
    2        0.627941   1.000000
    3        2.659742   1.000000
    4        5.257570   1.000000
    5       10.827500   0.000000
    6       15.068469   0.000000
    7       19.998353   0.000000
    8       20.508544   0.000000
 
 -0.6184211E+00 -0.2368421E+00 -0.6184211E+00  0.4166667E-02
    1       -2.375907   1.000000
    2        0.667117   1.000000
    3        2.557979   1.000000
    4        5.312512   1.000000
    5       10.931564   0.000000
    6       15.347178   0.000000
    7       19.831028   0.000000
    8       20.376879   0.000000
 
 -0.6250000E+00 -0.2500000E+00 -0.6250000E+00  0.4166667E-02
    1       -2.402724   1.000000
    2        0.705255   1.000000
    3        2.473342   1.000000
    4        5.370045   1.000000
    5       11.036692   0.000000
    6       15.623122   0.000000
    7       19.662705   0.000000
    8       20.241787   0.000000
 
 -0.3750000E+00 -0.3750000E+00 -0.7500000E+00  0.4166667E-02
    1       -2.402724   1.000000
    2        0.705255   1.000000
    3        2.473342   1.000000
    4        5.370045   1.000000
    5       11.036692   0.000000
    6       15.623122   0.000000
    7       19.662704   0.000000
    8       20.241696   0.000000
 
 -0.3552632E+00 -0.3552632E+00 -0.7105263E+00  0.4166667E-02
    1       -2.534334   1.000000
    2        0.813195   1.000000
    3        2.333955   1.000000
    4        5.557095   1.000000
    5       11.361498   0.000000
    6       16.392302   0.000000
    7       19.157356   0.000000
    8       19.817858   0.000000
 
 -0.3355263E+00 -0.3355263E+00 -0.6710526E+00  0.4166667E-02
    1       -2.751821   1.000000
    2        0.925737   1.000000
    3        2.366141   1.000000
    4        5.763241   1.000000
    5       11.704823   0.000000
    6       16.962104   0.000000
    7       18.662723   0.000000
    8       19.381202   0.000000
 
 -0.3157895E+00 -0.3157895E+00 -0.6315789E+00  0.4166667E-02
    1       -3.050901   1.000000
    2        1.075769   1.000000
    3        2.536614   1.000000
    4        5.984551   1.000000
    5       12.069547   0.000000
    6       17.213146   0.000000
    7       18.190765   0.000000
    8       18.948742   0.000000
 
 -0.2960526E+00 -0.2960526E+00 -0.5921053E+00  0.4166667E-02
    1       -3.411753   1.000000
    2        1.287475   1.000000
    3        2.802911   1.000000
    4        6.216286   1.000000
    5       12.455669   0.000000
    6       17.173078   0.000000
    7       17.750921   0.000000
    8       18.531978   0.000000
 
 -0.2763158E+00 -0.2763158E+00 -0.5526316E+00  0.4166667E-02
    1       -3.809718   1.000000
    2        1.566295   1.000000
    3        3.134509   1.000000
    4        6.452901   1.000000
    5       12.860459   0.000000
    6       16.964881   0.000000
    7       17.350226   0.000000
    8       18.138526   0.000000
 
 -0.2565789E+00 -0.2565789E+00 -0.5131579E+00  0.4166667E-02
    1       -4.222963   1.000000
    2        1.907379   1.000000
    3        3.512600   1.000000
    4        6.688142   1.000000
    5       13.278173   0.000000
    6       16.682602   0.000000
    7       16.993696   0.000000
    8       17.775132   0.000000
 
 -0.2368421E+00 -0.2368421E+00 -0.4736842E+00  0.4166667E-02
    1       -4.635151   1.000000
    2        2.303172   1.000000
    3        3.924795   1.000000
    4        6.915249   1.000000
    5       13.698762   0.000000
    6       16.376480   0.000000
    7       16.683585   0.000000
    8       17.449043   0.000000
 
 -0.2171053E+00 -0.2171053E+00 -0.4342105E+00  0.4166667E-02
    1       -5.034670   1.000000
    2        2.746510   1.000000
    3        4.361583   1.000000
    4        7.127416   1.000000
    5       14.105793   0.000000
    6       16.072800   0.000000
    7       16.419046   0.000000
    8       17.170715   0.000000
 
 -0.1973684E+00 -0.1973684E+00 -0.3947368E+00  0.4166667E-02
    1       -5.413456   1.000000
    2        3.230941   1.000000
    3        4.814346   1.000000
    4        7.318425   1.000000
    5       14.473281   0.000000
    6       15.785881   0.000000
    7       16.195718   0.000000
    8       16.954290   0.000000
 
 -0.1776316E+00 -0.1776316E+00 -0.3552632E+00  0.4166667E-02
    1       -5.765889   1.000000
    2        3.750479   1.000000
    3        5.274286   1.000000
    4        7.483406   1.000000
    5       14.765060   0.000000
    6       15.524308   0.000000
    7       16.006237   0.000000
    8       16.815619   0.000000
 
 -0.1578947E+00 -0.1578947E+00 -0.3157895E+00  0.4166667E-02
    1       -6.088004   1.000000
    2        4.298850   1.000000
    3        5.731761   1.000000
    4        7.619530   1.000000
    5       14.946054   0.000000
    6       15.294731   0.000000
    7       15.841993   0.000000
    8       16.753858   0.000000
 
 -0.1381579E+00 -0.1381579E+00 -0.2763158E+00  0.4166667E-02
    1       -6.376876   1.000000
    2        4.868847   1.000000
    3        6.176059   1.000000
    4        7.726377   1.000000
    5       14.989784   0.000000
    6       15.124869   0.000000
    7       15.695777   0.000000
    8       16.719929   0.000000
 
 -0.1184211E+00 -0.1184211E+00 -0.2368421E+00  0.4166667E-02
    1       -6.630433   1.000000
    2        5.451215   1.000000
    3        6.595360   1.000000
    4        7.805844   1.000000
    5       14.863442   0.000000
    6       15.083167   0.000000
    7       15.563709   0.000000
    8       16.621997   0.000000
 
 -0.9868421E-01 -0.9868421E-01 -0.1973684E+00  0.4166667E-02
    1       -6.847090   1.000000
    2        6.033190   1.000000
    3        6.977101   1.000000
    4        7.861602   1.000000
    5       14.703129   0.000000
    6       15.071198   0.000000
    7       15.445462   0.000000
    8       16.395937   0.000000
 
 -0.7894737E-01 -0.7894737E-01 -0.1578947E+00  0.4166667E-02
    1       -7.025717   1.000000
    2        6.596233   1.000000
    3        7.308757   1.000000
    4        7.898318   1.000000
    5       14.543962   0.000000
    6       15.071304   0.000000
    7       15.343088   0.000000
    8       16.059876   0.000000
 
 -0.5921053E-01 -0.5921053E-01 -0.1184211E+00  0.4166667E-02
    1       -7.165417   1.000000
    2        7.112909   1.000000
    3        7.578925   1.000000
    4        7.920839   1.000000
    5       14.379375   0.000000
    6       15.087432   0.000000
    7       15.259563   0.000000
    8       15.694963   0.000000
 
 -0.3947368E-01 -0.3947368E-01 -0.7894737E-01  0.4166667E-02
    1       -7.265554   1.000000
    2        7.543491   1.000000
    3        7.778325   1.000000
    4        7.933512   1.000000
    5       14.208217   0.000000
    6       15.113610   0.000000
    7       15.197726   0.000000
    8       15.392317   0.000000
 
 -0.1973684E-01 -0.1973684E-01 -0.3947368E-01  0.4166667E-02
    1       -7.325830   1.000000
    2        7.836467   1.000000
    3        7.900427   1.000000
    4        7.939699   1.000000
    5       14.061935   0.000000
    6       15.137362   0.000000
    7       15.159715   0.000000
    8       15.207017   0.000000
 
  0.0000000E+00  0.0000000E+00  0.0000000E+00  0.4166667E-02
    1       -7.345923   1.000000
    2        7.941520   1.000000
    3        7.941520   1.000000
    4        7.941521   1.000000
    5       14.002152   0.000000
    6       15.146896   0.000000
    7       15.146896   0.000000
    8       15.146896   0.000000
 
  0.0000000E+00  0.0000000E+00  0.0000000E+00  0.4166667E-02
    1       -7.345923   1.000000
    2        7.941520   1.000000
    3        7.941520   1.000000
    4        7.941521   1.000000
    5       14.002152   0.000000
    6       15.146896   0.000000
    7       15.146896   0.000000
    8       15.146896   0.000000
 
 -0.2631579E-01 -0.2631579E-01 -0.2631579E-01  0.4166667E-02
    1       -7.332522   1.000000
    2        7.862254   1.000000
    3        7.931637   1.000000
    4        7.931637   1.000000
    5       14.042405   0.000000
    6       15.151619   0.000000
    7       15.165659   0.000000
    8       15.165659   0.000000
 
 -0.5263158E-01 -0.5263158E-01 -0.5263158E-01  0.4166667E-02
    1       -7.292347   1.000000
    2        7.634657   1.000000
    3        7.902600   1.000000
    4        7.902600   1.000000
    5       14.142091   0.000000
    6       15.178403   0.000000
    7       15.220098   0.000000
    8       15.220098   0.000000
 
 -0.7894737E-01 -0.7894737E-01 -0.7894737E-01  0.4166667E-02
    1       -7.225467   1.000000
    2        7.283978   1.000000
    3        7.856159   1.000000
    4        7.856159   1.000000
    5       14.243867   0.000000
    6       15.264253   0.000000
    7       15.304687   0.000000
    8       15.304687   0.000000
 
 -0.1052632E+00 -0.1052632E+00 -0.1052632E+00  0.4166667E-02
    1       -7.132139   1.000000
    2        6.839943   1.000000
    3        7.794942   1.000000
    4        7.794942   1.000000
    5       14.287157   0.000000
    6       15.410259   0.000000
    7       15.410259   0.000000
    8       15.446835   0.000000
 
 -0.1315789E+00 -0.1315789E+00 -0.1315789E+00  0.4166667E-02
    1       -7.012584   1.000000
    2        6.329341   1.000000
    3        7.722123   1.000000
    4        7.722123   1.000000
    5       14.258825   0.000000
    6       15.524283   0.000000
    7       15.524283   0.000000
    8       15.719719   0.000000
 
 -0.1578947E+00 -0.1578947E+00 -0.1578947E+00  0.4166667E-02
    1       -6.867275   1.000000
    2        5.773544   1.000000
    3        7.641074   1.000000
    4        7.641074   1.000000
    5       14.182330   0.000000
    6       15.631572   0.000000
    7       15.631572   0.000000
    8       16.044300   0.000000
 
 -0.1842105E+00 -0.1842105E+00 -0.1842105E+00  0.4166667E-02
    1       -6.696674   1.000000
    2        5.188890   1.000000
    3        7.555101   1.000000
    4        7.555101   1.000000
    5       14.080891   0.000000
    6       15.716261   0.000000
    7       15.716261   0.000000
    8       16.385447   0.000000
 
 -0.2105263E+00 -0.2105263E+00 -0.2105263E+00  0.4166667E-02
    1       -6.501528   1.000000
    2        4.587815   1.000000
    3        7.467253   1.000000
    4        7.467253   1.000000
    5       13.969124   0.000000
    6       15.765011   0.000000
    7       15.765011   0.000000
    8       16.718290   0.000000
 
 -0.2368421E+00 -0.2368421E+00 -0.2368421E+00  0.4166667E-02
    1       -6.282799   1.000000
    2        3.980029   1.000000
    3        7.380220   1.000000
    4        7.380220   1.000000
    5       13.855798   0.000000
    6       15.770885   0.000000
    7       15.770885   0.000000
    8       17.024644   0.000000
 
 -0.2631579E+00 -0.2631579E+00 -0.2631579E+00  0.4166667E-02
    1       -6.041833   1.000000
    2        3.373458   1.000000
    3        7.296287   1.000000
    4        7.296287   1.000000
    5       13.746346   0.000000
    6       15.735272   0.000000
    7       15.735272   0.000000
    8       17.290683   0.000000
 
 -0.2894737E+00 -0.2894737E+00 -0.2894737E+00  0.4166667E-02
    1       -5.780371   1.000000
    2        2.775001   1.000000
    3        7.217358   1.000000
    4        7.217358   1.000000
    5       13.644284   0.000000
    6       15.666524   0.000000
    7       15.666524   0.000000
    8       17.507392   0.000000
 
 -0.3157895E+00 -0.3157895E+00 -0.3157895E+00  0.4166667E-02
    1       -5.501020   1.000000
    2        2.191110   1.000000
    3        7.144957   1.000000
    4        7.144957   1.000000
    5       13.551832   0.000000
    6       15.576393   0.000000
    7       15.576393   0.000000
    8       17.670916   0.000000
 
 -0.3421053E+00 -0.3421053E+00 -0.3421053E+00  0.4166667E-02
    1       -5.207563   1.000000
    2        1.628666   1.000000
    3        7.080293   1.000000
    4        7.080293   1.000000
    5       13.470429   0.000000
    6       15.476778   0.000000
    7       15.476778   0.000000
    8       17.784022   0.000000
 
 -0.3684211E+00 -0.3684211E+00 -0.3684211E+00  0.4166667E-02
    1       -4.905811   1.000000
    2        1.095765   1.000000
    3        7.024297   1.000000
    4        7.024297   1.000000
    5       13.400903   0.000000
    6       15.377877   0.000000
    7       15.377877   0.000000
    8       17.854041   0.000000
 
 -0.3947368E+00 -0.3947368E+00 -0.3947368E+00  0.4166667E-02
    1       -4.604733   1.000000
    2        0.603377   1.000000
    3        6.977679   1.000000
    4        6.977679   1.000000
    5       13.343764   0.000000
    6       15.287730   0.000000
    7       15.287730   0.000000
    8       17.892120   0.000000
 
 -0.4210526E+00 -0.4210526E+00 -0.4210526E+00  0.4166667E-02
    1       -4.319086   1.000000
    2        0.167566   1.000000
    3        6.940952   1.000000
    4        6.940952   1.000000
    5       13.299244   0.000000
    6       15.212266   0.000000
    7       15.212266   0.000000
    8       17.908989   0.000000
 
 -0.4473684E+00 -0.4473684E+00 -0.4473684E+00  0.4166667E-02
    1       -4.072258   1.000000
    2       -0.187213   1.000000
    3        6.914484   1.000000
    4        6.914484   1.000000
    5       13.267444   0.000000
    6       15.155662   0.000000
    7       15.155662   0.000000
    8       17.914013   0.000000
 
 -0.4736842E+00 -0.4736842E+00 -0.4736842E+00  0.4166667E-02
    1       -3.898331   1.000000
    2       -0.426186   1.000000
    3        6.898514   1.000000
    4        6.898514   1.000000
    5       13.248371   0.000000
    6       15.120670   0.000000
    7       15.120670   0.000000
    8       17.914236   0.000000
 
 -0.5000000E+00 -0.5000000E+00 -0.5000000E+00  0.4166667E-02
    1       -3.834482   1.000000
    2       -0.511749   1.000000
    3        6.893179   1.000000
    4        6.893179   1.000000
    5       13.242017   0.000000
    6       15.108844   0.000000
    7       15.108844   0.000000
    8       17.913862   0.000000
 
 -0.5000000E+00 -0.5000000E+00 -0.5000000E+00  0.4166667E-02
    1       -3.834482   1.000000
    2       -0.511749   1.000000
    3        6.893179   1.000000
    4        6.893179   1.000000
    5       13.242017   0.000000
    6       15.108844   0.000000
    7       15.108844   0.000000
    8       17.913862   0.000000
 
 -0.5000000E+00 -0.4868421E+00 -0.5131579E+00  0.4166667E-02
    1       -3.826982   1.000000
    2       -0.503600   1.000000
    3        6.844502   1.000000
    4        6.880511   1.000000
    5       13.275514   0.000000
    6       15.061732   0.000000
    7       15.137931   0.000000
    8       17.969882   0.000000
 
 -0.5000000E+00 -0.4736842E+00 -0.5263158E+00  0.4166667E-02
    1       -3.804510   1.000000
    2       -0.479203   1.000000
    3        6.703811   1.000000
    4        6.842309   1.000000
    5       13.364796   0.000000
    6       14.939389   0.000000
    7       15.228069   0.000000
    8       18.119667   0.000000
 
 -0.5000000E+00 -0.4605263E+00 -0.5394737E+00  0.4166667E-02
    1       -3.767198   1.000000
    2       -0.438699   1.000000
    3        6.484966   1.000000
    4        6.778024   1.000000
    5       13.477752   0.000000
    6       14.787039   0.000000
    7       15.386850   0.000000
    8       18.321924   0.000000
 
 -0.5000000E+00 -0.4473684E+00 -0.5526316E+00  0.4166667E-02
    1       -3.715305   1.000000
    2       -0.382351   1.000000
    3        6.205718   1.000000
    4        6.686922   1.000000
    5       13.566110   0.000000
    6       14.659608   0.000000
    7       15.622763   0.000000
    8       18.533113   0.000000
 
 -0.5000000E+00 -0.4342105E+00 -0.5657895E+00  0.4166667E-02
    1       -3.649195   1.000000
    2       -0.310561   1.000000
    3        5.883637   1.000000
    4        6.568339   1.000000
    5       13.582224   0.000000
    6       14.607507   0.000000
    7       15.938780   0.000000
    8       18.717236   0.000000
 
 -0.5000000E+00 -0.4210526E+00 -0.5789474E+00  0.4166667E-02
    1       -3.569368   1.000000
    2       -0.223921   1.000000
    3        5.534053   1.000000
    4        6.421990   1.000000
    5       13.518229   0.000000
    6       14.644428   0.000000
    7       16.327702   0.000000
    8       18.848233   0.000000
 
 -0.5000000E+00 -0.4078947E+00 -0.5921053E+00  0.4166667E-02
    1       -3.476465   1.000000
    2       -0.123203   1.000000
    3        5.169616   1.000000
    4        6.248268   1.000000
    5       13.411088   0.000000
    6       14.743157   0.000000
    7       16.773441   0.000000
    8       18.912120   0.000000
 
 -0.5000000E+00 -0.3947368E+00 -0.6052632E+00  0.4166667E-02
    1       -3.371393   1.000000
    2       -0.009536   1.000000
    3        4.800671   1.000000
    4        6.048440   1.000000
    5       13.298056   0.000000
    6       14.876278   0.000000
    7       17.254083   0.000000
    8       18.908200   0.000000
 
 -0.5000000E+00 -0.3815789E+00 -0.6184211E+00  0.4166667E-02
    1       -3.255291   1.000000
    2        0.115492   1.000000
    3        4.436037   1.000000
    4        5.824732   1.000000
    5       13.199417   0.000000
    6       15.030624   0.000000
    7       17.739458   0.000000
    8       18.852048   0.000000
 
 -0.5000000E+00 -0.3684211E+00 -0.6315789E+00  0.4166667E-02
    1       -3.129669   1.000000
    2        0.249598   1.000000
    3        4.083782   1.000000
    4        5.580245   1.000000
    5       13.123652   0.000000
    6       15.201301   0.000000
    7       18.162011   0.000000
    8       18.796709   0.000000
 
 -0.5000000E+00 -0.3552632E+00 -0.6447368E+00  0.4166667E-02
    1       -2.996489   1.000000
    2        0.389449   1.000000
    3        3.752162   1.000000
    4        5.318816   1.000000
    5       13.072890   0.000000
    6       15.386684   0.000000
    7       18.320564   0.000000
    8       18.911864   0.000000
 
 -0.5000000E+00 -0.3421053E+00 -0.6578947E+00  0.4166667E-02
    1       -2.858348   1.000000
    2        0.530073   1.000000
    3        3.450522   1.000000
    4        5.044769   1.000000
    5       13.045734   0.000000
    6       15.586199   0.000000
    7       18.216238   0.000000
    8       19.116080   0.000000
 
 -0.5000000E+00 -0.3289474E+00 -0.6710526E+00  0.4166667E-02
    1       -2.718672   1.000000
    2        0.664175   1.000000
    3        3.190392   1.000000
    4        4.762738   1.000000
    5       13.038702   0.000000
    6       15.799575   0.000000
    7       18.047148   0.000000
    8       19.118795   0.000000
 
 -0.5000000E+00 -0.3157895E+00 -0.6842105E+00  0.4166667E-02
    1       -2.581880   1.000000
    2        0.781703   1.000000
    3        2.986204   1.000000
    4        4.477588   1.000000
    5       13.047094   0.000000
    6       16.026445   0.000000
    7       17.870077   0.000000
    8       18.927931   0.000000
 
 -0.5000000E+00 -0.3026316E+00 -0.6973684E+00  0.4166667E-02
    1       -2.453674   1.000000
    2        0.871010   1.000000
    3        2.854115   1.000000
    4        4.194500   1.000000
    5       13.065405   0.000000
    6       16.266167   0.000000
    7       17.704805   0.000000
    8       18.653275   0.000000
 
 -0.5000000E+00 -0.2894737E+00 -0.7105263E+00  0.4166667E-02
    1       -2.341061   1.000000
    2        0.924080   1.000000
    3        2.806482   1.000000
    4        3.919425   1.000000
    5       13.087853   0.000000
    6       16.517414   0.000000
    7       17.562923   0.000000
    8       18.352968   0.000000
 
 -0.5000000E+00 -0.2763158E+00 -0.7236842E+00  0.4166667E-02
    1       -2.252061   1.000000
    2        0.943877   1.000000
    3        2.842741   1.000000
    4        3.660433   1.000000
    5       13.108838   0.000000
    6       16.777091   0.000000
    7       17.451441   0.000000
    8       18.053610   0.000000
 
 -0.5000000E+00 -0.2631579E+00 -0.7368421E+00  0.4166667E-02
    1       -2.194551   1.000000
    2        0.944859   1.000000
    3        2.941676   1.000000
    4        3.434000   1.000000
    5       13.123596   0.000000
    6       17.035620   0.000000
    7       17.367359   0.000000
    8       17.783363   0.000000
 
 -0.5000000E+00 -0.2500000E+00 -0.7500000E+00  0.4166667E-02
    1       -2.174612   1.000000
    2        0.942959   1.000000
    3        3.021536   1.000000
    4        3.312982   1.000000
    5       13.128899   0.000000
    6       17.242390   0.000000
    7       17.266735   0.000000
    8       17.644437   0.000000
 
 -0.5000000E+00 -0.2500000E+00 -0.7500000E+00  0.4166667E-02
    1       -2.174612   1.000000
    2        0.942959   1.000000
    3        3.021536   1.000000
    4        3.312982   1.000000
    5       13.128899   0.000000
    6       17.242390   0.000000
    7       17.266735   0.000000
    8       17.644437   0.000000
 
 -0.5000000E+00 -0.2368421E+00 -0.7368421E+00  0.4166667E-02
    1       -2.176289   1.000000
    2        0.934722   1.000000
    3        3.035336   1.000000
    4        3.320823   1.000000
    5       13.087508   0.000000
    6       16.986884   0.000000
    7       17.312618   0.000000
    8       17.902091   0.000000
 
 -0.5000000E+00 -0.2236842E+00 -0.7236842E+00  0.4166667E-02
    1       -2.181263   1.000000
    2        0.910785   1.000000
    3        3.075885   1.000000
    4        3.344231   1.000000
    5       12.968861   0.000000
    6       16.603131   0.000000
    7       17.444664   0.000000
    8       18.292133   0.000000
 
 -0.5000000E+00 -0.2105263E+00 -0.7105263E+00  0.4166667E-02
    1       -2.189368   1.000000
    2        0.873254   1.000000
    3        3.140853   1.000000
    4        3.382862   1.000000
    5       12.786732   0.000000
    6       16.210781   0.000000
    7       17.648861   0.000000
    8       18.694375   0.000000
 
 -0.5000000E+00 -0.1973684E+00 -0.6973684E+00  0.4166667E-02
    1       -2.200311   1.000000
    2        0.825035   1.000000
    3        3.226956   1.000000
    4        3.436151   1.000000
    5       12.557597   0.000000
    6       15.821960   0.000000
    7       17.908306   0.000000
    8       19.095829   0.000000
 
 -0.5000000E+00 -0.1842105E+00 -0.6842105E+00  0.4166667E-02
    1       -2.213690   1.000000
    2        0.769264   1.000000
    3        3.330537   1.000000
    4        3.503309   1.000000
    5       12.296485   0.000000
    6       15.440668   0.000000
    7       18.207464   0.000000
    8       19.491479   0.000000
 
 -0.5000000E+00 -0.1710526E+00 -0.6710526E+00  0.4166667E-02
    1       -2.229092   1.000000
    2        0.708862   1.000000
    3        3.447927   1.000000
    4        3.583308   1.000000
    5       12.015451   0.000000
    6       15.069355   0.000000
    7       18.533459   0.000000
    8       19.877280   0.000000
 
 -0.5000000E+00 -0.1578947E+00 -0.6578947E+00  0.4166667E-02
    1       -2.246030   1.000000
    2        0.646332   1.000000
    3        3.575658   1.000000
    4        3.674904   1.000000
    5       11.723763   0.000000
    6       14.710100   0.000000
    7       18.876049   0.000000
    8       20.249148   0.000000
 
 -0.5000000E+00 -0.1447368E+00 -0.6447368E+00  0.4166667E-02
    1       -2.263996   1.000000
    2        0.583764   1.000000
    3        3.710482   1.000000
    4        3.776602   1.000000
    5       11.428524   0.000000
    6       14.364927   0.000000
    7       19.226923   0.000000
    8       20.602926   0.000000
 
 -0.5000000E+00 -0.1315789E+00 -0.6315789E+00  0.4166667E-02
    1       -2.282429   1.000000
    2        0.522874   1.000000
    3        3.849324   1.000000
    4        3.886659   1.000000
    5       11.135426   0.000000
    6       14.035984   0.000000
    7       19.579074   0.000000
    8       20.934600   0.000000
 
 -0.5000000E+00 -0.1184211E+00 -0.6184211E+00  0.4166667E-02
    1       -2.300832   1.000000
    2        0.464971   1.000000
    3        3.989174   1.000000
    4        4.002992   1.000000
    5       10.849230   0.000000
    6       13.725501   0.000000
    7       19.926114   0.000000
    8       21.241001   0.000000
 
 -0.5000000E+00 -0.1052632E+00 -0.6052632E+00  0.4166667E-02
    1       -2.318711   1.000000
    2        0.411098   1.000000
    3        4.123168   1.000000
    4        4.127029   1.000000
    5       10.574244   0.000000
    6       13.435921   0.000000
    7       20.261920   0.000000
    8       21.520483   0.000000
 
 -0.5000000E+00 -0.9210526E-01 -0.5921053E+00  0.4166667E-02
    1       -2.335610   1.000000
    2        0.362074   1.000000
    3        4.244320   1.000000
    4        4.259822   1.000000
    5       10.314638   0.000000
    6       13.169900   0.000000
    7       20.580407   0.000000
    8       21.751324   0.000000
 
 -0.5000000E+00 -0.7894737E-01 -0.5789474E+00  0.4166667E-02
    1       -2.351112   1.000000
    2        0.318537   1.000000
    3        4.363079   1.000000
    4        4.384387   1.000000
    5       10.074687   0.000000
    6       12.930305   0.000000
    7       20.875440   0.000000
    8       21.836682   0.000000
 
 -0.5000000E+00 -0.6578947E-01 -0.5657895E+00  0.4166667E-02
    1       -2.364886   1.000000
    2        0.280961   1.000000
    3        4.475533   1.000000
    4        4.497460   1.000000
    5        9.858917   0.000000
    6       12.720150   0.000000
    7       21.140442   0.000000
    8       21.835749   0.000000
 
 -0.5000000E+00 -0.5263158E-01 -0.5526316E+00  0.4166667E-02
    1       -2.376567   1.000000
    2        0.249758   1.000000
    3        4.577272   1.000000
    4        4.595790   1.000000
    5        9.672190   0.000000
    6       12.542554   0.000000
    7       21.369235   0.000000
    8       21.821619   0.000000
 
 -0.5000000E+00 -0.3947368E-01 -0.5394737E+00  0.4166667E-02
    1       -2.385920   1.000000
    2        0.225224   1.000000
    3        4.663532   1.000000
    4        4.676249   1.000000
    5        9.519580   0.000000
    6       12.400547   0.000000
    7       21.554142   0.000000
    8       21.815999   0.000000
 
 -0.5000000E+00 -0.2631579E-01 -0.5263158E+00  0.4166667E-02
    1       -2.392740   1.000000
    2        0.207559   1.000000
    3        4.729548   1.000000
    4        4.736031   1.000000
    5        9.406050   0.000000
    6       12.296856   0.000000
    7       21.693983   0.000000
    8       21.810272   0.000000
 
 -0.5000000E+00 -0.1315789E-01 -0.5131579E+00  0.4166667E-02
    1       -2.396903   1.000000
    2        0.196900   1.000000
    3        4.771115   1.000000
    4        4.772875   1.000000
    5        9.335917   0.000000
    6       12.233677   0.000000
    7       21.775847   0.000000
    8       21.813357   0.000000
 
 -0.5000000E+00  0.0000000E+00 -0.5000000E+00  0.4166667E-02
    1       -2.398310   1.000000
    2        0.193332   1.000000
    3        4.785322   1.000000
    4        4.785322   1.000000
    5        9.312179   0.000000
    6       12.212447   0.000000
    7       21.803739   0.000000
    8       21.813766   0.000000
