       N       E                     dE             d eps       ncg     rms          rms(c)
DAV:   1     0.668297574609E+01    0.66830E+01   -0.41150E+03  3840   0.897E+02
DAV:   2    -0.131909037125E+02   -0.19874E+02   -0.18618E+02  5912   0.957E+01
DAV:   3    -0.135067037188E+02   -0.31580E+00   -0.31580E+00  4512   0.152E+01
DAV:   4    -0.135076469413E+02   -0.94322E-03   -0.94322E-03  6280   0.888E-01
DAV:   5    -0.135076479970E+02   -0.10557E-05   -0.10557E-05  4352   0.174E-02
DAV:   6    -0.135076480069E+02   -0.99100E-08   -0.99064E-08  6032   0.111E-03
   1 F= -.13507648E+02 E0= -.13507648E+02  d E =-.223032E-12
