 vasp.5.4.4.18Apr17-6-g9f103f2a35 (build May 27 2024 22:40:15) complex          
  
 executed on             LinuxIFC date 2024.10.25  20:57:00
 running on    4 total cores
 distrk:  each k-point on    4 cores,    1 groups
 distr:  one band on NCORES_PER_BAND=   1 cores,    4 groups


--------------------------------------------------------------------------------------------------------


 INCAR:
 POTCAR:    PAW_PBE Si 05Jan2001                  
 POTCAR:    PAW_PBE C 08Apr2002                   
 POTCAR:    PAW_PBE Si 05Jan2001                  
   VRHFIN =Si: s2p2                                                             
   LEXCH  = PE                                                                  
   EATOM  =   103.0669 eV,    7.5752 Ry                                         
                                                                                
   TITEL  = PAW_PBE Si 05Jan2001                                                
   LULTRA =        F    use ultrasoft PP ?                                      
   IUNSCR =        1    unscreen: 0-lin 1-nonlin 2-no                           
   RPACOR =    1.500    partial core radius                                     
   POMASS =   28.085; ZVAL   =    4.000    mass and valenz                      
   RCORE  =    1.900    outmost cutoff radius                                   
   RWIGS  =    2.480; RWIGS  =    1.312    wigner-seitz radius (au A)           
   ENMAX  =  245.345; ENMIN  =  184.009 eV                                      
   ICORE  =        2    local potential                                         
   LCOR   =        T    correct aug charges                                     
   LPAW   =        T    paw PP                                                  
   EAUG   =  322.069                                                            
   DEXC   =    0.000                                                            
   RMAX   =    1.950    core radius for proj-oper                               
   RAUG   =    1.300    factor for augmentation sphere                          
   RDEP   =    1.993    radius for radial grids                                 
   RDEPT  =    1.837    core radius for aug-charge                              
                                                                                
   Atomic configuration                                                         
    6 entries                                                                   
     n  l   j            E        occ.                                          
     1  0  0.50     -1785.8828   2.0000                                         
     2  0  0.50      -139.4969   2.0000                                         
     2  1  1.50       -95.5546   6.0000                                         
     3  0  0.50       -10.8127   2.0000                                         
     3  1  0.50        -4.0811   2.0000                                         
     3  2  1.50        -4.0817   0.0000                                         
   Description                                                                  
     l       E           TYP  RCUT    TYP  RCUT                                 
     0    -10.8127223     23  1.900                                             
     0     -7.6451159     23  1.900                                             
     1     -4.0811372     23  1.900                                             
     1      2.4879257     23  1.900                                             
     2     -4.0817478      7  1.900                                             
  local pseudopotential read in
  partial core-charges read in
  partial kinetic energy density read in
  atomic valenz-charges read in
  non local Contribution for L=           0  read in
    real space projection operators read in
  non local Contribution for L=           0  read in
    real space projection operators read in
  non local Contribution for L=           1  read in
    real space projection operators read in
  non local Contribution for L=           1  read in
    real space projection operators read in
    PAW grid and wavefunctions read in
 
   number of l-projection  operators is LMAX  =           4
   number of lm-projection operators is LMMAX =           8
 
 POTCAR:    PAW_PBE C 08Apr2002                   
   VRHFIN =C: s2p2                                                              
   LEXCH  = PE                                                                  
   EATOM  =   147.1560 eV,   10.8157 Ry                                         
                                                                                
   TITEL  = PAW_PBE C 08Apr2002                                                 
   LULTRA =        F    use ultrasoft PP ?                                      
   IUNSCR =        1    unscreen: 0-lin 1-nonlin 2-no                           
   RPACOR =    1.200    partial core radius                                     
   POMASS =   12.011; ZVAL   =    4.000    mass and valenz                      
   RCORE  =    1.500    outmost cutoff radius                                   
   RWIGS  =    1.630; RWIGS  =    0.863    wigner-seitz radius (au A)           
   ENMAX  =  400.000; ENMIN  =  300.000 eV                                      
   ICORE  =        2    local potential                                         
   LCOR   =        T    correct aug charges                                     
   LPAW   =        T    paw PP                                                  
   EAUG   =  644.873                                                            
   DEXC   =    0.000                                                            
   RMAX   =    1.529    core radius for proj-oper                               
   RAUG   =    1.300    factor for augmentation sphere                          
   RDEP   =    1.501    radius for radial grids                                 
   RDEPT  =    1.300    core radius for aug-charge                              
                                                                                
   Atomic configuration                                                         
    4 entries                                                                   
     n  l   j            E        occ.                                          
     1  0  0.50      -273.3789   2.0000                                         
     2  0  0.50       -13.7508   2.0000                                         
     2  1  0.50        -5.2854   2.0000                                         
     3  2  1.50        -5.4423   0.0000                                         
   Description                                                                  
     l       E           TYP  RCUT    TYP  RCUT                                 
     0    -13.7508458     23  1.200                                             
     0     -8.2022199     23  1.200                                             
     1     -5.2854383     23  1.500                                             
     1     34.0145650     23  1.500                                             
     2     -5.4423304      7  1.500                                             
  local pseudopotential read in
  partial core-charges read in
  partial kinetic energy density read in
  atomic valenz-charges read in
  non local Contribution for L=           0  read in
    real space projection operators read in
  non local Contribution for L=           0  read in
    real space projection operators read in
  non local Contribution for L=           1  read in
    real space projection operators read in
  non local Contribution for L=           1  read in
    real space projection operators read in
    PAW grid and wavefunctions read in
 
   number of l-projection  operators is LMAX  =           4
   number of lm-projection operators is LMMAX =           8
 
  PAW_PBE Si 05Jan2001                  :
 energy of atom  1       EATOM= -103.0669
 kinetic energy error for atom=    0.0005 (will be added to EATOM!!)
  PAW_PBE C 08Apr2002                   :
 energy of atom  2       EATOM= -147.1560
 kinetic energy error for atom=    0.0071 (will be added to EATOM!!)
 
 
 POSCAR: Si4 C4                                  
  positions in direct lattice
  velocities in cartesian coordinates
 exchange correlation table for  LEXCH =        8
   RHO(1)=    0.500       N(1)  =     2000
   RHO(2)=  100.500       N(2)  =     4000
 


--------------------------------------------------------------------------------------------------------


 ion  position               nearest neighbor table
   1  0.250  0.250  0.250-   2 1.90   2 1.90   2 1.90   2 1.90
   2  0.000  0.000  0.000-   1 1.90   1 1.90   1 1.90   1 1.90
 
  LATTYP: Found a face centered cubic cell.
 ALAT       =     4.3795600000
  
  Lattice vectors:
  
 A1 = (   0.0000000000,   2.1897800000,   2.1897800000)
 A2 = (   2.1897800000,   0.0000000000,   2.1897800000)
 A3 = (   2.1897800000,   2.1897800000,   0.0000000000)


Analysis of symmetry for initial positions (statically):
=====================================================================
 Subroutine PRICEL returns:
 Original cell was already a primitive cell.
 

 Routine SETGRP: Setting up the symmetry group for a 
 face centered cubic supercell.


 Subroutine GETGRP returns: Found 24 space group operations
 (whereof 24 operations were pure point group operations)
 out of a pool of 48 trial point group operations.


The static configuration has the point symmetry T_d .


Analysis of symmetry for dynamics (positions and initial velocities):
=====================================================================
 Subroutine PRICEL returns:
 Original cell was already a primitive cell.
 

 Routine SETGRP: Setting up the symmetry group for a 
 face centered cubic supercell.


 Subroutine GETGRP returns: Found 24 space group operations
 (whereof 24 operations were pure point group operations)
 out of a pool of 48 trial point group operations.


The dynamic configuration has the point symmetry T_d .


 Subroutine INISYM returns: Found 24 space group operations
 (whereof 24 operations are pure point group operations),
 and found     1 'primitive' translations

 
 
 KPOINTS: K-Path Generated by VASPMATE            
  interpolating k-points between supplied coordinates
  k-points in reciprocal lattice
Space group operators:
 irot       det(A)        alpha          n_x          n_y          n_z        tau_x        tau_y        tau_z
    1     1.000000     0.000000     1.000000     0.000000     0.000000     0.000000     0.000000     0.000000
    2     1.000000   120.000000    -0.577350    -0.577350    -0.577350     0.000000     0.000000     0.000000
    3     1.000000   120.000000     0.577350     0.577350     0.577350     0.000000     0.000000     0.000000
    4    -1.000000    90.000000     0.000000     0.000000    -1.000000     0.000000     0.000000     0.000000
    5    -1.000000   180.000000     0.000000     0.707107     0.707107     0.000000     0.000000     0.000000
    6    -1.000000    90.000000     0.000000     1.000000     0.000000     0.000000     0.000000     0.000000
    7     1.000000   179.999999     0.000000     0.000000     1.000000     0.000000     0.000000     0.000000
    8     1.000000   120.000000    -0.577350     0.577350     0.577350     0.000000     0.000000     0.000000
    9     1.000000   120.000000    -0.577350     0.577350    -0.577350     0.000000     0.000000     0.000000
   10    -1.000000    90.000000     0.000000     0.000000     1.000000     0.000000     0.000000     0.000000
   11    -1.000000    90.000000    -1.000000     0.000000     0.000000     0.000000     0.000000     0.000000
   12    -1.000000   180.000000     0.707107     0.000000     0.707107     0.000000     0.000000     0.000000
   13     1.000000   120.000000     0.577350    -0.577350     0.577350     0.000000     0.000000     0.000000
   14     1.000000   120.000000    -0.577350    -0.577350     0.577350     0.000000     0.000000     0.000000
   15     1.000000   180.000000     1.000000     0.000000     0.000000     0.000000     0.000000     0.000000
   16    -1.000000    90.000000     0.000000    -1.000000     0.000000     0.000000     0.000000     0.000000
   17    -1.000000   180.000000     0.707107     0.707107     0.000000     0.000000     0.000000     0.000000
   18    -1.000000    90.000000     1.000000     0.000000     0.000000     0.000000     0.000000     0.000000
   19     1.000000   120.000000     0.577350    -0.577350    -0.577350     0.000000     0.000000     0.000000
   20     1.000000   180.000000     0.000000     1.000000     0.000000     0.000000     0.000000     0.000000
   21     1.000000   120.000000     0.577350     0.577350    -0.577350     0.000000     0.000000     0.000000
   22    -1.000000   180.000000     0.000000    -0.707107     0.707107     0.000000     0.000000     0.000000
   23    -1.000000   180.000000     0.707107    -0.707107     0.000000     0.000000     0.000000     0.000000
   24    -1.000000   180.000000     0.707107     0.000000    -0.707107     0.000000     0.000000     0.000000


--------------------------------------------------------------------------------------------------------




 Dimension of arrays:
   k-points           NKPTS =    240   k-points in BZ     NKDIM =    240   number of bands    NBANDS=      8
   number of dos      NEDOS =    301   number of ions     NIONS =      2
   non local maximal  LDIM  =      4   non local SUM 2l+1 LMDIM =      8
   total plane-waves  NPLWV =  13824
   max r-space proj   IRMAX =      1   max aug-charges    IRDMAX= 176252
   dimension x,y,z NGX =    24 NGY =   24 NGZ =   24
   dimension x,y,z NGXF=    48 NGYF=   48 NGZF=   48
   support grid    NGXF=    96 NGYF=   96 NGZF=   96
   ions per type =               1   1
   NGX,Y,Z   is equivalent  to a cutoff of  12.88, 12.88, 12.88 a.u.
   NGXF,Y,Z  is equivalent  to a cutoff of  25.77, 25.77, 25.77 a.u.

 SYSTEM =  unknown system                          
 POSCAR =  Si4 C4                                  

 Startparameter for this run:
   NWRITE =      2    write-flag & timer
   PREC   = accura    normal or accurate (medium, high low for compatibility)
   ISTART =      0    job   : 0-new  1-cont  2-samecut
   ICHARG =     11    charge: 1-file 2-atom 10-const
   ISPIN  =      1    spin polarized calculation?
   LNONCOLLINEAR =      F non collinear calculations
   LSORBIT =      F    spin-orbit coupling
   INIWAV =      1    electr: 0-lowe 1-rand  2-diag
   LASPH  =      F    aspherical Exc in radial PAW
   METAGGA=      F    non-selfconsistent MetaGGA calc.

 Electronic Relaxation 1
   ENCUT  =  520.0 eV  38.22 Ry    6.18 a.u.   5.76  5.76  5.76*2*pi/ulx,y,z
   ENINI  =  520.0     initial cutoff
   ENAUG  =  644.9 eV  augmentation charge cutoff
   NELM   =     60;   NELMIN=  2; NELMDL=  0     # of ELM steps 
   EDIFF  = 0.1E-05   stopping-criterion for ELM
   LREAL  =      F    real-space projection
   NLSPLINE    = F    spline interpolate recip. space projectors
   LCOMPAT=      F    compatible to vasp.4.4
   GGA_COMPAT  = T    GGA compatible to vasp.4.4-vasp.4.6
   LMAXPAW     = -100 max onsite density
   LMAXMIX     =    2 max onsite mixed and CHGCAR
   VOSKOWN=      0    Vosko Wilk Nusair interpolation
   ROPT   =    0.00000   0.00000
 Ionic relaxation
   EDIFFG = -.2E-01   stopping-criterion for IOM
   NSW    =      0    number of steps for IOM
   NBLOCK =      1;   KBLOCK =      1    inner block; outer block 
   IBRION =     -1    ionic relax: 0-MD 1-quasi-New 2-CG
   NFREE  =      0    steps in history (QN), initial steepest desc. (CG)
   ISIF   =      2    stress and relaxation
   IWAVPR =     10    prediction:  0-non 1-charg 2-wave 3-comb
   ISYM   =      2    0-nonsym 1-usesym 2-fastsym
   LCORR  =      T    Harris-Foulkes like correction to forces

   POTIM  = 0.5000    time-step for ionic-motion
   TEIN   =    0.0    initial temperature
   TEBEG  =    0.0;   TEEND  =   0.0 temperature during run
   SMASS  =  -3.00    Nose mass-parameter (am)
   estimated Nose-frequenzy (Omega)   =  0.10E-29 period in steps =****** mass=  -0.219E-27a.u.
   SCALEE = 1.0000    scale energy and forces
   NPACO  =    256;   APACO  = 16.0  distance and # of slots for P.C.
   PSTRESS=    0.0 pullay stress

  Mass of Ions in am
   POMASS =  28.09 12.01
  Ionic Valenz
   ZVAL   =   4.00  4.00
  Atomic Wigner-Seitz radii
   RWIGS  =  -1.00 -1.00
  virtual crystal weights 
   VCA    =   1.00  1.00
   NELECT =       8.0000    total number of electrons
   NUPDOWN=      -1.0000    fix difference up-down

 DOS related values:
   EMIN   =  10.00;   EMAX   =-10.00  energy-range for DOS
   EFERMI =   0.00
   ISMEAR =     0;   SIGMA  =   0.10  broadening in eV -4-tet -1-fermi 0-gaus

 Electronic relaxation 2 (details)
   IALGO  =     38    algorithm
   LDIAG  =      T    sub-space diagonalisation (order eigenvalues)
   LSUBROT=      F    optimize rotation matrix (better conditioning)
   TURBO    =      0    0=normal 1=particle mesh
   IRESTART =      0    0=no restart 2=restart with 2 vectors
   NREBOOT  =      0    no. of reboots
   NMIN     =      0    reboot dimension
   EREF     =   0.00    reference energy to select bands
   IMIX   =      4    mixing-type and parameters
     AMIX     =   0.40;   BMIX     =  1.00
     AMIX_MAG =   1.60;   BMIX_MAG =  1.00
     AMIN     =   0.10
     WC   =   100.;   INIMIX=   1;  MIXPRE=   1;  MAXMIX= -45

 Intra band minimization:
   WEIMIN = 0.0000     energy-eigenvalue tresh-hold
   EBREAK =  0.31E-07  absolut break condition
   DEPER  =   0.30     relativ break condition  

   TIME   =   0.40     timestep for ELM

  volume/ion in A,a.u.               =      10.50        70.86
  Fermi-wavevector in a.u.,A,eV,Ry     =   1.186755  2.242641 19.162269  1.408387
  Thomas-Fermi vector in A             =   2.322921
 
 Write flags
   LWAVE        =      T    write WAVECAR
   LDOWNSAMPLE  =      F    k-point downsampling of WAVECAR
   LCHARG       =      T    write CHGCAR
   LVTOT        =      F    write LOCPOT, total local potential
   LVHAR        =      F    write LOCPOT, Hartree potential only
   LELF         =      F    write electronic localiz. function (ELF)
   LORBIT       =     11    0 simple, 1 ext, 2 COOP (PROOUT), +10 PAW based schemes


 Dipole corrections
   LMONO  =      F    monopole corrections only (constant potential shift)
   LDIPOL =      F    correct potential (dipole corrections)
   IDIPOL =      0    1-x, 2-y, 3-z, 4-all directions 
   EPSILON=  1.0000000 bulk dielectric constant

 Exchange correlation treatment:
   GGA     =    --    GGA type
   LEXCH   =     8    internal setting for exchange type
   VOSKOWN=      0    Vosko Wilk Nusair interpolation
   LHFCALC =     F    Hartree Fock is set to
   LHFONE  =     F    Hartree Fock one center treatment
   AEXX    =    0.0000 exact exchange contribution

 Linear response parameters
   LEPSILON=     F    determine dielectric tensor
   LRPA    =     F    only Hartree local field effects (RPA)
   LNABLA  =     F    use nabla operator in PAW spheres
   LVEL    =     F    velocity operator in full k-point grid
   LINTERFAST=   F  fast interpolation
   KINTER  =     0    interpolate to denser k-point grid
   CSHIFT  =0.1000    complex shift for real part using Kramers Kronig
   OMEGAMAX=  -1.0    maximum frequency
   DEG_THRESHOLD= 0.2000000E-02 threshold for treating states as degnerate
   RTIME   =   -0.100 relaxation time in fs
  (WPLASMAI=    0.000 imaginary part of plasma frequency in eV, 0.658/RTIME)
   DFIELD  = 0.0000000 0.0000000 0.0000000 field for delta impulse in time
 
 Orbital magnetization related:
   ORBITALMAG=     F  switch on orbital magnetization
   LCHIMAG   =     F  perturbation theory with respect to B field
   DQ        =  0.001000  dq finite difference perturbation B field
   LLRAUG    =     F  two centre corrections for induced B field



--------------------------------------------------------------------------------------------------------


 Static calculation
 charge density and potential remain constant during run
 non-spin polarized calculation
 Variant of blocked Davidson
 Davidson routine will perform the subspace rotation
 perform sub-space diagonalisation
    after iterative eigenvector-optimisation
 no mixing
 using additional bands            4
 reciprocal scheme for non local part
 use partial core corrections
 calculate Harris-corrections to forces 
   (improved forces if not selfconsistent)
 use gradient corrections 
 WARNING: stress and forces are not correct
  (second derivative of E(xc) not defined)
 use of overlap-Matrix (Vanderbilt PP)
 Gauss-broadening in eV      SIGMA  =   0.10


--------------------------------------------------------------------------------------------------------


  energy-cutoff  :      520.00
  volume of cell :       21.00
      direct lattice vectors                 reciprocal lattice vectors
     0.000000000  2.189780000  2.189780000    -0.228333440  0.228333440  0.228333440
     2.189780000  0.000000000  2.189780000     0.228333440 -0.228333440  0.228333440
     2.189780000  2.189780000  0.000000000     0.228333440  0.228333440 -0.228333440

  length of vectors
     3.096816575  3.096816575  3.096816575     0.395485119  0.395485119  0.395485119


 
 k-points in units of 2pi/SCALE and weight: K-Path Generated by VASPMATE            
   0.00000000  0.00000000  0.00000000       0.004
   0.00000000  0.01201755  0.00000000       0.004
   0.00000000  0.02403510  0.00000000       0.004
   0.00000000  0.03605265  0.00000000       0.004
   0.00000000  0.04807020  0.00000000       0.004
   0.00000000  0.06008775  0.00000000       0.004
   0.00000000  0.07210530  0.00000000       0.004
   0.00000000  0.08412285  0.00000000       0.004
   0.00000000  0.09614040  0.00000000       0.004
   0.00000000  0.10815795  0.00000000       0.004
   0.00000000  0.12017549  0.00000000       0.004
   0.00000000  0.13219304  0.00000000       0.004
   0.00000000  0.14421059  0.00000000       0.004
   0.00000000  0.15622814  0.00000000       0.004
   0.00000000  0.16824569  0.00000000       0.004
   0.00000000  0.18026324  0.00000000       0.004
   0.00000000  0.19228079  0.00000000       0.004
   0.00000000  0.20429834  0.00000000       0.004
   0.00000000  0.21631589  0.00000000       0.004
   0.00000000  0.22833344  0.00000000       0.004
   0.00000000  0.22833344  0.00000000       0.004
   0.00300439  0.22833344  0.00300439       0.004
   0.00600877  0.22833344  0.00600877       0.004
   0.00901316  0.22833344  0.00901316       0.004
   0.01201755  0.22833344  0.01201755       0.004
   0.01502194  0.22833344  0.01502194       0.004
   0.01802632  0.22833344  0.01802632       0.004
   0.02103071  0.22833344  0.02103071       0.004
   0.02403510  0.22833344  0.02403510       0.004
   0.02703949  0.22833344  0.02703949       0.004
   0.03004387  0.22833344  0.03004387       0.004
   0.03304826  0.22833344  0.03304826       0.004
   0.03605265  0.22833344  0.03605265       0.004
   0.03905704  0.22833344  0.03905704       0.004
   0.04206142  0.22833344  0.04206142       0.004
   0.04506581  0.22833344  0.04506581       0.004
   0.04807020  0.22833344  0.04807020       0.004
   0.05107459  0.22833344  0.05107459       0.004
   0.05407897  0.22833344  0.05407897       0.004
   0.05708336  0.22833344  0.05708336       0.004
   0.17125008  0.17125008  0.00000000       0.004
   0.16223692  0.16223692  0.00000000       0.004
   0.15322376  0.15322376  0.00000000       0.004
   0.14421059  0.14421059  0.00000000       0.004
   0.13519743  0.13519743  0.00000000       0.004
   0.12618427  0.12618427  0.00000000       0.004
   0.11717111  0.11717111  0.00000000       0.004
   0.10815795  0.10815795  0.00000000       0.004
   0.09914478  0.09914478  0.00000000       0.004
   0.09013162  0.09013162  0.00000000       0.004
   0.08111846  0.08111846  0.00000000       0.004
   0.07210530  0.07210530  0.00000000       0.004
   0.06309213  0.06309213  0.00000000       0.004
   0.05407897  0.05407897  0.00000000       0.004
   0.04506581  0.04506581  0.00000000       0.004
   0.03605265  0.03605265  0.00000000       0.004
   0.02703949  0.02703949  0.00000000       0.004
   0.01802632  0.01802632  0.00000000       0.004
   0.00901316  0.00901316  0.00000000       0.004
   0.00000000  0.00000000  0.00000000       0.004
   0.00000000  0.00000000  0.00000000       0.004
   0.00600877  0.00600877  0.00600877       0.004
   0.01201755  0.01201755  0.01201755       0.004
   0.01802632  0.01802632  0.01802632       0.004
   0.02403510  0.02403510  0.02403510       0.004
   0.03004387  0.03004387  0.03004387       0.004
   0.03605265  0.03605265  0.03605265       0.004
   0.04206142  0.04206142  0.04206142       0.004
   0.04807020  0.04807020  0.04807020       0.004
   0.05407897  0.05407897  0.05407897       0.004
   0.06008775  0.06008775  0.06008775       0.004
   0.06609652  0.06609652  0.06609652       0.004
   0.07210530  0.07210530  0.07210530       0.004
   0.07811407  0.07811407  0.07811407       0.004
   0.08412285  0.08412285  0.08412285       0.004
   0.09013162  0.09013162  0.09013162       0.004
   0.09614040  0.09614040  0.09614040       0.004
   0.10214917  0.10214917  0.10214917       0.004
   0.10815795  0.10815795  0.10815795       0.004
   0.11416672  0.11416672  0.11416672       0.004
   0.11416672  0.11416672  0.11416672       0.004
   0.11416672  0.12017549  0.10815795       0.004
   0.11416672  0.12618427  0.10214917       0.004
   0.11416672  0.13219304  0.09614040       0.004
   0.11416672  0.13820182  0.09013162       0.004
   0.11416672  0.14421059  0.08412285       0.004
   0.11416672  0.15021937  0.07811407       0.004
   0.11416672  0.15622814  0.07210530       0.004
   0.11416672  0.16223692  0.06609652       0.004
   0.11416672  0.16824569  0.06008775       0.004
   0.11416672  0.17425447  0.05407897       0.004
   0.11416672  0.18026324  0.04807020       0.004
   0.11416672  0.18627202  0.04206142       0.004
   0.11416672  0.19228079  0.03605265       0.004
   0.11416672  0.19828957  0.03004387       0.004
   0.11416672  0.20429834  0.02403510       0.004
   0.11416672  0.21030712  0.01802632       0.004
   0.11416672  0.21631589  0.01201755       0.004
   0.11416672  0.22232467  0.00600877       0.004
   0.11416672  0.22833344  0.00000000       0.004
   0.11416672  0.22833344  0.00000000       0.004
   0.10815795  0.22833344  0.00000000       0.004
   0.10214917  0.22833344 -0.00000000       0.004
   0.09614040  0.22833344  0.00000000       0.004
   0.09013162  0.22833344  0.00000000       0.004
   0.08412285  0.22833344 -0.00000000       0.004
   0.07811407  0.22833344  0.00000000       0.004
   0.07210530  0.22833344  0.00000000       0.004
   0.06609652  0.22833344 -0.00000000       0.004
   0.06008775  0.22833344  0.00000000       0.004
   0.05407897  0.22833344  0.00000000       0.004
   0.04807020  0.22833344  0.00000000       0.004
   0.04206142  0.22833344  0.00000000       0.004
   0.03605265  0.22833344  0.00000000       0.004
   0.03004387  0.22833344  0.00000000       0.004
   0.02403510  0.22833344  0.00000000       0.004
   0.01802632  0.22833344  0.00000000       0.004
   0.01201755  0.22833344 -0.00000000       0.004
   0.00600877  0.22833344  0.00000000       0.004
   0.00000000  0.22833344  0.00000000       0.004
   0.00000000  0.00000000  0.00000000       0.004
   0.00000000 -0.01201755  0.00000000       0.004
   0.00000000 -0.02403510  0.00000000       0.004
   0.00000000 -0.03605265  0.00000000       0.004
   0.00000000 -0.04807020  0.00000000       0.004
   0.00000000 -0.06008775  0.00000000       0.004
   0.00000000 -0.07210530  0.00000000       0.004
   0.00000000 -0.08412285  0.00000000       0.004
   0.00000000 -0.09614040  0.00000000       0.004
   0.00000000 -0.10815795  0.00000000       0.004
   0.00000000 -0.12017549  0.00000000       0.004
   0.00000000 -0.13219304  0.00000000       0.004
   0.00000000 -0.14421059  0.00000000       0.004
   0.00000000 -0.15622814  0.00000000       0.004
   0.00000000 -0.16824569  0.00000000       0.004
   0.00000000 -0.18026324  0.00000000       0.004
   0.00000000 -0.19228079  0.00000000       0.004
   0.00000000 -0.20429834  0.00000000       0.004
   0.00000000 -0.21631589  0.00000000       0.004
   0.00000000 -0.22833344  0.00000000       0.004
   0.00000000 -0.22833344  0.00000000       0.004
  -0.00300439 -0.22833344 -0.00300439       0.004
  -0.00600877 -0.22833344 -0.00600877       0.004
  -0.00901316 -0.22833344 -0.00901316       0.004
  -0.01201755 -0.22833344 -0.01201755       0.004
  -0.01502194 -0.22833344 -0.01502194       0.004
  -0.01802632 -0.22833344 -0.01802632       0.004
  -0.02103071 -0.22833344 -0.02103071       0.004
  -0.02403510 -0.22833344 -0.02403510       0.004
  -0.02703949 -0.22833344 -0.02703949       0.004
  -0.03004387 -0.22833344 -0.03004387       0.004
  -0.03304826 -0.22833344 -0.03304826       0.004
  -0.03605265 -0.22833344 -0.03605265       0.004
  -0.03905704 -0.22833344 -0.03905704       0.004
  -0.04206142 -0.22833344 -0.04206142       0.004
  -0.04506581 -0.22833344 -0.04506581       0.004
  -0.04807020 -0.22833344 -0.04807020       0.004
  -0.05107459 -0.22833344 -0.05107459       0.004
  -0.05407897 -0.22833344 -0.05407897       0.004
  -0.05708336 -0.22833344 -0.05708336       0.004
  -0.17125008 -0.17125008  0.00000000       0.004
  -0.16223692 -0.16223692  0.00000000       0.004
  -0.15322376 -0.15322376  0.00000000       0.004
  -0.14421059 -0.14421059  0.00000000       0.004
  -0.13519743 -0.13519743  0.00000000       0.004
  -0.12618427 -0.12618427  0.00000000       0.004
  -0.11717111 -0.11717111  0.00000000       0.004
  -0.10815795 -0.10815795  0.00000000       0.004
  -0.09914478 -0.09914478  0.00000000       0.004
  -0.09013162 -0.09013162  0.00000000       0.004
  -0.08111846 -0.08111846  0.00000000       0.004
  -0.07210530 -0.07210530  0.00000000       0.004
  -0.06309213 -0.06309213  0.00000000       0.004
  -0.05407897 -0.05407897  0.00000000       0.004
  -0.04506581 -0.04506581  0.00000000       0.004
  -0.03605265 -0.03605265  0.00000000       0.004
  -0.02703949 -0.02703949  0.00000000       0.004
  -0.01802632 -0.01802632  0.00000000       0.004
  -0.00901316 -0.00901316  0.00000000       0.004
   0.00000000  0.00000000  0.00000000       0.004
   0.00000000  0.00000000  0.00000000       0.004
  -0.00600877 -0.00600877 -0.00600877       0.004
  -0.01201755 -0.01201755 -0.01201755       0.004
  -0.01802632 -0.01802632 -0.01802632       0.004
  -0.02403510 -0.02403510 -0.02403510       0.004
  -0.03004387 -0.03004387 -0.03004387       0.004
  -0.03605265 -0.03605265 -0.03605265       0.004
  -0.04206142 -0.04206142 -0.04206142       0.004
  -0.04807020 -0.04807020 -0.04807020       0.004
  -0.05407897 -0.05407897 -0.05407897       0.004
  -0.06008775 -0.06008775 -0.06008775       0.004
  -0.06609652 -0.06609652 -0.06609652       0.004
  -0.07210530 -0.07210530 -0.07210530       0.004
  -0.07811407 -0.07811407 -0.07811407       0.004
  -0.08412285 -0.08412285 -0.08412285       0.004
  -0.09013162 -0.09013162 -0.09013162       0.004
  -0.09614040 -0.09614040 -0.09614040       0.004
  -0.10214917 -0.10214917 -0.10214917       0.004
  -0.10815795 -0.10815795 -0.10815795       0.004
  -0.11416672 -0.11416672 -0.11416672       0.004
  -0.11416672 -0.11416672 -0.11416672       0.004
  -0.11416672 -0.12017549 -0.10815795       0.004
  -0.11416672 -0.12618427 -0.10214917       0.004
  -0.11416672 -0.13219304 -0.09614040       0.004
  -0.11416672 -0.13820182 -0.09013162       0.004
  -0.11416672 -0.14421059 -0.08412285       0.004
  -0.11416672 -0.15021937 -0.07811407       0.004
  -0.11416672 -0.15622814 -0.07210530       0.004
  -0.11416672 -0.16223692 -0.06609652       0.004
  -0.11416672 -0.16824569 -0.06008775       0.004
  -0.11416672 -0.17425447 -0.05407897       0.004
  -0.11416672 -0.18026324 -0.04807020       0.004
  -0.11416672 -0.18627202 -0.04206142       0.004
  -0.11416672 -0.19228079 -0.03605265       0.004
  -0.11416672 -0.19828957 -0.03004387       0.004
  -0.11416672 -0.20429834 -0.02403510       0.004
  -0.11416672 -0.21030712 -0.01802632       0.004
  -0.11416672 -0.21631589 -0.01201755       0.004
  -0.11416672 -0.22232467 -0.00600877       0.004
  -0.11416672 -0.22833344  0.00000000       0.004
  -0.11416672 -0.22833344  0.00000000       0.004
  -0.10815795 -0.22833344 -0.00000000       0.004
  -0.10214917 -0.22833344  0.00000000       0.004
  -0.09614040 -0.22833344  0.00000000       0.004
  -0.09013162 -0.22833344  0.00000000       0.004
  -0.08412285 -0.22833344  0.00000000       0.004
  -0.07811407 -0.22833344  0.00000000       0.004
  -0.07210530 -0.22833344  0.00000000       0.004
  -0.06609652 -0.22833344  0.00000000       0.004
  -0.06008775 -0.22833344  0.00000000       0.004
  -0.05407897 -0.22833344  0.00000000       0.004
  -0.04807020 -0.22833344  0.00000000       0.004
  -0.04206142 -0.22833344  0.00000000       0.004
  -0.03605265 -0.22833344  0.00000000       0.004
  -0.03004387 -0.22833344 -0.00000000       0.004
  -0.02403510 -0.22833344  0.00000000       0.004
  -0.01802632 -0.22833344  0.00000000       0.004
  -0.01201755 -0.22833344  0.00000000       0.004
  -0.00600877 -0.22833344  0.00000000       0.004
   0.00000000 -0.22833344  0.00000000       0.004
 
 k-points in reciprocal lattice and weights: K-Path Generated by VASPMATE            
   0.00000000  0.00000000  0.00000000       0.004
   0.02631579  0.00000000  0.02631579       0.004
   0.05263158  0.00000000  0.05263158       0.004
   0.07894737  0.00000000  0.07894737       0.004
   0.10526316  0.00000000  0.10526316       0.004
   0.13157895  0.00000000  0.13157895       0.004
   0.15789474  0.00000000  0.15789474       0.004
   0.18421053  0.00000000  0.18421053       0.004
   0.21052632  0.00000000  0.21052632       0.004
   0.23684211  0.00000000  0.23684211       0.004
   0.26315789  0.00000000  0.26315789       0.004
   0.28947368  0.00000000  0.28947368       0.004
   0.31578947  0.00000000  0.31578947       0.004
   0.34210526  0.00000000  0.34210526       0.004
   0.36842105  0.00000000  0.36842105       0.004
   0.39473684  0.00000000  0.39473684       0.004
   0.42105263  0.00000000  0.42105263       0.004
   0.44736842  0.00000000  0.44736842       0.004
   0.47368421  0.00000000  0.47368421       0.004
   0.50000000  0.00000000  0.50000000       0.004
   0.50000000  0.00000000  0.50000000       0.004
   0.50657895  0.01315789  0.50657895       0.004
   0.51315789  0.02631579  0.51315789       0.004
   0.51973684  0.03947368  0.51973684       0.004
   0.52631579  0.05263158  0.52631579       0.004
   0.53289474  0.06578947  0.53289474       0.004
   0.53947368  0.07894737  0.53947368       0.004
   0.54605263  0.09210526  0.54605263       0.004
   0.55263158  0.10526316  0.55263158       0.004
   0.55921053  0.11842105  0.55921053       0.004
   0.56578947  0.13157895  0.56578947       0.004
   0.57236842  0.14473684  0.57236842       0.004
   0.57894737  0.15789474  0.57894737       0.004
   0.58552632  0.17105263  0.58552632       0.004
   0.59210526  0.18421053  0.59210526       0.004
   0.59868421  0.19736842  0.59868421       0.004
   0.60526316  0.21052632  0.60526316       0.004
   0.61184211  0.22368421  0.61184211       0.004
   0.61842105  0.23684211  0.61842105       0.004
   0.62500000  0.25000000  0.62500000       0.004
   0.37500000  0.37500000  0.75000000       0.004
   0.35526316  0.35526316  0.71052632       0.004
   0.33552632  0.33552632  0.67105263       0.004
   0.31578947  0.31578947  0.63157895       0.004
   0.29605263  0.29605263  0.59210526       0.004
   0.27631579  0.27631579  0.55263158       0.004
   0.25657895  0.25657895  0.51315789       0.004
   0.23684211  0.23684211  0.47368421       0.004
   0.21710526  0.21710526  0.43421053       0.004
   0.19736842  0.19736842  0.39473684       0.004
   0.17763158  0.17763158  0.35526316       0.004
   0.15789474  0.15789474  0.31578947       0.004
   0.13815789  0.13815789  0.27631579       0.004
   0.11842105  0.11842105  0.23684211       0.004
   0.09868421  0.09868421  0.19736842       0.004
   0.07894737  0.07894737  0.15789474       0.004
   0.05921053  0.05921053  0.11842105       0.004
   0.03947368  0.03947368  0.07894737       0.004
   0.01973684  0.01973684  0.03947368       0.004
   0.00000000  0.00000000  0.00000000       0.004
   0.00000000  0.00000000  0.00000000       0.004
   0.02631579  0.02631579  0.02631579       0.004
   0.05263158  0.05263158  0.05263158       0.004
   0.07894737  0.07894737  0.07894737       0.004
   0.10526316  0.10526316  0.10526316       0.004
   0.13157895  0.13157895  0.13157895       0.004
   0.15789474  0.15789474  0.15789474       0.004
   0.18421053  0.18421053  0.18421053       0.004
   0.21052632  0.21052632  0.21052632       0.004
   0.23684211  0.23684211  0.23684211       0.004
   0.26315789  0.26315789  0.26315789       0.004
   0.28947368  0.28947368  0.28947368       0.004
   0.31578947  0.31578947  0.31578947       0.004
   0.34210526  0.34210526  0.34210526       0.004
   0.36842105  0.36842105  0.36842105       0.004
   0.39473684  0.39473684  0.39473684       0.004
   0.42105263  0.42105263  0.42105263       0.004
   0.44736842  0.44736842  0.44736842       0.004
   0.47368421  0.47368421  0.47368421       0.004
   0.50000000  0.50000000  0.50000000       0.004
   0.50000000  0.50000000  0.50000000       0.004
   0.50000000  0.48684211  0.51315789       0.004
   0.50000000  0.47368421  0.52631579       0.004
   0.50000000  0.46052632  0.53947368       0.004
   0.50000000  0.44736842  0.55263158       0.004
   0.50000000  0.43421053  0.56578947       0.004
   0.50000000  0.42105263  0.57894737       0.004
   0.50000000  0.40789474  0.59210526       0.004
   0.50000000  0.39473684  0.60526316       0.004
   0.50000000  0.38157895  0.61842105       0.004
   0.50000000  0.36842105  0.63157895       0.004
   0.50000000  0.35526316  0.64473684       0.004
   0.50000000  0.34210526  0.65789474       0.004
   0.50000000  0.32894737  0.67105263       0.004
   0.50000000  0.31578947  0.68421053       0.004
   0.50000000  0.30263158  0.69736842       0.004
   0.50000000  0.28947368  0.71052632       0.004
   0.50000000  0.27631579  0.72368421       0.004
   0.50000000  0.26315789  0.73684211       0.004
   0.50000000  0.25000000  0.75000000       0.004
   0.50000000  0.25000000  0.75000000       0.004
   0.50000000  0.23684211  0.73684211       0.004
   0.50000000  0.22368421  0.72368421       0.004
   0.50000000  0.21052632  0.71052632       0.004
   0.50000000  0.19736842  0.69736842       0.004
   0.50000000  0.18421053  0.68421053       0.004
   0.50000000  0.17105263  0.67105263       0.004
   0.50000000  0.15789474  0.65789474       0.004
   0.50000000  0.14473684  0.64473684       0.004
   0.50000000  0.13157895  0.63157895       0.004
   0.50000000  0.11842105  0.61842105       0.004
   0.50000000  0.10526316  0.60526316       0.004
   0.50000000  0.09210526  0.59210526       0.004
   0.50000000  0.07894737  0.57894737       0.004
   0.50000000  0.06578947  0.56578947       0.004
   0.50000000  0.05263158  0.55263158       0.004
   0.50000000  0.03947368  0.53947368       0.004
   0.50000000  0.02631579  0.52631579       0.004
   0.50000000  0.01315789  0.51315789       0.004
   0.50000000  0.00000000  0.50000000       0.004
   0.00000000  0.00000000  0.00000000       0.004
  -0.02631579  0.00000000 -0.02631579       0.004
  -0.05263158  0.00000000 -0.05263158       0.004
  -0.07894737  0.00000000 -0.07894737       0.004
  -0.10526316  0.00000000 -0.10526316       0.004
  -0.13157895  0.00000000 -0.13157895       0.004
  -0.15789474  0.00000000 -0.15789474       0.004
  -0.18421053  0.00000000 -0.18421053       0.004
  -0.21052632  0.00000000 -0.21052632       0.004
  -0.23684211  0.00000000 -0.23684211       0.004
  -0.26315789  0.00000000 -0.26315789       0.004
  -0.28947368  0.00000000 -0.28947368       0.004
  -0.31578947  0.00000000 -0.31578947       0.004
  -0.34210526  0.00000000 -0.34210526       0.004
  -0.36842105  0.00000000 -0.36842105       0.004
  -0.39473684  0.00000000 -0.39473684       0.004
  -0.42105263  0.00000000 -0.42105263       0.004
  -0.44736842  0.00000000 -0.44736842       0.004
  -0.47368421  0.00000000 -0.47368421       0.004
  -0.50000000  0.00000000 -0.50000000       0.004
  -0.50000000  0.00000000 -0.50000000       0.004
  -0.50657895 -0.01315789 -0.50657895       0.004
  -0.51315789 -0.02631579 -0.51315789       0.004
  -0.51973684 -0.03947368 -0.51973684       0.004
  -0.52631579 -0.05263158 -0.52631579       0.004
  -0.53289474 -0.06578947 -0.53289474       0.004
  -0.53947368 -0.07894737 -0.53947368       0.004
  -0.54605263 -0.09210526 -0.54605263       0.004
  -0.55263158 -0.10526316 -0.55263158       0.004
  -0.55921053 -0.11842105 -0.55921053       0.004
  -0.56578947 -0.13157895 -0.56578947       0.004
  -0.57236842 -0.14473684 -0.57236842       0.004
  -0.57894737 -0.15789474 -0.57894737       0.004
  -0.58552632 -0.17105263 -0.58552632       0.004
  -0.59210526 -0.18421053 -0.59210526       0.004
  -0.59868421 -0.19736842 -0.59868421       0.004
  -0.60526316 -0.21052632 -0.60526316       0.004
  -0.61184211 -0.22368421 -0.61184211       0.004
  -0.61842105 -0.23684211 -0.61842105       0.004
  -0.62500000 -0.25000000 -0.62500000       0.004
  -0.37500000 -0.37500000 -0.75000000       0.004
  -0.35526316 -0.35526316 -0.71052632       0.004
  -0.33552632 -0.33552632 -0.67105263       0.004
  -0.31578947 -0.31578947 -0.63157895       0.004
  -0.29605263 -0.29605263 -0.59210526       0.004
  -0.27631579 -0.27631579 -0.55263158       0.004
  -0.25657895 -0.25657895 -0.51315789       0.004
  -0.23684211 -0.23684211 -0.47368421       0.004
  -0.21710526 -0.21710526 -0.43421053       0.004
  -0.19736842 -0.19736842 -0.39473684       0.004
  -0.17763158 -0.17763158 -0.35526316       0.004
  -0.15789474 -0.15789474 -0.31578947       0.004
  -0.13815789 -0.13815789 -0.27631579       0.004
  -0.11842105 -0.11842105 -0.23684211       0.004
  -0.09868421 -0.09868421 -0.19736842       0.004
  -0.07894737 -0.07894737 -0.15789474       0.004
  -0.05921053 -0.05921053 -0.11842105       0.004
  -0.03947368 -0.03947368 -0.07894737       0.004
  -0.01973684 -0.01973684 -0.03947368       0.004
   0.00000000  0.00000000  0.00000000       0.004
   0.00000000  0.00000000  0.00000000       0.004
  -0.02631579 -0.02631579 -0.02631579       0.004
  -0.05263158 -0.05263158 -0.05263158       0.004
  -0.07894737 -0.07894737 -0.07894737       0.004
  -0.10526316 -0.10526316 -0.10526316       0.004
  -0.13157895 -0.13157895 -0.13157895       0.004
  -0.15789474 -0.15789474 -0.15789474       0.004
  -0.18421053 -0.18421053 -0.18421053       0.004
  -0.21052632 -0.21052632 -0.21052632       0.004
  -0.23684211 -0.23684211 -0.23684211       0.004
  -0.26315789 -0.26315789 -0.26315789       0.004
  -0.28947368 -0.28947368 -0.28947368       0.004
  -0.31578947 -0.31578947 -0.31578947       0.004
  -0.34210526 -0.34210526 -0.34210526       0.004
  -0.36842105 -0.36842105 -0.36842105       0.004
  -0.39473684 -0.39473684 -0.39473684       0.004
  -0.42105263 -0.42105263 -0.42105263       0.004
  -0.44736842 -0.44736842 -0.44736842       0.004
  -0.47368421 -0.47368421 -0.47368421       0.004
  -0.50000000 -0.50000000 -0.50000000       0.004
  -0.50000000 -0.50000000 -0.50000000       0.004
  -0.50000000 -0.48684211 -0.51315789       0.004
  -0.50000000 -0.47368421 -0.52631579       0.004
  -0.50000000 -0.46052632 -0.53947368       0.004
  -0.50000000 -0.44736842 -0.55263158       0.004
  -0.50000000 -0.43421053 -0.56578947       0.004
  -0.50000000 -0.42105263 -0.57894737       0.004
  -0.50000000 -0.40789474 -0.59210526       0.004
  -0.50000000 -0.39473684 -0.60526316       0.004
  -0.50000000 -0.38157895 -0.61842105       0.004
  -0.50000000 -0.36842105 -0.63157895       0.004
  -0.50000000 -0.35526316 -0.64473684       0.004
  -0.50000000 -0.34210526 -0.65789474       0.004
  -0.50000000 -0.32894737 -0.67105263       0.004
  -0.50000000 -0.31578947 -0.68421053       0.004
  -0.50000000 -0.30263158 -0.69736842       0.004
  -0.50000000 -0.28947368 -0.71052632       0.004
  -0.50000000 -0.27631579 -0.72368421       0.004
  -0.50000000 -0.26315789 -0.73684211       0.004
  -0.50000000 -0.25000000 -0.75000000       0.004
  -0.50000000 -0.25000000 -0.75000000       0.004
  -0.50000000 -0.23684211 -0.73684211       0.004
  -0.50000000 -0.22368421 -0.72368421       0.004
  -0.50000000 -0.21052632 -0.71052632       0.004
  -0.50000000 -0.19736842 -0.69736842       0.004
  -0.50000000 -0.18421053 -0.68421053       0.004
  -0.50000000 -0.17105263 -0.67105263       0.004
  -0.50000000 -0.15789474 -0.65789474       0.004
  -0.50000000 -0.14473684 -0.64473684       0.004
  -0.50000000 -0.13157895 -0.63157895       0.004
  -0.50000000 -0.11842105 -0.61842105       0.004
  -0.50000000 -0.10526316 -0.60526316       0.004
  -0.50000000 -0.09210526 -0.59210526       0.004
  -0.50000000 -0.07894737 -0.57894737       0.004
  -0.50000000 -0.06578947 -0.56578947       0.004
  -0.50000000 -0.05263158 -0.55263158       0.004
  -0.50000000 -0.03947368 -0.53947368       0.004
  -0.50000000 -0.02631579 -0.52631579       0.004
  -0.50000000 -0.01315789 -0.51315789       0.004
  -0.50000000  0.00000000 -0.50000000       0.004
 
 position of ions in fractional coordinates (direct lattice) 
   0.25000000  0.25000000  0.25000000
   0.00000000  0.00000000  0.00000000
 
 position of ions in cartesian coordinates  (Angst):
   1.09489000  1.09489000  1.09489000
   0.00000000  0.00000000  0.00000000
 


--------------------------------------------------------------------------------------------------------


 k-point  1 :   0.0000 0.0000 0.0000  plane waves:     537
 k-point  2 :   0.0263 0.0000 0.0263  plane waves:     541
 k-point  3 :   0.0526 0.0000 0.0526  plane waves:     541
 k-point  4 :   0.0789 0.0000 0.0789  plane waves:     556
 k-point  5 :   0.1053 0.0000 0.1053  plane waves:     556
 k-point  6 :   0.1316 0.0000 0.1316  plane waves:     564
 k-point  7 :   0.1579 0.0000 0.1579  plane waves:     564
 k-point  8 :   0.1842 0.0000 0.1842  plane waves:     568
 k-point  9 :   0.2105 0.0000 0.2105  plane waves:     568
 k-point 10 :   0.2368 0.0000 0.2368  plane waves:     568
 k-point 11 :   0.2632 0.0000 0.2632  plane waves:     568
 k-point 12 :   0.2895 0.0000 0.2895  plane waves:     568
 k-point 13 :   0.3158 0.0000 0.3158  plane waves:     568
 k-point 14 :   0.3421 0.0000 0.3421  plane waves:     568
 k-point 15 :   0.3684 0.0000 0.3684  plane waves:     568
 k-point 16 :   0.3947 0.0000 0.3947  plane waves:     568
 k-point 17 :   0.4211 0.0000 0.4211  plane waves:     560
 k-point 18 :   0.4474 0.0000 0.4474  plane waves:     568
 k-point 19 :   0.4737 0.0000 0.4737  plane waves:     572
 k-point 20 :   0.5000 0.0000 0.5000  plane waves:     588
 k-point 21 :   0.5000 0.0000 0.5000  plane waves:     588
 k-point 22 :   0.5066 0.0132 0.5066  plane waves:     588
 k-point 23 :   0.5132 0.0263 0.5132  plane waves:     578
 k-point 24 :   0.5197 0.0395 0.5197  plane waves:     578
 k-point 25 :   0.5263 0.0526 0.5263  plane waves:     578
 k-point 26 :   0.5329 0.0658 0.5329  plane waves:     578
 k-point 27 :   0.5395 0.0789 0.5395  plane waves:     576
 k-point 28 :   0.5461 0.0921 0.5461  plane waves:     568
 k-point 29 :   0.5526 0.1053 0.5526  plane waves:     568
 k-point 30 :   0.5592 0.1184 0.5592  plane waves:     568
 k-point 31 :   0.5658 0.1316 0.5658  plane waves:     568
 k-point 32 :   0.5724 0.1447 0.5724  plane waves:     572
 k-point 33 :   0.5789 0.1579 0.5789  plane waves:     564
 k-point 34 :   0.5855 0.1711 0.5855  plane waves:     564
 k-point 35 :   0.5921 0.1842 0.5921  plane waves:     564
 k-point 36 :   0.5987 0.1974 0.5987  plane waves:     564
 k-point 37 :   0.6053 0.2105 0.6053  plane waves:     564
 k-point 38 :   0.6118 0.2237 0.6118  plane waves:     560
 k-point 39 :   0.6184 0.2368 0.6184  plane waves:     568
 k-point 40 :   0.6250 0.2500 0.6250  plane waves:     572
 k-point 41 :   0.3750 0.3750 0.7500  plane waves:     572
 k-point 42 :   0.3553 0.3553 0.7105  plane waves:     570
 k-point 43 :   0.3355 0.3355 0.6711  plane waves:     570
 k-point 44 :   0.3158 0.3158 0.6316  plane waves:     568
 k-point 45 :   0.2961 0.2961 0.5921  plane waves:     562
 k-point 46 :   0.2763 0.2763 0.5526  plane waves:     562
 k-point 47 :   0.2566 0.2566 0.5132  plane waves:     554
 k-point 48 :   0.2368 0.2368 0.4737  plane waves:     558
 k-point 49 :   0.2171 0.2171 0.4342  plane waves:     556
 k-point 50 :   0.1974 0.1974 0.3947  plane waves:     562
 k-point 51 :   0.1776 0.1776 0.3553  plane waves:     558
 k-point 52 :   0.1579 0.1579 0.3158  plane waves:     564
 k-point 53 :   0.1382 0.1382 0.2763  plane waves:     560
 k-point 54 :   0.1184 0.1184 0.2368  plane waves:     559
 k-point 55 :   0.0987 0.0987 0.1974  plane waves:     559
 k-point 56 :   0.0789 0.0789 0.1579  plane waves:     559
 k-point 57 :   0.0592 0.0592 0.1184  plane waves:     559
 k-point 58 :   0.0395 0.0395 0.0789  plane waves:     543
 k-point 59 :   0.0197 0.0197 0.0395  plane waves:     541
 k-point 60 :   0.0000 0.0000 0.0000  plane waves:     537
 k-point 61 :   0.0000 0.0000 0.0000  plane waves:     537
 k-point 62 :   0.0263 0.0263 0.0263  plane waves:     537
 k-point 63 :   0.0526 0.0526 0.0526  plane waves:     546
 k-point 64 :   0.0789 0.0789 0.0789  plane waves:     549
 k-point 65 :   0.1053 0.1053 0.1053  plane waves:     555
 k-point 66 :   0.1316 0.1316 0.1316  plane waves:     555
 k-point 67 :   0.1579 0.1579 0.1579  plane waves:     564
 k-point 68 :   0.1842 0.1842 0.1842  plane waves:     564
 k-point 69 :   0.2105 0.2105 0.2105  plane waves:     564
 k-point 70 :   0.2368 0.2368 0.2368  plane waves:     564
 k-point 71 :   0.2632 0.2632 0.2632  plane waves:     570
 k-point 72 :   0.2895 0.2895 0.2895  plane waves:     567
 k-point 73 :   0.3158 0.3158 0.3158  plane waves:     568
 k-point 74 :   0.3421 0.3421 0.3421  plane waves:     562
 k-point 75 :   0.3684 0.3684 0.3684  plane waves:     571
 k-point 76 :   0.3947 0.3947 0.3947  plane waves:     571
 k-point 77 :   0.4211 0.4211 0.4211  plane waves:     571
 k-point 78 :   0.4474 0.4474 0.4474  plane waves:     571
 k-point 79 :   0.4737 0.4737 0.4737  plane waves:     571
 k-point 80 :   0.5000 0.5000 0.5000  plane waves:     568
 k-point 81 :   0.5000 0.5000 0.5000  plane waves:     568
 k-point 82 :   0.5000 0.4868 0.5132  plane waves:     570
 k-point 83 :   0.5000 0.4737 0.5263  plane waves:     572
 k-point 84 :   0.5000 0.4605 0.5395  plane waves:     570
 k-point 85 :   0.5000 0.4474 0.5526  plane waves:     568
 k-point 86 :   0.5000 0.4342 0.5658  plane waves:     566
 k-point 87 :   0.5000 0.4211 0.5789  plane waves:     568
 k-point 88 :   0.5000 0.4079 0.5921  plane waves:     564
 k-point 89 :   0.5000 0.3947 0.6053  plane waves:     562
 k-point 90 :   0.5000 0.3816 0.6184  plane waves:     560
 k-point 91 :   0.5000 0.3684 0.6316  plane waves:     560
 k-point 92 :   0.5000 0.3553 0.6447  plane waves:     558
 k-point 93 :   0.5000 0.3421 0.6579  plane waves:     558
 k-point 94 :   0.5000 0.3289 0.6711  plane waves:     562
 k-point 95 :   0.5000 0.3158 0.6842  plane waves:     564
 k-point 96 :   0.5000 0.3026 0.6974  plane waves:     564
 k-point 97 :   0.5000 0.2895 0.7105  plane waves:     562
 k-point 98 :   0.5000 0.2763 0.7237  plane waves:     564
 k-point 99 :   0.5000 0.2632 0.7368  plane waves:     560
 k-point ** :   0.5000 0.2500 0.7500  plane waves:     560
 k-point ** :   0.5000 0.2500 0.7500  plane waves:     560
 k-point ** :   0.5000 0.2368 0.7368  plane waves:     560
 k-point ** :   0.5000 0.2237 0.7237  plane waves:     560
 k-point ** :   0.5000 0.2105 0.7105  plane waves:     564
 k-point ** :   0.5000 0.1974 0.6974  plane waves:     568
 k-point ** :   0.5000 0.1842 0.6842  plane waves:     564
 k-point ** :   0.5000 0.1711 0.6711  plane waves:     560
 k-point ** :   0.5000 0.1579 0.6579  plane waves:     560
 k-point ** :   0.5000 0.1447 0.6447  plane waves:     568
 k-point ** :   0.5000 0.1316 0.6316  plane waves:     568
 k-point ** :   0.5000 0.1184 0.6184  plane waves:     568
 k-point ** :   0.5000 0.1053 0.6053  plane waves:     568
 k-point ** :   0.5000 0.0921 0.5921  plane waves:     568
 k-point ** :   0.5000 0.0789 0.5789  plane waves:     566
 k-point ** :   0.5000 0.0658 0.5658  plane waves:     574
 k-point ** :   0.5000 0.0526 0.5526  plane waves:     578
 k-point ** :   0.5000 0.0395 0.5395  plane waves:     580
 k-point ** :   0.5000 0.0263 0.5263  plane waves:     580
 k-point ** :   0.5000 0.0132 0.5132  plane waves:     584
 k-point ** :   0.5000 0.0000 0.5000  plane waves:     588
 k-point ** :   0.0000 0.0000 0.0000  plane waves:     537
 k-point ** :  -0.0263 0.0000-0.0263  plane waves:     541
 k-point ** :  -0.0526 0.0000-0.0526  plane waves:     541
 k-point ** :  -0.0789 0.0000-0.0789  plane waves:     556
 k-point ** :  -0.1053 0.0000-0.1053  plane waves:     556
 k-point ** :  -0.1316 0.0000-0.1316  plane waves:     564
 k-point ** :  -0.1579 0.0000-0.1579  plane waves:     564
 k-point ** :  -0.1842 0.0000-0.1842  plane waves:     568
 k-point ** :  -0.2105 0.0000-0.2105  plane waves:     568
 k-point ** :  -0.2368 0.0000-0.2368  plane waves:     568
 k-point ** :  -0.2632 0.0000-0.2632  plane waves:     568
 k-point ** :  -0.2895 0.0000-0.2895  plane waves:     568
 k-point ** :  -0.3158 0.0000-0.3158  plane waves:     568
 k-point ** :  -0.3421 0.0000-0.3421  plane waves:     568
 k-point ** :  -0.3684 0.0000-0.3684  plane waves:     568
 k-point ** :  -0.3947 0.0000-0.3947  plane waves:     568
 k-point ** :  -0.4211 0.0000-0.4211  plane waves:     560
 k-point ** :  -0.4474 0.0000-0.4474  plane waves:     568
 k-point ** :  -0.4737 0.0000-0.4737  plane waves:     572
 k-point ** :  -0.5000 0.0000-0.5000  plane waves:     588
 k-point ** :  -0.5000 0.0000-0.5000  plane waves:     588
 k-point ** :  -0.5066-0.0132-0.5066  plane waves:     588
 k-point ** :  -0.5132-0.0263-0.5132  plane waves:     578
 k-point ** :  -0.5197-0.0395-0.5197  plane waves:     578
 k-point ** :  -0.5263-0.0526-0.5263  plane waves:     578
 k-point ** :  -0.5329-0.0658-0.5329  plane waves:     578
 k-point ** :  -0.5395-0.0789-0.5395  plane waves:     576
 k-point ** :  -0.5461-0.0921-0.5461  plane waves:     568
 k-point ** :  -0.5526-0.1053-0.5526  plane waves:     568
 k-point ** :  -0.5592-0.1184-0.5592  plane waves:     568
 k-point ** :  -0.5658-0.1316-0.5658  plane waves:     568
 k-point ** :  -0.5724-0.1447-0.5724  plane waves:     572
 k-point ** :  -0.5789-0.1579-0.5789  plane waves:     564
 k-point ** :  -0.5855-0.1711-0.5855  plane waves:     564
 k-point ** :  -0.5921-0.1842-0.5921  plane waves:     564
 k-point ** :  -0.5987-0.1974-0.5987  plane waves:     564
 k-point ** :  -0.6053-0.2105-0.6053  plane waves:     564
 k-point ** :  -0.6118-0.2237-0.6118  plane waves:     560
 k-point ** :  -0.6184-0.2368-0.6184  plane waves:     568
 k-point ** :  -0.6250-0.2500-0.6250  plane waves:     572
 k-point ** :  -0.3750-0.3750-0.7500  plane waves:     572
 k-point ** :  -0.3553-0.3553-0.7105  plane waves:     570
 k-point ** :  -0.3355-0.3355-0.6711  plane waves:     570
 k-point ** :  -0.3158-0.3158-0.6316  plane waves:     568
 k-point ** :  -0.2961-0.2961-0.5921  plane waves:     562
 k-point ** :  -0.2763-0.2763-0.5526  plane waves:     562
 k-point ** :  -0.2566-0.2566-0.5132  plane waves:     554
 k-point ** :  -0.2368-0.2368-0.4737  plane waves:     558
 k-point ** :  -0.2171-0.2171-0.4342  plane waves:     556
 k-point ** :  -0.1974-0.1974-0.3947  plane waves:     562
 k-point ** :  -0.1776-0.1776-0.3553  plane waves:     558
 k-point ** :  -0.1579-0.1579-0.3158  plane waves:     564
 k-point ** :  -0.1382-0.1382-0.2763  plane waves:     560
 k-point ** :  -0.1184-0.1184-0.2368  plane waves:     559
 k-point ** :  -0.0987-0.0987-0.1974  plane waves:     559
 k-point ** :  -0.0789-0.0789-0.1579  plane waves:     559
 k-point ** :  -0.0592-0.0592-0.1184  plane waves:     559
 k-point ** :  -0.0395-0.0395-0.0789  plane waves:     543
 k-point ** :  -0.0197-0.0197-0.0395  plane waves:     541
 k-point ** :   0.0000 0.0000 0.0000  plane waves:     537
 k-point ** :   0.0000 0.0000 0.0000  plane waves:     537
 k-point ** :  -0.0263-0.0263-0.0263  plane waves:     537
 k-point ** :  -0.0526-0.0526-0.0526  plane waves:     546
 k-point ** :  -0.0789-0.0789-0.0789  plane waves:     549
 k-point ** :  -0.1053-0.1053-0.1053  plane waves:     555
 k-point ** :  -0.1316-0.1316-0.1316  plane waves:     555
 k-point ** :  -0.1579-0.1579-0.1579  plane waves:     564
 k-point ** :  -0.1842-0.1842-0.1842  plane waves:     564
 k-point ** :  -0.2105-0.2105-0.2105  plane waves:     564
 k-point ** :  -0.2368-0.2368-0.2368  plane waves:     564
 k-point ** :  -0.2632-0.2632-0.2632  plane waves:     570
 k-point ** :  -0.2895-0.2895-0.2895  plane waves:     567
 k-point ** :  -0.3158-0.3158-0.3158  plane waves:     568
 k-point ** :  -0.3421-0.3421-0.3421  plane waves:     562
 k-point ** :  -0.3684-0.3684-0.3684  plane waves:     571
 k-point ** :  -0.3947-0.3947-0.3947  plane waves:     571
 k-point ** :  -0.4211-0.4211-0.4211  plane waves:     571
 k-point ** :  -0.4474-0.4474-0.4474  plane waves:     571
 k-point ** :  -0.4737-0.4737-0.4737  plane waves:     571
 k-point ** :  -0.5000-0.5000-0.5000  plane waves:     568
 k-point ** :  -0.5000-0.5000-0.5000  plane waves:     568
 k-point ** :  -0.5000-0.4868-0.5132  plane waves:     570
 k-point ** :  -0.5000-0.4737-0.5263  plane waves:     572
 k-point ** :  -0.5000-0.4605-0.5395  plane waves:     570
 k-point ** :  -0.5000-0.4474-0.5526  plane waves:     568
 k-point ** :  -0.5000-0.4342-0.5658  plane waves:     566
 k-point ** :  -0.5000-0.4211-0.5789  plane waves:     568
 k-point ** :  -0.5000-0.4079-0.5921  plane waves:     564
 k-point ** :  -0.5000-0.3947-0.6053  plane waves:     562
 k-point ** :  -0.5000-0.3816-0.6184  plane waves:     560
 k-point ** :  -0.5000-0.3684-0.6316  plane waves:     560
 k-point ** :  -0.5000-0.3553-0.6447  plane waves:     558
 k-point ** :  -0.5000-0.3421-0.6579  plane waves:     558
 k-point ** :  -0.5000-0.3289-0.6711  plane waves:     562
 k-point ** :  -0.5000-0.3158-0.6842  plane waves:     564
 k-point ** :  -0.5000-0.3026-0.6974  plane waves:     564
 k-point ** :  -0.5000-0.2895-0.7105  plane waves:     562
 k-point ** :  -0.5000-0.2763-0.7237  plane waves:     564
 k-point ** :  -0.5000-0.2632-0.7368  plane waves:     560
 k-point ** :  -0.5000-0.2500-0.7500  plane waves:     560
 k-point ** :  -0.5000-0.2500-0.7500  plane waves:     560
 k-point ** :  -0.5000-0.2368-0.7368  plane waves:     560
 k-point ** :  -0.5000-0.2237-0.7237  plane waves:     560
 k-point ** :  -0.5000-0.2105-0.7105  plane waves:     564
 k-point ** :  -0.5000-0.1974-0.6974  plane waves:     568
 k-point ** :  -0.5000-0.1842-0.6842  plane waves:     564
 k-point ** :  -0.5000-0.1711-0.6711  plane waves:     560
 k-point ** :  -0.5000-0.1579-0.6579  plane waves:     560
 k-point ** :  -0.5000-0.1447-0.6447  plane waves:     568
 k-point ** :  -0.5000-0.1316-0.6316  plane waves:     568
 k-point ** :  -0.5000-0.1184-0.6184  plane waves:     568
 k-point ** :  -0.5000-0.1053-0.6053  plane waves:     568
 k-point ** :  -0.5000-0.0921-0.5921  plane waves:     568
 k-point ** :  -0.5000-0.0789-0.5789  plane waves:     566
 k-point ** :  -0.5000-0.0658-0.5658  plane waves:     574
 k-point ** :  -0.5000-0.0526-0.5526  plane waves:     578
 k-point ** :  -0.5000-0.0395-0.5395  plane waves:     580
 k-point ** :  -0.5000-0.0263-0.5263  plane waves:     580
 k-point ** :  -0.5000-0.0132-0.5132  plane waves:     584
 k-point ** :  -0.5000 0.0000-0.5000  plane waves:     588

 maximum and minimum number of plane-waves per node :       588      537

 maximum number of plane-waves:       588
 maximum index in each direction: 
   IXMAX=    6   IYMAX=    6   IZMAX=    6
   IXMIN=   -6   IYMIN=   -6   IZMIN=   -6


 serial   3D FFT for wavefunctions
 parallel 3D FFT for charge:
    minimum data exchange during FFTs selected (reduces bandwidth)


 total amount of memory used by VASP MPI-rank0    59059. kBytes
=======================================================================

   base      :      30000. kBytes
   nonl-proj :      18082. kBytes
   fftplans  :       4177. kBytes
   grid      :       2156. kBytes
   one-center:          6. kBytes
   wavefun   :       4638. kBytes
 
     INWAV:  cpu time    0.0000: real time    0.0000
 initial charge density was supplied:
 number of electron       8.0000000 magnetization 
 keeping initial charge density in first step


--------------------------------------------------------------------------------------------------------


 Maximum index for augmentation-charges        42787 (set IRDMAX)


--------------------------------------------------------------------------------------------------------


 First call to EWALD:  gamma=   0.642
 Maximum number of real-space cells 3x 3x 3
 Maximum number of reciprocal cells 3x 3x 3

    FEWALD:  cpu time    0.0010: real time    0.0010


--------------------------------------- Iteration      1(   1)  ---------------------------------------


    POTLOK:  cpu time    0.0132: real time    0.0134
    SETDIJ:  cpu time    0.0149: real time    0.0149
     EDDAV:  cpu time    0.7865: real time    0.7871
       DOS:  cpu time    0.0017: real time    0.0017
    --------------------------------------------
      LOOP:  cpu time    0.8163: real time    0.8172

 eigenvalue-minimisations  :  3840
 total energy-change (2. order) : 0.6682976E+01  (-0.4115012E+03)
 number of electron       8.0000000 magnetization 
 augmentation part        8.0000000 magnetization 

 Free energy of the ion-electron system (eV)
  ---------------------------------------------------
  alpha Z        PSCENC =        11.02920051
  Ewald energy   TEWEN  =      -283.38461863
  -Hartree energ DENC   =       -32.03081441
  -exchange      EXHF   =         0.00000000
  -V(xc)+E(xc)   XCENC  =         5.56860014
  PAW double counting   =      1013.30967535     -996.46902585
  entropy T*S    EENTRO =        -0.00283832
  eigenvalues    EBANDS =        38.44755227
  atomic energy  EATOM  =       250.21524468
  Solvation  Ediel_sol  =         0.00000000
  ---------------------------------------------------
  free energy    TOTEN  =         6.68297575 eV

  energy without entropy =        6.68581407  energy(sigma->0) =        6.68439491


--------------------------------------------------------------------------------------------------------




--------------------------------------- Iteration      1(   2)  ---------------------------------------


     EDDAV:  cpu time    1.1332: real time    1.1351
       DOS:  cpu time    0.0009: real time    0.0009
    --------------------------------------------
      LOOP:  cpu time    1.1340: real time    1.1360

 eigenvalue-minimisations  :  5912
 total energy-change (2. order) :-0.1987388E+02  (-0.1861793E+02)
 number of electron       8.0000000 magnetization 
 augmentation part        8.0000000 magnetization 

 Free energy of the ion-electron system (eV)
  ---------------------------------------------------
  alpha Z        PSCENC =        11.02920051
  Ewald energy   TEWEN  =      -283.38461863
  -Hartree energ DENC   =       -32.03081441
  -exchange      EXHF   =         0.00000000
  -V(xc)+E(xc)   XCENC  =         5.56860014
  PAW double counting   =      1013.30967535     -996.46902585
  entropy T*S    EENTRO =        -0.00000000
  eigenvalues    EBANDS =        18.57083449
  atomic energy  EATOM  =       250.21524468
  Solvation  Ediel_sol  =         0.00000000
  ---------------------------------------------------
  free energy    TOTEN  =       -13.19090371 eV

  energy without entropy =      -13.19090371  energy(sigma->0) =      -13.19090371


--------------------------------------------------------------------------------------------------------




--------------------------------------- Iteration      1(   3)  ---------------------------------------


     EDDAV:  cpu time    0.9358: real time    0.9365
       DOS:  cpu time    0.0009: real time    0.0009
    --------------------------------------------
      LOOP:  cpu time    0.9367: real time    0.9374

 eigenvalue-minimisations  :  4512
 total energy-change (2. order) :-0.3158000E+00  (-0.3158000E+00)
 number of electron       8.0000000 magnetization 
 augmentation part        8.0000000 magnetization 

 Free energy of the ion-electron system (eV)
  ---------------------------------------------------
  alpha Z        PSCENC =        11.02920051
  Ewald energy   TEWEN  =      -283.38461863
  -Hartree energ DENC   =       -32.03081441
  -exchange      EXHF   =         0.00000000
  -V(xc)+E(xc)   XCENC  =         5.56860014
  PAW double counting   =      1013.30967535     -996.46902585
  entropy T*S    EENTRO =        -0.00000000
  eigenvalues    EBANDS =        18.25503449
  atomic energy  EATOM  =       250.21524468
  Solvation  Ediel_sol  =         0.00000000
  ---------------------------------------------------
  free energy    TOTEN  =       -13.50670372 eV

  energy without entropy =      -13.50670372  energy(sigma->0) =      -13.50670372


--------------------------------------------------------------------------------------------------------




--------------------------------------- Iteration      1(   4)  ---------------------------------------


     EDDAV:  cpu time    1.1781: real time    1.1799
       DOS:  cpu time    0.0009: real time    0.0009
    --------------------------------------------
      LOOP:  cpu time    1.1790: real time    1.1808

 eigenvalue-minimisations  :  6280
 total energy-change (2. order) :-0.9432224E-03  (-0.9432224E-03)
 number of electron       8.0000000 magnetization 
 augmentation part        8.0000000 magnetization 

 Free energy of the ion-electron system (eV)
  ---------------------------------------------------
  alpha Z        PSCENC =        11.02920051
  Ewald energy   TEWEN  =      -283.38461863
  -Hartree energ DENC   =       -32.03081441
  -exchange      EXHF   =         0.00000000
  -V(xc)+E(xc)   XCENC  =         5.56860014
  PAW double counting   =      1013.30967535     -996.46902585
  entropy T*S    EENTRO =        -0.00000000
  eigenvalues    EBANDS =        18.25409127
  atomic energy  EATOM  =       250.21524468
  Solvation  Ediel_sol  =         0.00000000
  ---------------------------------------------------
  free energy    TOTEN  =       -13.50764694 eV

  energy without entropy =      -13.50764694  energy(sigma->0) =      -13.50764694


--------------------------------------------------------------------------------------------------------




--------------------------------------- Iteration      1(   5)  ---------------------------------------


     EDDAV:  cpu time    0.8850: real time    0.8859
       DOS:  cpu time    0.0009: real time    0.0009
    --------------------------------------------
      LOOP:  cpu time    0.8860: real time    0.8868

 eigenvalue-minimisations  :  4352
 total energy-change (2. order) :-0.1055730E-05  (-0.1055731E-05)
 number of electron       8.0000000 magnetization 
 augmentation part        8.0000000 magnetization 

 Free energy of the ion-electron system (eV)
  ---------------------------------------------------
  alpha Z        PSCENC =        11.02920051
  Ewald energy   TEWEN  =      -283.38461863
  -Hartree energ DENC   =       -32.03081441
  -exchange      EXHF   =         0.00000000
  -V(xc)+E(xc)   XCENC  =         5.56860014
  PAW double counting   =      1013.30967535     -996.46902585
  entropy T*S    EENTRO =        -0.00000000
  eigenvalues    EBANDS =        18.25409021
  atomic energy  EATOM  =       250.21524468
  Solvation  Ediel_sol  =         0.00000000
  ---------------------------------------------------
  free energy    TOTEN  =       -13.50764800 eV

  energy without entropy =      -13.50764800  energy(sigma->0) =      -13.50764800


--------------------------------------------------------------------------------------------------------




--------------------------------------- Iteration      1(   6)  ---------------------------------------


     EDDAV:  cpu time    1.2340: real time    1.2360
       DOS:  cpu time    0.0009: real time    0.0009
    --------------------------------------------
      LOOP:  cpu time    1.2349: real time    1.2368

 eigenvalue-minimisations  :  6032
 total energy-change (2. order) :-0.9909968E-08  (-0.9906416E-08)
 number of electron       8.0000000 magnetization 
 augmentation part        8.0000000 magnetization 

 Free energy of the ion-electron system (eV)
  ---------------------------------------------------
  alpha Z        PSCENC =        11.02920051
  Ewald energy   TEWEN  =      -283.38461863
  -Hartree energ DENC   =       -32.03081441
  -exchange      EXHF   =         0.00000000
  -V(xc)+E(xc)   XCENC  =         5.56860014
  PAW double counting   =      1013.30967535     -996.46902585
  entropy T*S    EENTRO =        -0.00000000
  eigenvalues    EBANDS =        18.25409020
  atomic energy  EATOM  =       250.21524468
  Solvation  Ediel_sol  =         0.00000000
  ---------------------------------------------------
  free energy    TOTEN  =       -13.50764801 eV

  energy without entropy =      -13.50764801  energy(sigma->0) =      -13.50764801


--------------------------------------------------------------------------------------------------------




 average (electrostatic) potential at core
  the test charge radii are     0.9892  0.6991
  (the norm of the test charge is              1.0000)
       1 -80.5768       2 -44.9929
 
 
 
 E-fermi :   8.4303     XC(G=0): -11.2917     alpha+bet :-16.1933


 k-point     1 :       0.0000    0.0000    0.0000
  band No.  band energies     occupation 
      1      -7.3459      2.00000
      2       7.9415      2.00000
      3       7.9415      2.00000
      4       7.9415      2.00000
      5      14.0022      0.00000
      6      15.1469      0.00000
      7      15.1469      0.00000
      8      15.1469      0.00000

 k-point     2 :       0.0263    0.0000    0.0263
  band No.  band energies     occupation 
      1      -7.3281      2.00000
      2       7.8820      2.00000
      3       7.9052      2.00000
      4       7.9052      2.00000
      5      14.0570      0.00000
      6      15.0974      0.00000
      7      15.1994      0.00000
      8      15.1994      0.00000

 k-point     3 :       0.0526    0.0000    0.0526
  band No.  band energies     occupation 
      1      -7.2745      2.00000
      2       7.7107      2.00000
      3       7.8002      2.00000
      4       7.8002      2.00000
      5      14.2052      0.00000
      6      14.9596      0.00000
      7      15.3527      0.00000
      8      15.3527      0.00000

 k-point     4 :       0.0789    0.0000    0.0789
  band No.  band energies     occupation 
      1      -7.1853      2.00000
      2       7.4458      2.00000
      3       7.6367      2.00000
      4       7.6367      2.00000
      5      14.3699      0.00000
      6      14.7941      0.00000
      7      15.5959      0.00000
      8      15.5959      0.00000

 k-point     5 :       0.1053    0.0000    0.1053
  band No.  band energies     occupation 
      1      -7.0608      2.00000
      2       7.1089      2.00000
      3       7.4282      2.00000
      4       7.4282      2.00000
      5      14.2721      0.00000
      6      14.8513      0.00000
      7      15.9143      0.00000
      8      15.9143      0.00000

 k-point     6 :       0.1316    0.0000    0.1316
  band No.  band energies     occupation 
      1      -6.9013      2.00000
      2       6.7187      2.00000
      3       7.1889      2.00000
      4       7.1889      2.00000
      5      13.9454      0.00000
      6      15.0494      0.00000
      7      16.2923      0.00000
      8      16.2923      0.00000

 k-point     7 :       0.1579    0.0000    0.1579
  band No.  band energies     occupation 
      1      -6.7073      2.00000
      2       6.2897      2.00000
      3       6.9317      2.00000
      4       6.9317      2.00000
      5      13.5492      0.00000
      6      15.1549      0.00000
      7      16.7155      0.00000
      8      16.7155      0.00000

 k-point     8 :       0.1842    0.0000    0.1842
  band No.  band energies     occupation 
      1      -6.4794      2.00000
      2       5.8316      2.00000
      3       6.6673      2.00000
      4       6.6673      2.00000
      5      13.1157      0.00000
      6      15.0680      0.00000
      7      17.1713      0.00000
      8      17.1713      0.00000

 k-point     9 :       0.2105    0.0000    0.2105
  band No.  band energies     occupation 
      1      -6.2185      2.00000
      2       5.3505      2.00000
      3       6.4043      2.00000
      4       6.4043      2.00000
      5      12.6584      0.00000
      6      14.7928      0.00000
      7      17.6493      0.00000
      8      17.6493      0.00000

 k-point    10 :       0.2368    0.0000    0.2368
  band No.  band energies     occupation 
      1      -5.9256      2.00000
      2       4.8504      2.00000
      3       6.1495      2.00000
      4       6.1495      2.00000
      5      12.1885      0.00000
      6      14.4158      0.00000
      7      18.1407      0.00000
      8      18.1408      0.00000

 k-point    11 :       0.2632    0.0000    0.2632
  band No.  band energies     occupation 
      1      -5.6020      2.00000
      2       4.3339      2.00000
      3       5.9081      2.00000
      4       5.9081      2.00000
      5      11.7182      0.00000
      6      14.0165      0.00000
      7      18.6380      0.00000
      8      18.6381      0.00000

 k-point    12 :       0.2895    0.0000    0.2895
  band No.  band energies     occupation 
      1      -5.2496      2.00000
      2       3.8032      2.00000
      3       5.6843      2.00000
      4       5.6843      2.00000
      5      11.2616      0.00000
      6      13.6384      0.00000
      7      19.1344      0.00000
      8      19.1353      0.00000

 k-point    13 :       0.3158    0.0000    0.3158
  band No.  band energies     occupation 
      1      -4.8708      2.00000
      2       3.2613      2.00000
      3       5.4811      2.00000
      4       5.4811      2.00000
      5      10.8328      0.00000
      6      13.3000      0.00000
      7      19.6226      0.00000
      8      19.6227      0.00000

 k-point    14 :       0.3421    0.0000    0.3421
  band No.  band energies     occupation 
      1      -4.4692      2.00000
      2       2.7125      2.00000
      3       5.3011      2.00000
      4       5.3011      2.00000
      5      10.4442      0.00000
      6      13.0074      0.00000
      7      20.0947      0.00000
      8      20.0954      0.00000

 k-point    15 :       0.3684    0.0000    0.3684
  band No.  band energies     occupation 
      1      -4.0500      2.00000
      2       2.1635      2.00000
      3       5.1461      2.00000
      4       5.1461      2.00000
      5      10.1053      0.00000
      6      12.7618      0.00000
      7      20.5403      0.00000
      8      20.5439      0.00000

 k-point    16 :       0.3947    0.0000    0.3947
  band No.  band energies     occupation 
      1      -3.6217      2.00000
      2       1.6247      2.00000
      3       5.0175      2.00000
      4       5.0175      2.00000
      5       9.8226      0.00000
      6      12.5626      0.00000
      7      20.9463      0.00000
      8      20.9474      0.00000

 k-point    17 :       0.4211    0.0000    0.4211
  band No.  band energies     occupation 
      1      -3.1993      2.00000
      2       1.1134      2.00000
      3       4.9165      2.00000
      4       4.9165      2.00000
      5       9.6003      0.00000
      6      12.4088      0.00000
      7      21.2958      0.00000
      8      21.2982      0.00000

 k-point    18 :       0.4474    0.0000    0.4474
  band No.  band energies     occupation 
      1      -2.8117      2.00000
      2       0.6604      2.00000
      3       4.8438      2.00000
      4       4.8438      2.00000
      5       9.4405      0.00000
      6      12.2995      0.00000
      7      21.5685      0.00000
      8      21.5714      0.00000

 k-point    19 :       0.4737    0.0000    0.4737
  band No.  band energies     occupation 
      1      -2.5152      2.00000
      2       0.3238      2.00000
      3       4.8000      2.00000
      4       4.8000      2.00000
      5       9.3443      0.00000
      6      12.2342      0.00000
      7      21.7435      0.00000
      8      21.7458      0.00000

 k-point    20 :       0.5000    0.0000    0.5000
  band No.  band energies     occupation 
      1      -2.3983      2.00000
      2       0.1933      2.00000
      3       4.7853      2.00000
      4       4.7853      2.00000
      5       9.3122      0.00000
      6      12.2124      0.00000
      7      21.8037      0.00000
      8      21.8142      0.00000

 k-point    21 :       0.5000    0.0000    0.5000
  band No.  band energies     occupation 
      1      -2.3983      2.00000
      2       0.1933      2.00000
      3       4.7853      2.00000
      4       4.7853      2.00000
      5       9.3122      0.00000
      6      12.2124      0.00000
      7      21.8037      0.00000
      8      21.8045      0.00000

 k-point    22 :       0.5066    0.0132    0.5066
  band No.  band energies     occupation 
      1      -2.3976      2.00000
      2       0.1951      2.00000
      3       4.7703      2.00000
      4       4.7870      2.00000
      5       9.3240      0.00000
      6      12.2231      0.00000
      7      21.7963      0.00000
      8      21.8011      0.00000

 k-point    23 :       0.5132    0.0263    0.5132
  band No.  band energies     occupation 
      1      -2.3955      2.00000
      2       0.2005      2.00000
      3       4.7260      2.00000
      4       4.7921      2.00000
      5       9.3588      0.00000
      6      12.2551      0.00000
      7      21.7744      0.00000
      8      21.7821      0.00000

 k-point    24 :       0.5197    0.0395    0.5197
  band No.  band energies     occupation 
      1      -2.3921      2.00000
      2       0.2093      2.00000
      3       4.6544      2.00000
      4       4.8005      2.00000
      5       9.4142      0.00000
      6      12.3086      0.00000
      7      21.7377      0.00000
      8      21.7565      0.00000

 k-point    25 :       0.5263    0.0526    0.5263
  band No.  band energies     occupation 
      1      -2.3875      2.00000
      2       0.2217      2.00000
      3       4.5587      2.00000
      4       4.8123      2.00000
      5       9.4871      0.00000
      6      12.3838      0.00000
      7      21.6766      0.00000
      8      21.7168      0.00000

 k-point    26 :       0.5329    0.0658    0.5329
  band No.  band energies     occupation 
      1      -2.3819      2.00000
      2       0.2374      2.00000
      3       4.4425      2.00000
      4       4.8274      2.00000
      5       9.5737      0.00000
      6      12.4810      0.00000
      7      21.6099      0.00000
      8      21.6719      0.00000

 k-point    27 :       0.5395    0.0789    0.5395
  band No.  band energies     occupation 
      1      -2.3753      2.00000
      2       0.2565      2.00000
      3       4.3096      2.00000
      4       4.8459      2.00000
      5       9.6702      0.00000
      6      12.6001      0.00000
      7      21.5223      0.00000
      8      21.6480      0.00000

 k-point    28 :       0.5461    0.0921    0.5461
  band No.  band energies     occupation 
      1      -2.3680      2.00000
      2       0.2788      2.00000
      3       4.1639      2.00000
      4       4.8676      2.00000
      5       9.7732      0.00000
      6      12.7410      0.00000
      7      21.4261      0.00000
      8      21.5458      0.00000

 k-point    29 :       0.5526    0.1053    0.5526
  band No.  band energies     occupation 
      1      -2.3605      2.00000
      2       0.3042      2.00000
      3       4.0090      2.00000
      4       4.8927      2.00000
      5       9.8797      0.00000
      6      12.9031      0.00000
      7      21.3179      0.00000
      8      21.4712      0.00000

 k-point    30 :       0.5592    0.1184    0.5592
  band No.  band energies     occupation 
      1      -2.3529      2.00000
      2       0.3325      2.00000
      3       3.8480      2.00000
      4       4.9209      2.00000
      5       9.9878      0.00000
      6      13.0856      0.00000
      7      21.1992      0.00000
      8      21.3878      0.00000

 k-point    31 :       0.5658    0.1316    0.5658
  band No.  band energies     occupation 
      1      -2.3457      2.00000
      2       0.3635      2.00000
      3       3.6840      2.00000
      4       4.9524      2.00000
      5      10.0958      0.00000
      6      13.2871      0.00000
      7      21.0721      0.00000
      8      21.2976      0.00000

 k-point    32 :       0.5724    0.1447    0.5724
  band No.  band energies     occupation 
      1      -2.3393      2.00000
      2       0.3969      2.00000
      3       3.5196      2.00000
      4       4.9869      2.00000
      5      10.2030      0.00000
      6      13.5060      0.00000
      7      20.9346      0.00000
      8      21.2011      0.00000

 k-point    33 :       0.5789    0.1579    0.5789
  band No.  band energies     occupation 
      1      -2.3344      2.00000
      2       0.4324      2.00000
      3       3.3574      2.00000
      4       5.0247      2.00000
      5      10.3090      0.00000
      6      13.7405      0.00000
      7      20.7918      0.00000
      8      21.0983      0.00000

 k-point    34 :       0.5855    0.1711    0.5855
  band No.  band energies     occupation 
      1      -2.3316      2.00000
      2       0.4698      2.00000
      3       3.1998      2.00000
      4       5.0654      2.00000
      5      10.4138      0.00000
      6      13.9885      0.00000
      7      20.6412      0.00000
      8      20.9903      0.00000

 k-point    35 :       0.5921    0.1842    0.5921
  band No.  band energies     occupation 
      1      -2.3315      2.00000
      2       0.5085      2.00000
      3       3.0490      2.00000
      4       5.1091      2.00000
      5      10.5177      0.00000
      6      14.2477      0.00000
      7      20.4859      0.00000
      8      20.8765      0.00000

 k-point    36 :       0.5987    0.1974    0.5987
  band No.  band energies     occupation 
      1      -2.3350      2.00000
      2       0.5481      2.00000
      3       2.9073      2.00000
      4       5.1558      2.00000
      5      10.6210      0.00000
      6      14.5159      0.00000
      7      20.3266      0.00000
      8      20.7594      0.00000

 k-point    37 :       0.6053    0.2105    0.6053
  band No.  band energies     occupation 
      1      -2.3430      2.00000
      2       0.5881      2.00000
      3       2.7768      2.00000
      4       5.2053      2.00000
      5      10.7241      0.00000
      6      14.7903      0.00000
      7      20.1641      0.00000
      8      20.6419      0.00000

 k-point    38 :       0.6118    0.2237    0.6118
  band No.  band energies     occupation 
      1      -2.3563      2.00000
      2       0.6279      2.00000
      3       2.6597      2.00000
      4       5.2576      2.00000
      5      10.8275      0.00000
      6      15.0685      0.00000
      7      19.9984      0.00000
      8      20.5087      0.00000

 k-point    39 :       0.6184    0.2368    0.6184
  band No.  band energies     occupation 
      1      -2.3759      2.00000
      2       0.6671      2.00000
      3       2.5580      2.00000
      4       5.3125      2.00000
      5      10.9316      0.00000
      6      15.3472      0.00000
      7      19.8312      0.00000
      8      20.3771      0.00000

 k-point    40 :       0.6250    0.2500    0.6250
  band No.  band energies     occupation 
      1      -2.4027      2.00000
      2       0.7053      2.00000
      3       2.4733      2.00000
      4       5.3700      2.00000
      5      11.0367      0.00000
      6      15.6231      0.00000
      7      19.6627      0.00000
      8      20.2417      0.00000

 k-point    41 :       0.3750    0.3750    0.7500
  band No.  band energies     occupation 
      1      -2.4027      2.00000
      2       0.7053      2.00000
      3       2.4733      2.00000
      4       5.3700      2.00000
      5      11.0367      0.00000
      6      15.6231      0.00000
      7      19.6627      0.00000
      8      20.2422      0.00000

 k-point    42 :       0.3553    0.3553    0.7105
  band No.  band energies     occupation 
      1      -2.5343      2.00000
      2       0.8132      2.00000
      3       2.3340      2.00000
      4       5.5571      2.00000
      5      11.3615      0.00000
      6      16.3923      0.00000
      7      19.1574      0.00000
      8      19.8178      0.00000

 k-point    43 :       0.3355    0.3355    0.6711
  band No.  band energies     occupation 
      1      -2.7518      2.00000
      2       0.9257      2.00000
      3       2.3661      2.00000
      4       5.7632      2.00000
      5      11.7048      0.00000
      6      16.9621      0.00000
      7      18.6627      0.00000
      8      19.3812      0.00000

 k-point    44 :       0.3158    0.3158    0.6316
  band No.  band energies     occupation 
      1      -3.0509      2.00000
      2       1.0758      2.00000
      3       2.5366      2.00000
      4       5.9846      2.00000
      5      12.0695      0.00000
      6      17.2131      0.00000
      7      18.1908      0.00000
      8      18.9487      0.00000

 k-point    45 :       0.2961    0.2961    0.5921
  band No.  band energies     occupation 
      1      -3.4118      2.00000
      2       1.2875      2.00000
      3       2.8029      2.00000
      4       6.2163      2.00000
      5      12.4557      0.00000
      6      17.1731      0.00000
      7      17.7509      0.00000
      8      18.5320      0.00000

 k-point    46 :       0.2763    0.2763    0.5526
  band No.  band energies     occupation 
      1      -3.8097      2.00000
      2       1.5663      2.00000
      3       3.1345      2.00000
      4       6.4529      2.00000
      5      12.8605      0.00000
      6      16.9649      0.00000
      7      17.3502      0.00000
      8      18.1385      0.00000

 k-point    47 :       0.2566    0.2566    0.5132
  band No.  band energies     occupation 
      1      -4.2230      2.00000
      2       1.9074      2.00000
      3       3.5126      2.00000
      4       6.6881      2.00000
      5      13.2782      0.00000
      6      16.6826      0.00000
      7      16.9937      0.00000
      8      17.7751      0.00000

 k-point    48 :       0.2368    0.2368    0.4737
  band No.  band energies     occupation 
      1      -4.6352      2.00000
      2       2.3032      2.00000
      3       3.9248      2.00000
      4       6.9152      2.00000
      5      13.6988      0.00000
      6      16.3765      0.00000
      7      16.6836      0.00000
      8      17.4490      0.00000

 k-point    49 :       0.2171    0.2171    0.4342
  band No.  band energies     occupation 
      1      -5.0347      2.00000
      2       2.7465      2.00000
      3       4.3616      2.00000
      4       7.1274      2.00000
      5      14.1058      0.00000
      6      16.0728      0.00000
      7      16.4190      0.00000
      8      17.1707      0.00000

 k-point    50 :       0.1974    0.1974    0.3947
  band No.  band energies     occupation 
      1      -5.4135      2.00000
      2       3.2309      2.00000
      3       4.8143      2.00000
      4       7.3184      2.00000
      5      14.4733      0.00000
      6      15.7859      0.00000
      7      16.1957      0.00000
      8      16.9543      0.00000

 k-point    51 :       0.1776    0.1776    0.3553
  band No.  band energies     occupation 
      1      -5.7659      2.00000
      2       3.7505      2.00000
      3       5.2743      2.00000
      4       7.4834      2.00000
      5      14.7651      0.00000
      6      15.5243      0.00000
      7      16.0062      0.00000
      8      16.8156      0.00000

 k-point    52 :       0.1579    0.1579    0.3158
  band No.  band energies     occupation 
      1      -6.0880      2.00000
      2       4.2988      2.00000
      3       5.7318      2.00000
      4       7.6195      2.00000
      5      14.9461      0.00000
      6      15.2947      0.00000
      7      15.8420      0.00000
      8      16.7539      0.00000

 k-point    53 :       0.1382    0.1382    0.2763
  band No.  band energies     occupation 
      1      -6.3769      2.00000
      2       4.8688      2.00000
      3       6.1761      2.00000
      4       7.7264      2.00000
      5      14.9898      0.00000
      6      15.1249      0.00000
      7      15.6958      0.00000
      8      16.7199      0.00000

 k-point    54 :       0.1184    0.1184    0.2368
  band No.  band energies     occupation 
      1      -6.6304      2.00000
      2       5.4512      2.00000
      3       6.5954      2.00000
      4       7.8058      2.00000
      5      14.8634      0.00000
      6      15.0832      0.00000
      7      15.5637      0.00000
      8      16.6220      0.00000

 k-point    55 :       0.0987    0.0987    0.1974
  band No.  band energies     occupation 
      1      -6.8471      2.00000
      2       6.0332      2.00000
      3       6.9771      2.00000
      4       7.8616      2.00000
      5      14.7031      0.00000
      6      15.0712      0.00000
      7      15.4455      0.00000
      8      16.3959      0.00000

 k-point    56 :       0.0789    0.0789    0.1579
  band No.  band energies     occupation 
      1      -7.0257      2.00000
      2       6.5962      2.00000
      3       7.3088      2.00000
      4       7.8983      2.00000
      5      14.5440      0.00000
      6      15.0713      0.00000
      7      15.3431      0.00000
      8      16.0599      0.00000

 k-point    57 :       0.0592    0.0592    0.1184
  band No.  band energies     occupation 
      1      -7.1654      2.00000
      2       7.1129      2.00000
      3       7.5789      2.00000
      4       7.9208      2.00000
      5      14.3794      0.00000
      6      15.0874      0.00000
      7      15.2596      0.00000
      8      15.6950      0.00000

 k-point    58 :       0.0395    0.0395    0.0789
  band No.  band energies     occupation 
      1      -7.2656      2.00000
      2       7.5435      2.00000
      3       7.7783      2.00000
      4       7.9335      2.00000
      5      14.2082      0.00000
      6      15.1136      0.00000
      7      15.1977      0.00000
      8      15.3923      0.00000

 k-point    59 :       0.0197    0.0197    0.0395
  band No.  band energies     occupation 
      1      -7.3258      2.00000
      2       7.8365      2.00000
      3       7.9004      2.00000
      4       7.9397      2.00000
      5      14.0619      0.00000
      6      15.1374      0.00000
      7      15.1597      0.00000
      8      15.2070      0.00000

 k-point    60 :       0.0000    0.0000    0.0000
  band No.  band energies     occupation 
      1      -7.3459      2.00000
      2       7.9415      2.00000
      3       7.9415      2.00000
      4       7.9415      2.00000
      5      14.0022      0.00000
      6      15.1469      0.00000
      7      15.1469      0.00000
      8      15.1469      0.00000

 k-point    61 :       0.0000    0.0000    0.0000
  band No.  band energies     occupation 
      1      -7.3459      2.00000
      2       7.9415      2.00000
      3       7.9415      2.00000
      4       7.9415      2.00000
      5      14.0022      0.00000
      6      15.1469      0.00000
      7      15.1469      0.00000
      8      15.1469      0.00000

 k-point    62 :       0.0263    0.0263    0.0263
  band No.  band energies     occupation 
      1      -7.3325      2.00000
      2       7.8623      2.00000
      3       7.9316      2.00000
      4       7.9316      2.00000
      5      14.0424      0.00000
      6      15.1516      0.00000
      7      15.1657      0.00000
      8      15.1657      0.00000

 k-point    63 :       0.0526    0.0526    0.0526
  band No.  band energies     occupation 
      1      -7.2923      2.00000
      2       7.6347      2.00000
      3       7.9026      2.00000
      4       7.9026      2.00000
      5      14.1421      0.00000
      6      15.1784      0.00000
      7      15.2201      0.00000
      8      15.2201      0.00000

 k-point    64 :       0.0789    0.0789    0.0789
  band No.  band energies     occupation 
      1      -7.2255      2.00000
      2       7.2840      2.00000
      3       7.8562      2.00000
      4       7.8562      2.00000
      5      14.2439      0.00000
      6      15.2643      0.00000
      7      15.3047      0.00000
      8      15.3047      0.00000

 k-point    65 :       0.1053    0.1053    0.1053
  band No.  band energies     occupation 
      1      -7.1321      2.00000
      2       6.8399      2.00000
      3       7.7949      2.00000
      4       7.7949      2.00000
      5      14.2872      0.00000
      6      15.4103      0.00000
      7      15.4103      0.00000
      8      15.4468      0.00000

 k-point    66 :       0.1316    0.1316    0.1316
  band No.  band energies     occupation 
      1      -7.0126      2.00000
      2       6.3293      2.00000
      3       7.7221      2.00000
      4       7.7221      2.00000
      5      14.2588      0.00000
      6      15.5243      0.00000
      7      15.5243      0.00000
      8      15.7197      0.00000

 k-point    67 :       0.1579    0.1579    0.1579
  band No.  band energies     occupation 
      1      -6.8673      2.00000
      2       5.7735      2.00000
      3       7.6411      2.00000
      4       7.6411      2.00000
      5      14.1823      0.00000
      6      15.6316      0.00000
      7      15.6316      0.00000
      8      16.0443      0.00000

 k-point    68 :       0.1842    0.1842    0.1842
  band No.  band energies     occupation 
      1      -6.6967      2.00000
      2       5.1889      2.00000
      3       7.5551      2.00000
      4       7.5551      2.00000
      5      14.0809      0.00000
      6      15.7163      0.00000
      7      15.7163      0.00000
      8      16.3854      0.00000

 k-point    69 :       0.2105    0.2105    0.2105
  band No.  band energies     occupation 
      1      -6.5015      2.00000
      2       4.5878      2.00000
      3       7.4673      2.00000
      4       7.4673      2.00000
      5      13.9691      0.00000
      6      15.7650      0.00000
      7      15.7650      0.00000
      8      16.7183      0.00000

 k-point    70 :       0.2368    0.2368    0.2368
  band No.  band energies     occupation 
      1      -6.2828      2.00000
      2       3.9800      2.00000
      3       7.3802      2.00000
      4       7.3802      2.00000
      5      13.8558      0.00000
      6      15.7709      0.00000
      7      15.7709      0.00000
      8      17.0246      0.00000

 k-point    71 :       0.2632    0.2632    0.2632
  band No.  band energies     occupation 
      1      -6.0418      2.00000
      2       3.3735      2.00000
      3       7.2963      2.00000
      4       7.2963      2.00000
      5      13.7463      0.00000
      6      15.7353      0.00000
      7      15.7353      0.00000
      8      17.2907      0.00000

 k-point    72 :       0.2895    0.2895    0.2895
  band No.  band energies     occupation 
      1      -5.7804      2.00000
      2       2.7750      2.00000
      3       7.2174      2.00000
      4       7.2174      2.00000
      5      13.6443      0.00000
      6      15.6665      0.00000
      7      15.6665      0.00000
      8      17.5074      0.00000

 k-point    73 :       0.3158    0.3158    0.3158
  band No.  band energies     occupation 
      1      -5.5010      2.00000
      2       2.1911      2.00000
      3       7.1450      2.00000
      4       7.1450      2.00000
      5      13.5518      0.00000
      6      15.5764      0.00000
      7      15.5764      0.00000
      8      17.6709      0.00000

 k-point    74 :       0.3421    0.3421    0.3421
  band No.  band energies     occupation 
      1      -5.2076      2.00000
      2       1.6287      2.00000
      3       7.0803      2.00000
      4       7.0803      2.00000
      5      13.4704      0.00000
      6      15.4768      0.00000
      7      15.4768      0.00000
      8      17.7840      0.00000

 k-point    75 :       0.3684    0.3684    0.3684
  band No.  band energies     occupation 
      1      -4.9058      2.00000
      2       1.0958      2.00000
      3       7.0243      2.00000
      4       7.0243      2.00000
      5      13.4009      0.00000
      6      15.3779      0.00000
      7      15.3779      0.00000
      8      17.8540      0.00000

 k-point    76 :       0.3947    0.3947    0.3947
  band No.  band energies     occupation 
      1      -4.6047      2.00000
      2       0.6034      2.00000
      3       6.9777      2.00000
      4       6.9777      2.00000
      5      13.3438      0.00000
      6      15.2877      0.00000
      7      15.2877      0.00000
      8      17.8921      0.00000

 k-point    77 :       0.4211    0.4211    0.4211
  band No.  band energies     occupation 
      1      -4.3191      2.00000
      2       0.1676      2.00000
      3       6.9410      2.00000
      4       6.9410      2.00000
      5      13.2992      0.00000
      6      15.2123      0.00000
      7      15.2123      0.00000
      8      17.9090      0.00000

 k-point    78 :       0.4474    0.4474    0.4474
  band No.  band energies     occupation 
      1      -4.0723      2.00000
      2      -0.1872      2.00000
      3       6.9145      2.00000
      4       6.9145      2.00000
      5      13.2674      0.00000
      6      15.1557      0.00000
      7      15.1557      0.00000
      8      17.9140      0.00000

 k-point    79 :       0.4737    0.4737    0.4737
  band No.  band energies     occupation 
      1      -3.8983      2.00000
      2      -0.4262      2.00000
      3       6.8985      2.00000
      4       6.8985      2.00000
      5      13.2484      0.00000
      6      15.1207      0.00000
      7      15.1207      0.00000
      8      17.9142      0.00000

 k-point    80 :       0.5000    0.5000    0.5000
  band No.  band energies     occupation 
      1      -3.8345      2.00000
      2      -0.5117      2.00000
      3       6.8932      2.00000
      4       6.8932      2.00000
      5      13.2420      0.00000
      6      15.1088      0.00000
      7      15.1088      0.00000
      8      17.9139      0.00000

 k-point    81 :       0.5000    0.5000    0.5000
  band No.  band energies     occupation 
      1      -3.8345      2.00000
      2      -0.5117      2.00000
      3       6.8932      2.00000
      4       6.8932      2.00000
      5      13.2420      0.00000
      6      15.1088      0.00000
      7      15.1088      0.00000
      8      17.9139      0.00000

 k-point    82 :       0.5000    0.4868    0.5132
  band No.  band energies     occupation 
      1      -3.8270      2.00000
      2      -0.5036      2.00000
      3       6.8445      2.00000
      4       6.8805      2.00000
      5      13.2755      0.00000
      6      15.0617      0.00000
      7      15.1379      0.00000
      8      17.9699      0.00000

 k-point    83 :       0.5000    0.4737    0.5263
  band No.  band energies     occupation 
      1      -3.8045      2.00000
      2      -0.4792      2.00000
      3       6.7038      2.00000
      4       6.8423      2.00000
      5      13.3648      0.00000
      6      14.9394      0.00000
      7      15.2281      0.00000
      8      18.1197      0.00000

 k-point    84 :       0.5000    0.4605    0.5395
  band No.  band energies     occupation 
      1      -3.7672      2.00000
      2      -0.4387      2.00000
      3       6.4850      2.00000
      4       6.7780      2.00000
      5      13.4778      0.00000
      6      14.7870      0.00000
      7      15.3868      0.00000
      8      18.3219      0.00000

 k-point    85 :       0.5000    0.4474    0.5526
  band No.  band energies     occupation 
      1      -3.7153      2.00000
      2      -0.3824      2.00000
      3       6.2057      2.00000
      4       6.6869      2.00000
      5      13.5661      0.00000
      6      14.6596      0.00000
      7      15.6228      0.00000
      8      18.5331      0.00000

 k-point    86 :       0.5000    0.4342    0.5658
  band No.  band energies     occupation 
      1      -3.6492      2.00000
      2      -0.3106      2.00000
      3       5.8836      2.00000
      4       6.5683      2.00000
      5      13.5822      0.00000
      6      14.6075      0.00000
      7      15.9388      0.00000
      8      18.7172      0.00000

 k-point    87 :       0.5000    0.4211    0.5789
  band No.  band energies     occupation 
      1      -3.5694      2.00000
      2      -0.2239      2.00000
      3       5.5341      2.00000
      4       6.4220      2.00000
      5      13.5182      0.00000
      6      14.6444      0.00000
      7      16.3277      0.00000
      8      18.8482      0.00000

 k-point    88 :       0.5000    0.4079    0.5921
  band No.  band energies     occupation 
      1      -3.4765      2.00000
      2      -0.1232      2.00000
      3       5.1696      2.00000
      4       6.2483      2.00000
      5      13.4111      0.00000
      6      14.7432      0.00000
      7      16.7734      0.00000
      8      18.9121      0.00000

 k-point    89 :       0.5000    0.3947    0.6053
  band No.  band energies     occupation 
      1      -3.3714      2.00000
      2      -0.0095      2.00000
      3       4.8007      2.00000
      4       6.0484      2.00000
      5      13.2981      0.00000
      6      14.8763      0.00000
      7      17.2541      0.00000
      8      18.9082      0.00000

 k-point    90 :       0.5000    0.3816    0.6184
  band No.  band energies     occupation 
      1      -3.2553      2.00000
      2       0.1155      2.00000
      3       4.4360      2.00000
      4       5.8247      2.00000
      5      13.1994      0.00000
      6      15.0306      0.00000
      7      17.7395      0.00000
      8      18.8520      0.00000

 k-point    91 :       0.5000    0.3684    0.6316
  band No.  band energies     occupation 
      1      -3.1297      2.00000
      2       0.2496      2.00000
      3       4.0838      2.00000
      4       5.5802      2.00000
      5      13.1237      0.00000
      6      15.2013      0.00000
      7      18.1620      0.00000
      8      18.7967      0.00000

 k-point    92 :       0.5000    0.3553    0.6447
  band No.  band energies     occupation 
      1      -2.9965      2.00000
      2       0.3894      2.00000
      3       3.7522      2.00000
      4       5.3188      2.00000
      5      13.0729      0.00000
      6      15.3867      0.00000
      7      18.3206      0.00000
      8      18.9118      0.00000

 k-point    93 :       0.5000    0.3421    0.6579
  band No.  band energies     occupation 
      1      -2.8583      2.00000
      2       0.5301      2.00000
      3       3.4505      2.00000
      4       5.0448      2.00000
      5      13.0457      0.00000
      6      15.5862      0.00000
      7      18.2162      0.00000
      8      19.1161      0.00000

 k-point    94 :       0.5000    0.3289    0.6711
  band No.  band energies     occupation 
      1      -2.7187      2.00000
      2       0.6642      2.00000
      3       3.1904      2.00000
      4       4.7627      2.00000
      5      13.0387      0.00000
      6      15.7996      0.00000
      7      18.0471      0.00000
      8      19.1188      0.00000

 k-point    95 :       0.5000    0.3158    0.6842
  band No.  band energies     occupation 
      1      -2.5819      2.00000
      2       0.7817      2.00000
      3       2.9862      2.00000
      4       4.4776      2.00000
      5      13.0471      0.00000
      6      16.0264      0.00000
      7      17.8701      0.00000
      8      18.9279      0.00000

 k-point    96 :       0.5000    0.3026    0.6974
  band No.  band energies     occupation 
      1      -2.4537      2.00000
      2       0.8710      2.00000
      3       2.8541      2.00000
      4       4.1945      2.00000
      5      13.0654      0.00000
      6      16.2662      0.00000
      7      17.7048      0.00000
      8      18.6533      0.00000

 k-point    97 :       0.5000    0.2895    0.7105
  band No.  band energies     occupation 
      1      -2.3411      2.00000
      2       0.9241      2.00000
      3       2.8065      2.00000
      4       3.9194      2.00000
      5      13.0879      0.00000
      6      16.5174      0.00000
      7      17.5629      0.00000
      8      18.3530      0.00000

 k-point    98 :       0.5000    0.2763    0.7237
  band No.  band energies     occupation 
      1      -2.2521      2.00000
      2       0.9439      2.00000
      3       2.8427      2.00000
      4       3.6604      2.00000
      5      13.1088      0.00000
      6      16.7771      0.00000
      7      17.4514      0.00000
      8      18.0536      0.00000

 k-point    99 :       0.5000    0.2632    0.7368
  band No.  band energies     occupation 
      1      -2.1946      2.00000
      2       0.9449      2.00000
      3       2.9417      2.00000
      4       3.4340      2.00000
      5      13.1236      0.00000
      6      17.0356      0.00000
      7      17.3674      0.00000
      8      17.7834      0.00000

 k-point   100 :       0.5000    0.2500    0.7500
  band No.  band energies     occupation 
      1      -2.1746      2.00000
      2       0.9430      2.00000
      3       3.0215      2.00000
      4       3.3130      2.00000
      5      13.1289      0.00000
      6      17.2424      0.00000
      7      17.2667      0.00000
      8      17.6444      0.00000

 k-point   101 :       0.5000    0.2500    0.7500
  band No.  band energies     occupation 
      1      -2.1746      2.00000
      2       0.9430      2.00000
      3       3.0215      2.00000
      4       3.3130      2.00000
      5      13.1289      0.00000
      6      17.2424      0.00000
      7      17.2667      0.00000
      8      17.6444      0.00000

 k-point   102 :       0.5000    0.2368    0.7368
  band No.  band energies     occupation 
      1      -2.1763      2.00000
      2       0.9347      2.00000
      3       3.0353      2.00000
      4       3.3208      2.00000
      5      13.0875      0.00000
      6      16.9869      0.00000
      7      17.3126      0.00000
      8      17.9021      0.00000

 k-point   103 :       0.5000    0.2237    0.7237
  band No.  band energies     occupation 
      1      -2.1813      2.00000
      2       0.9108      2.00000
      3       3.0759      2.00000
      4       3.3442      2.00000
      5      12.9689      0.00000
      6      16.6031      0.00000
      7      17.4447      0.00000
      8      18.2921      0.00000

 k-point   104 :       0.5000    0.2105    0.7105
  band No.  band energies     occupation 
      1      -2.1894      2.00000
      2       0.8733      2.00000
      3       3.1409      2.00000
      4       3.3829      2.00000
      5      12.7867      0.00000
      6      16.2108      0.00000
      7      17.6489      0.00000
      8      18.6944      0.00000

 k-point   105 :       0.5000    0.1974    0.6974
  band No.  band energies     occupation 
      1      -2.2003      2.00000
      2       0.8250      2.00000
      3       3.2270      2.00000
      4       3.4362      2.00000
      5      12.5576      0.00000
      6      15.8220      0.00000
      7      17.9083      0.00000
      8      19.0958      0.00000

 k-point   106 :       0.5000    0.1842    0.6842
  band No.  band energies     occupation 
      1      -2.2137      2.00000
      2       0.7693      2.00000
      3       3.3305      2.00000
      4       3.5033      2.00000
      5      12.2965      0.00000
      6      15.4407      0.00000
      7      18.2075      0.00000
      8      19.4915      0.00000

 k-point   107 :       0.5000    0.1711    0.6711
  band No.  band energies     occupation 
      1      -2.2291      2.00000
      2       0.7089      2.00000
      3       3.4479      2.00000
      4       3.5833      2.00000
      5      12.0155      0.00000
      6      15.0694      0.00000
      7      18.5335      0.00000
      8      19.8773      0.00000

 k-point   108 :       0.5000    0.1579    0.6579
  band No.  band energies     occupation 
      1      -2.2460      2.00000
      2       0.6463      2.00000
      3       3.5757      2.00000
      4       3.6749      2.00000
      5      11.7238      0.00000
      6      14.7101      0.00000
      7      18.8760      0.00000
      8      20.2491      0.00000

 k-point   109 :       0.5000    0.1447    0.6447
  band No.  band energies     occupation 
      1      -2.2640      2.00000
      2       0.5838      2.00000
      3       3.7105      2.00000
      4       3.7766      2.00000
      5      11.4285      0.00000
      6      14.3649      0.00000
      7      19.2269      0.00000
      8      20.6029      0.00000

 k-point   110 :       0.5000    0.1316    0.6316
  band No.  band energies     occupation 
      1      -2.2824      2.00000
      2       0.5229      2.00000
      3       3.8493      2.00000
      4       3.8867      2.00000
      5      11.1354      0.00000
      6      14.0360      0.00000
      7      19.5791      0.00000
      8      20.9359      0.00000

 k-point   111 :       0.5000    0.1184    0.6184
  band No.  band energies     occupation 
      1      -2.3008      2.00000
      2       0.4650      2.00000
      3       3.9892      2.00000
      4       4.0030      2.00000
      5      10.8492      0.00000
      6      13.7255      0.00000
      7      19.9261      0.00000
      8      21.2402      0.00000

 k-point   112 :       0.5000    0.1053    0.6053
  band No.  band energies     occupation 
      1      -2.3187      2.00000
      2       0.4111      2.00000
      3       4.1232      2.00000
      4       4.1270      2.00000
      5      10.5742      0.00000
      6      13.4359      0.00000
      7      20.2619      0.00000
      8      21.5158      0.00000

 k-point   113 :       0.5000    0.0921    0.5921
  band No.  band energies     occupation 
      1      -2.3356      2.00000
      2       0.3621      2.00000
      3       4.2443      2.00000
      4       4.2598      2.00000
      5      10.3146      0.00000
      6      13.1699      0.00000
      7      20.5804      0.00000
      8      21.7539      0.00000

 k-point   114 :       0.5000    0.0789    0.5789
  band No.  band energies     occupation 
      1      -2.3511      2.00000
      2       0.3185      2.00000
      3       4.3631      2.00000
      4       4.3844      2.00000
      5      10.0747      0.00000
      6      12.9303      0.00000
      7      20.8754      0.00000
      8      21.8451      0.00000

 k-point   115 :       0.5000    0.0658    0.5658
  band No.  band energies     occupation 
      1      -2.3649      2.00000
      2       0.2810      2.00000
      3       4.4755      2.00000
      4       4.4975      2.00000
      5       9.8589      0.00000
      6      12.7202      0.00000
      7      21.1402      0.00000
      8      21.8360      0.00000

 k-point   116 :       0.5000    0.0526    0.5526
  band No.  band energies     occupation 
      1      -2.3766      2.00000
      2       0.2498      2.00000
      3       4.5773      2.00000
      4       4.5958      2.00000
      5       9.6722      0.00000
      6      12.5426      0.00000
      7      21.3690      0.00000
      8      21.8253      0.00000

 k-point   117 :       0.5000    0.0395    0.5395
  band No.  band energies     occupation 
      1      -2.3859      2.00000
      2       0.2252      2.00000
      3       4.6635      2.00000
      4       4.6762      2.00000
      5       9.5196      0.00000
      6      12.4005      0.00000
      7      21.5548      0.00000
      8      21.8140      0.00000

 k-point   118 :       0.5000    0.0263    0.5263
  band No.  band energies     occupation 
      1      -2.3927      2.00000
      2       0.2076      2.00000
      3       4.7295      2.00000
      4       4.7360      2.00000
      5       9.4060      0.00000
      6      12.2969      0.00000
      7      21.6913      0.00000
      8      21.8129      0.00000

 k-point   119 :       0.5000    0.0132    0.5132
  band No.  band energies     occupation 
      1      -2.3969      2.00000
      2       0.1969      2.00000
      3       4.7711      2.00000
      4       4.7729      2.00000
      5       9.3359      0.00000
      6      12.2337      0.00000
      7      21.7771      0.00000
      8      21.8051      0.00000

 k-point   120 :       0.5000    0.0000    0.5000
  band No.  band energies     occupation 
      1      -2.3983      2.00000
      2       0.1933      2.00000
      3       4.7853      2.00000
      4       4.7853      2.00000
      5       9.3122      0.00000
      6      12.2124      0.00000
      7      21.8037      0.00000
      8      21.8049      0.00000

 k-point   121 :       0.0000    0.0000    0.0000
  band No.  band energies     occupation 
      1      -7.3459      2.00000
      2       7.9415      2.00000
      3       7.9415      2.00000
      4       7.9415      2.00000
      5      14.0022      0.00000
      6      15.1469      0.00000
      7      15.1469      0.00000
      8      15.1469      0.00000

 k-point   122 :      -0.0263    0.0000   -0.0263
  band No.  band energies     occupation 
      1      -7.3281      2.00000
      2       7.8820      2.00000
      3       7.9052      2.00000
      4       7.9052      2.00000
      5      14.0570      0.00000
      6      15.0974      0.00000
      7      15.1994      0.00000
      8      15.1994      0.00000

 k-point   123 :      -0.0526    0.0000   -0.0526
  band No.  band energies     occupation 
      1      -7.2745      2.00000
      2       7.7107      2.00000
      3       7.8002      2.00000
      4       7.8002      2.00000
      5      14.2052      0.00000
      6      14.9596      0.00000
      7      15.3527      0.00000
      8      15.3527      0.00000

 k-point   124 :      -0.0789    0.0000   -0.0789
  band No.  band energies     occupation 
      1      -7.1853      2.00000
      2       7.4458      2.00000
      3       7.6367      2.00000
      4       7.6367      2.00000
      5      14.3699      0.00000
      6      14.7941      0.00000
      7      15.5959      0.00000
      8      15.5959      0.00000

 k-point   125 :      -0.1053    0.0000   -0.1053
  band No.  band energies     occupation 
      1      -7.0608      2.00000
      2       7.1089      2.00000
      3       7.4282      2.00000
      4       7.4282      2.00000
      5      14.2721      0.00000
      6      14.8513      0.00000
      7      15.9143      0.00000
      8      15.9143      0.00000

 k-point   126 :      -0.1316    0.0000   -0.1316
  band No.  band energies     occupation 
      1      -6.9013      2.00000
      2       6.7187      2.00000
      3       7.1889      2.00000
      4       7.1889      2.00000
      5      13.9454      0.00000
      6      15.0494      0.00000
      7      16.2923      0.00000
      8      16.2923      0.00000

 k-point   127 :      -0.1579    0.0000   -0.1579
  band No.  band energies     occupation 
      1      -6.7073      2.00000
      2       6.2897      2.00000
      3       6.9317      2.00000
      4       6.9317      2.00000
      5      13.5492      0.00000
      6      15.1549      0.00000
      7      16.7155      0.00000
      8      16.7155      0.00000

 k-point   128 :      -0.1842    0.0000   -0.1842
  band No.  band energies     occupation 
      1      -6.4794      2.00000
      2       5.8316      2.00000
      3       6.6673      2.00000
      4       6.6673      2.00000
      5      13.1157      0.00000
      6      15.0680      0.00000
      7      17.1713      0.00000
      8      17.1713      0.00000

 k-point   129 :      -0.2105    0.0000   -0.2105
  band No.  band energies     occupation 
      1      -6.2185      2.00000
      2       5.3505      2.00000
      3       6.4043      2.00000
      4       6.4043      2.00000
      5      12.6584      0.00000
      6      14.7928      0.00000
      7      17.6493      0.00000
      8      17.6493      0.00000

 k-point   130 :      -0.2368    0.0000   -0.2368
  band No.  band energies     occupation 
      1      -5.9256      2.00000
      2       4.8504      2.00000
      3       6.1495      2.00000
      4       6.1495      2.00000
      5      12.1885      0.00000
      6      14.4158      0.00000
      7      18.1407      0.00000
      8      18.1408      0.00000

 k-point   131 :      -0.2632    0.0000   -0.2632
  band No.  band energies     occupation 
      1      -5.6020      2.00000
      2       4.3339      2.00000
      3       5.9081      2.00000
      4       5.9081      2.00000
      5      11.7182      0.00000
      6      14.0165      0.00000
      7      18.6380      0.00000
      8      18.6380      0.00000

 k-point   132 :      -0.2895    0.0000   -0.2895
  band No.  band energies     occupation 
      1      -5.2496      2.00000
      2       3.8032      2.00000
      3       5.6843      2.00000
      4       5.6843      2.00000
      5      11.2616      0.00000
      6      13.6384      0.00000
      7      19.1344      0.00000
      8      19.1345      0.00000

 k-point   133 :      -0.3158    0.0000   -0.3158
  band No.  band energies     occupation 
      1      -4.8708      2.00000
      2       3.2613      2.00000
      3       5.4811      2.00000
      4       5.4811      2.00000
      5      10.8328      0.00000
      6      13.3000      0.00000
      7      19.6226      0.00000
      8      19.6227      0.00000

 k-point   134 :      -0.3421    0.0000   -0.3421
  band No.  band energies     occupation 
      1      -4.4692      2.00000
      2       2.7125      2.00000
      3       5.3011      2.00000
      4       5.3011      2.00000
      5      10.4442      0.00000
      6      13.0074      0.00000
      7      20.0947      0.00000
      8      20.0973      0.00000

 k-point   135 :      -0.3684    0.0000   -0.3684
  band No.  band energies     occupation 
      1      -4.0500      2.00000
      2       2.1635      2.00000
      3       5.1461      2.00000
      4       5.1461      2.00000
      5      10.1053      0.00000
      6      12.7618      0.00000
      7      20.5403      0.00000
      8      20.5424      0.00000

 k-point   136 :      -0.3947    0.0000   -0.3947
  band No.  band energies     occupation 
      1      -3.6217      2.00000
      2       1.6247      2.00000
      3       5.0175      2.00000
      4       5.0175      2.00000
      5       9.8226      0.00000
      6      12.5626      0.00000
      7      20.9463      0.00000
      8      20.9465      0.00000

 k-point   137 :      -0.4211    0.0000   -0.4211
  band No.  band energies     occupation 
      1      -3.1993      2.00000
      2       1.1134      2.00000
      3       4.9165      2.00000
      4       4.9165      2.00000
      5       9.6003      0.00000
      6      12.4088      0.00000
      7      21.2958      0.00000
      8      21.3001      0.00000

 k-point   138 :      -0.4474    0.0000   -0.4474
  band No.  band energies     occupation 
      1      -2.8117      2.00000
      2       0.6604      2.00000
      3       4.8438      2.00000
      4       4.8438      2.00000
      5       9.4405      0.00000
      6      12.2995      0.00000
      7      21.5685      0.00000
      8      21.5692      0.00000

 k-point   139 :      -0.4737    0.0000   -0.4737
  band No.  band energies     occupation 
      1      -2.5152      2.00000
      2       0.3238      2.00000
      3       4.8000      2.00000
      4       4.8000      2.00000
      5       9.3443      0.00000
      6      12.2342      0.00000
      7      21.7435      0.00000
      8      21.7611      0.00000

 k-point   140 :      -0.5000    0.0000   -0.5000
  band No.  band energies     occupation 
      1      -2.3983      2.00000
      2       0.1933      2.00000
      3       4.7853      2.00000
      4       4.7853      2.00000
      5       9.3122      0.00000
      6      12.2124      0.00000
      7      21.8037      0.00000
      8      21.8039      0.00000

 k-point   141 :      -0.5000    0.0000   -0.5000
  band No.  band energies     occupation 
      1      -2.3983      2.00000
      2       0.1933      2.00000
      3       4.7853      2.00000
      4       4.7853      2.00000
      5       9.3122      0.00000
      6      12.2124      0.00000
      7      21.8037      0.00000
      8      21.8264      0.00000

 k-point   142 :      -0.5066   -0.0132   -0.5066
  band No.  band energies     occupation 
      1      -2.3976      2.00000
      2       0.1951      2.00000
      3       4.7703      2.00000
      4       4.7870      2.00000
      5       9.3240      0.00000
      6      12.2231      0.00000
      7      21.7960      0.00000
      8      21.7983      0.00000

 k-point   143 :      -0.5132   -0.0263   -0.5132
  band No.  band energies     occupation 
      1      -2.3955      2.00000
      2       0.2005      2.00000
      3       4.7260      2.00000
      4       4.7921      2.00000
      5       9.3588      0.00000
      6      12.2551      0.00000
      7      21.7778      0.00000
      8      21.7827      0.00000

 k-point   144 :      -0.5197   -0.0395   -0.5197
  band No.  band energies     occupation 
      1      -2.3921      2.00000
      2       0.2093      2.00000
      3       4.6544      2.00000
      4       4.8005      2.00000
      5       9.4142      0.00000
      6      12.3086      0.00000
      7      21.7315      0.00000
      8      21.7555      0.00000

 k-point   145 :      -0.5263   -0.0526   -0.5263
  band No.  band energies     occupation 
      1      -2.3875      2.00000
      2       0.2217      2.00000
      3       4.5587      2.00000
      4       4.8123      2.00000
      5       9.4871      0.00000
      6      12.3838      0.00000
      7      21.6796      0.00000
      8      21.7186      0.00000

 k-point   146 :      -0.5329   -0.0658   -0.5329
  band No.  band energies     occupation 
      1      -2.3819      2.00000
      2       0.2374      2.00000
      3       4.4425      2.00000
      4       4.8274      2.00000
      5       9.5737      0.00000
      6      12.4810      0.00000
      7      21.6068      0.00000
      8      21.6692      0.00000

 k-point   147 :      -0.5395   -0.0789   -0.5395
  band No.  band energies     occupation 
      1      -2.3753      2.00000
      2       0.2565      2.00000
      3       4.3096      2.00000
      4       4.8459      2.00000
      5       9.6702      0.00000
      6      12.6001      0.00000
      7      21.5224      0.00000
      8      21.6144      0.00000

 k-point   148 :      -0.5461   -0.0921   -0.5461
  band No.  band energies     occupation 
      1      -2.3680      2.00000
      2       0.2788      2.00000
      3       4.1639      2.00000
      4       4.8676      2.00000
      5       9.7732      0.00000
      6      12.7410      0.00000
      7      21.4263      0.00000
      8      21.5453      0.00000

 k-point   149 :      -0.5526   -0.1053   -0.5526
  band No.  band energies     occupation 
      1      -2.3605      2.00000
      2       0.3042      2.00000
      3       4.0090      2.00000
      4       4.8927      2.00000
      5       9.8797      0.00000
      6      12.9031      0.00000
      7      21.3191      0.00000
      8      21.4715      0.00000

 k-point   150 :      -0.5592   -0.1184   -0.5592
  band No.  band energies     occupation 
      1      -2.3529      2.00000
      2       0.3325      2.00000
      3       3.8480      2.00000
      4       4.9209      2.00000
      5       9.9878      0.00000
      6      13.0856      0.00000
      7      21.2003      0.00000
      8      21.3877      0.00000

 k-point   151 :      -0.5658   -0.1316   -0.5658
  band No.  band energies     occupation 
      1      -2.3457      2.00000
      2       0.3635      2.00000
      3       3.6840      2.00000
      4       4.9524      2.00000
      5      10.0958      0.00000
      6      13.2871      0.00000
      7      21.0716      0.00000
      8      21.2984      0.00000

 k-point   152 :      -0.5724   -0.1447   -0.5724
  band No.  band energies     occupation 
      1      -2.3393      2.00000
      2       0.3969      2.00000
      3       3.5196      2.00000
      4       4.9869      2.00000
      5      10.2030      0.00000
      6      13.5060      0.00000
      7      20.9350      0.00000
      8      21.2094      0.00000

 k-point   153 :      -0.5789   -0.1579   -0.5789
  band No.  band energies     occupation 
      1      -2.3344      2.00000
      2       0.4324      2.00000
      3       3.3574      2.00000
      4       5.0247      2.00000
      5      10.3090      0.00000
      6      13.7405      0.00000
      7      20.7919      0.00000
      8      21.0993      0.00000

 k-point   154 :      -0.5855   -0.1711   -0.5855
  band No.  band energies     occupation 
      1      -2.3316      2.00000
      2       0.4698      2.00000
      3       3.1998      2.00000
      4       5.0654      2.00000
      5      10.4138      0.00000
      6      13.9885      0.00000
      7      20.6413      0.00000
      8      20.9899      0.00000

 k-point   155 :      -0.5921   -0.1842   -0.5921
  band No.  band energies     occupation 
      1      -2.3315      2.00000
      2       0.5085      2.00000
      3       3.0490      2.00000
      4       5.1091      2.00000
      5      10.5177      0.00000
      6      14.2477      0.00000
      7      20.4864      0.00000
      8      20.8782      0.00000

 k-point   156 :      -0.5987   -0.1974   -0.5987
  band No.  band energies     occupation 
      1      -2.3350      2.00000
      2       0.5481      2.00000
      3       2.9073      2.00000
      4       5.1558      2.00000
      5      10.6210      0.00000
      6      14.5159      0.00000
      7      20.3266      0.00000
      8      20.7585      0.00000

 k-point   157 :      -0.6053   -0.2105   -0.6053
  band No.  band energies     occupation 
      1      -2.3430      2.00000
      2       0.5881      2.00000
      3       2.7768      2.00000
      4       5.2053      2.00000
      5      10.7241      0.00000
      6      14.7903      0.00000
      7      20.1643      0.00000
      8      20.6359      0.00000

 k-point   158 :      -0.6118   -0.2237   -0.6118
  band No.  band energies     occupation 
      1      -2.3563      2.00000
      2       0.6279      2.00000
      3       2.6597      2.00000
      4       5.2576      2.00000
      5      10.8275      0.00000
      6      15.0685      0.00000
      7      19.9984      0.00000
      8      20.5085      0.00000

 k-point   159 :      -0.6184   -0.2368   -0.6184
  band No.  band energies     occupation 
      1      -2.3759      2.00000
      2       0.6671      2.00000
      3       2.5580      2.00000
      4       5.3125      2.00000
      5      10.9316      0.00000
      6      15.3472      0.00000
      7      19.8310      0.00000
      8      20.3769      0.00000

 k-point   160 :      -0.6250   -0.2500   -0.6250
  band No.  band energies     occupation 
      1      -2.4027      2.00000
      2       0.7053      2.00000
      3       2.4733      2.00000
      4       5.3700      2.00000
      5      11.0367      0.00000
      6      15.6231      0.00000
      7      19.6627      0.00000
      8      20.2418      0.00000

 k-point   161 :      -0.3750   -0.3750   -0.7500
  band No.  band energies     occupation 
      1      -2.4027      2.00000
      2       0.7053      2.00000
      3       2.4733      2.00000
      4       5.3700      2.00000
      5      11.0367      0.00000
      6      15.6231      0.00000
      7      19.6627      0.00000
      8      20.2417      0.00000

 k-point   162 :      -0.3553   -0.3553   -0.7105
  band No.  band energies     occupation 
      1      -2.5343      2.00000
      2       0.8132      2.00000
      3       2.3340      2.00000
      4       5.5571      2.00000
      5      11.3615      0.00000
      6      16.3923      0.00000
      7      19.1574      0.00000
      8      19.8179      0.00000

 k-point   163 :      -0.3355   -0.3355   -0.6711
  band No.  band energies     occupation 
      1      -2.7518      2.00000
      2       0.9257      2.00000
      3       2.3661      2.00000
      4       5.7632      2.00000
      5      11.7048      0.00000
      6      16.9621      0.00000
      7      18.6627      0.00000
      8      19.3812      0.00000

 k-point   164 :      -0.3158   -0.3158   -0.6316
  band No.  band energies     occupation 
      1      -3.0509      2.00000
      2       1.0758      2.00000
      3       2.5366      2.00000
      4       5.9846      2.00000
      5      12.0695      0.00000
      6      17.2131      0.00000
      7      18.1908      0.00000
      8      18.9487      0.00000

 k-point   165 :      -0.2961   -0.2961   -0.5921
  band No.  band energies     occupation 
      1      -3.4118      2.00000
      2       1.2875      2.00000
      3       2.8029      2.00000
      4       6.2163      2.00000
      5      12.4557      0.00000
      6      17.1731      0.00000
      7      17.7509      0.00000
      8      18.5320      0.00000

 k-point   166 :      -0.2763   -0.2763   -0.5526
  band No.  band energies     occupation 
      1      -3.8097      2.00000
      2       1.5663      2.00000
      3       3.1345      2.00000
      4       6.4529      2.00000
      5      12.8605      0.00000
      6      16.9649      0.00000
      7      17.3502      0.00000
      8      18.1385      0.00000

 k-point   167 :      -0.2566   -0.2566   -0.5132
  band No.  band energies     occupation 
      1      -4.2230      2.00000
      2       1.9074      2.00000
      3       3.5126      2.00000
      4       6.6881      2.00000
      5      13.2782      0.00000
      6      16.6826      0.00000
      7      16.9937      0.00000
      8      17.7751      0.00000

 k-point   168 :      -0.2368   -0.2368   -0.4737
  band No.  band energies     occupation 
      1      -4.6352      2.00000
      2       2.3032      2.00000
      3       3.9248      2.00000
      4       6.9152      2.00000
      5      13.6988      0.00000
      6      16.3765      0.00000
      7      16.6836      0.00000
      8      17.4490      0.00000

 k-point   169 :      -0.2171   -0.2171   -0.4342
  band No.  band energies     occupation 
      1      -5.0347      2.00000
      2       2.7465      2.00000
      3       4.3616      2.00000
      4       7.1274      2.00000
      5      14.1058      0.00000
      6      16.0728      0.00000
      7      16.4190      0.00000
      8      17.1707      0.00000

 k-point   170 :      -0.1974   -0.1974   -0.3947
  band No.  band energies     occupation 
      1      -5.4135      2.00000
      2       3.2309      2.00000
      3       4.8143      2.00000
      4       7.3184      2.00000
      5      14.4733      0.00000
      6      15.7859      0.00000
      7      16.1957      0.00000
      8      16.9543      0.00000

 k-point   171 :      -0.1776   -0.1776   -0.3553
  band No.  band energies     occupation 
      1      -5.7659      2.00000
      2       3.7505      2.00000
      3       5.2743      2.00000
      4       7.4834      2.00000
      5      14.7651      0.00000
      6      15.5243      0.00000
      7      16.0062      0.00000
      8      16.8156      0.00000

 k-point   172 :      -0.1579   -0.1579   -0.3158
  band No.  band energies     occupation 
      1      -6.0880      2.00000
      2       4.2988      2.00000
      3       5.7318      2.00000
      4       7.6195      2.00000
      5      14.9461      0.00000
      6      15.2947      0.00000
      7      15.8420      0.00000
      8      16.7539      0.00000

 k-point   173 :      -0.1382   -0.1382   -0.2763
  band No.  band energies     occupation 
      1      -6.3769      2.00000
      2       4.8688      2.00000
      3       6.1761      2.00000
      4       7.7264      2.00000
      5      14.9898      0.00000
      6      15.1249      0.00000
      7      15.6958      0.00000
      8      16.7199      0.00000

 k-point   174 :      -0.1184   -0.1184   -0.2368
  band No.  band energies     occupation 
      1      -6.6304      2.00000
      2       5.4512      2.00000
      3       6.5954      2.00000
      4       7.8058      2.00000
      5      14.8634      0.00000
      6      15.0832      0.00000
      7      15.5637      0.00000
      8      16.6220      0.00000

 k-point   175 :      -0.0987   -0.0987   -0.1974
  band No.  band energies     occupation 
      1      -6.8471      2.00000
      2       6.0332      2.00000
      3       6.9771      2.00000
      4       7.8616      2.00000
      5      14.7031      0.00000
      6      15.0712      0.00000
      7      15.4455      0.00000
      8      16.3959      0.00000

 k-point   176 :      -0.0789   -0.0789   -0.1579
  band No.  band energies     occupation 
      1      -7.0257      2.00000
      2       6.5962      2.00000
      3       7.3088      2.00000
      4       7.8983      2.00000
      5      14.5440      0.00000
      6      15.0713      0.00000
      7      15.3431      0.00000
      8      16.0599      0.00000

 k-point   177 :      -0.0592   -0.0592   -0.1184
  band No.  band energies     occupation 
      1      -7.1654      2.00000
      2       7.1129      2.00000
      3       7.5789      2.00000
      4       7.9208      2.00000
      5      14.3794      0.00000
      6      15.0874      0.00000
      7      15.2596      0.00000
      8      15.6950      0.00000

 k-point   178 :      -0.0395   -0.0395   -0.0789
  band No.  band energies     occupation 
      1      -7.2656      2.00000
      2       7.5435      2.00000
      3       7.7783      2.00000
      4       7.9335      2.00000
      5      14.2082      0.00000
      6      15.1136      0.00000
      7      15.1977      0.00000
      8      15.3923      0.00000

 k-point   179 :      -0.0197   -0.0197   -0.0395
  band No.  band energies     occupation 
      1      -7.3258      2.00000
      2       7.8365      2.00000
      3       7.9004      2.00000
      4       7.9397      2.00000
      5      14.0619      0.00000
      6      15.1374      0.00000
      7      15.1597      0.00000
      8      15.2070      0.00000

 k-point   180 :       0.0000    0.0000    0.0000
  band No.  band energies     occupation 
      1      -7.3459      2.00000
      2       7.9415      2.00000
      3       7.9415      2.00000
      4       7.9415      2.00000
      5      14.0022      0.00000
      6      15.1469      0.00000
      7      15.1469      0.00000
      8      15.1469      0.00000

 k-point   181 :       0.0000    0.0000    0.0000
  band No.  band energies     occupation 
      1      -7.3459      2.00000
      2       7.9415      2.00000
      3       7.9415      2.00000
      4       7.9415      2.00000
      5      14.0022      0.00000
      6      15.1469      0.00000
      7      15.1469      0.00000
      8      15.1469      0.00000

 k-point   182 :      -0.0263   -0.0263   -0.0263
  band No.  band energies     occupation 
      1      -7.3325      2.00000
      2       7.8623      2.00000
      3       7.9316      2.00000
      4       7.9316      2.00000
      5      14.0424      0.00000
      6      15.1516      0.00000
      7      15.1657      0.00000
      8      15.1657      0.00000

 k-point   183 :      -0.0526   -0.0526   -0.0526
  band No.  band energies     occupation 
      1      -7.2923      2.00000
      2       7.6347      2.00000
      3       7.9026      2.00000
      4       7.9026      2.00000
      5      14.1421      0.00000
      6      15.1784      0.00000
      7      15.2201      0.00000
      8      15.2201      0.00000

 k-point   184 :      -0.0789   -0.0789   -0.0789
  band No.  band energies     occupation 
      1      -7.2255      2.00000
      2       7.2840      2.00000
      3       7.8562      2.00000
      4       7.8562      2.00000
      5      14.2439      0.00000
      6      15.2643      0.00000
      7      15.3047      0.00000
      8      15.3047      0.00000

 k-point   185 :      -0.1053   -0.1053   -0.1053
  band No.  band energies     occupation 
      1      -7.1321      2.00000
      2       6.8399      2.00000
      3       7.7949      2.00000
      4       7.7949      2.00000
      5      14.2872      0.00000
      6      15.4103      0.00000
      7      15.4103      0.00000
      8      15.4468      0.00000

 k-point   186 :      -0.1316   -0.1316   -0.1316
  band No.  band energies     occupation 
      1      -7.0126      2.00000
      2       6.3293      2.00000
      3       7.7221      2.00000
      4       7.7221      2.00000
      5      14.2588      0.00000
      6      15.5243      0.00000
      7      15.5243      0.00000
      8      15.7197      0.00000

 k-point   187 :      -0.1579   -0.1579   -0.1579
  band No.  band energies     occupation 
      1      -6.8673      2.00000
      2       5.7735      2.00000
      3       7.6411      2.00000
      4       7.6411      2.00000
      5      14.1823      0.00000
      6      15.6316      0.00000
      7      15.6316      0.00000
      8      16.0443      0.00000

 k-point   188 :      -0.1842   -0.1842   -0.1842
  band No.  band energies     occupation 
      1      -6.6967      2.00000
      2       5.1889      2.00000
      3       7.5551      2.00000
      4       7.5551      2.00000
      5      14.0809      0.00000
      6      15.7163      0.00000
      7      15.7163      0.00000
      8      16.3854      0.00000

 k-point   189 :      -0.2105   -0.2105   -0.2105
  band No.  band energies     occupation 
      1      -6.5015      2.00000
      2       4.5878      2.00000
      3       7.4673      2.00000
      4       7.4673      2.00000
      5      13.9691      0.00000
      6      15.7650      0.00000
      7      15.7650      0.00000
      8      16.7183      0.00000

 k-point   190 :      -0.2368   -0.2368   -0.2368
  band No.  band energies     occupation 
      1      -6.2828      2.00000
      2       3.9800      2.00000
      3       7.3802      2.00000
      4       7.3802      2.00000
      5      13.8558      0.00000
      6      15.7709      0.00000
      7      15.7709      0.00000
      8      17.0246      0.00000

 k-point   191 :      -0.2632   -0.2632   -0.2632
  band No.  band energies     occupation 
      1      -6.0418      2.00000
      2       3.3735      2.00000
      3       7.2963      2.00000
      4       7.2963      2.00000
      5      13.7463      0.00000
      6      15.7353      0.00000
      7      15.7353      0.00000
      8      17.2907      0.00000

 k-point   192 :      -0.2895   -0.2895   -0.2895
  band No.  band energies     occupation 
      1      -5.7804      2.00000
      2       2.7750      2.00000
      3       7.2174      2.00000
      4       7.2174      2.00000
      5      13.6443      0.00000
      6      15.6665      0.00000
      7      15.6665      0.00000
      8      17.5074      0.00000

 k-point   193 :      -0.3158   -0.3158   -0.3158
  band No.  band energies     occupation 
      1      -5.5010      2.00000
      2       2.1911      2.00000
      3       7.1450      2.00000
      4       7.1450      2.00000
      5      13.5518      0.00000
      6      15.5764      0.00000
      7      15.5764      0.00000
      8      17.6709      0.00000

 k-point   194 :      -0.3421   -0.3421   -0.3421
  band No.  band energies     occupation 
      1      -5.2076      2.00000
      2       1.6287      2.00000
      3       7.0803      2.00000
      4       7.0803      2.00000
      5      13.4704      0.00000
      6      15.4768      0.00000
      7      15.4768      0.00000
      8      17.7840      0.00000

 k-point   195 :      -0.3684   -0.3684   -0.3684
  band No.  band energies     occupation 
      1      -4.9058      2.00000
      2       1.0958      2.00000
      3       7.0243      2.00000
      4       7.0243      2.00000
      5      13.4009      0.00000
      6      15.3779      0.00000
      7      15.3779      0.00000
      8      17.8540      0.00000

 k-point   196 :      -0.3947   -0.3947   -0.3947
  band No.  band energies     occupation 
      1      -4.6047      2.00000
      2       0.6034      2.00000
      3       6.9777      2.00000
      4       6.9777      2.00000
      5      13.3438      0.00000
      6      15.2877      0.00000
      7      15.2877      0.00000
      8      17.8921      0.00000

 k-point   197 :      -0.4211   -0.4211   -0.4211
  band No.  band energies     occupation 
      1      -4.3191      2.00000
      2       0.1676      2.00000
      3       6.9410      2.00000
      4       6.9410      2.00000
      5      13.2992      0.00000
      6      15.2123      0.00000
      7      15.2123      0.00000
      8      17.9090      0.00000

 k-point   198 :      -0.4474   -0.4474   -0.4474
  band No.  band energies     occupation 
      1      -4.0723      2.00000
      2      -0.1872      2.00000
      3       6.9145      2.00000
      4       6.9145      2.00000
      5      13.2674      0.00000
      6      15.1557      0.00000
      7      15.1557      0.00000
      8      17.9140      0.00000

 k-point   199 :      -0.4737   -0.4737   -0.4737
  band No.  band energies     occupation 
      1      -3.8983      2.00000
      2      -0.4262      2.00000
      3       6.8985      2.00000
      4       6.8985      2.00000
      5      13.2484      0.00000
      6      15.1207      0.00000
      7      15.1207      0.00000
      8      17.9142      0.00000

 k-point   200 :      -0.5000   -0.5000   -0.5000
  band No.  band energies     occupation 
      1      -3.8345      2.00000
      2      -0.5117      2.00000
      3       6.8932      2.00000
      4       6.8932      2.00000
      5      13.2420      0.00000
      6      15.1088      0.00000
      7      15.1088      0.00000
      8      17.9139      0.00000

 k-point   201 :      -0.5000   -0.5000   -0.5000
  band No.  band energies     occupation 
      1      -3.8345      2.00000
      2      -0.5117      2.00000
      3       6.8932      2.00000
      4       6.8932      2.00000
      5      13.2420      0.00000
      6      15.1088      0.00000
      7      15.1088      0.00000
      8      17.9139      0.00000

 k-point   202 :      -0.5000   -0.4868   -0.5132
  band No.  band energies     occupation 
      1      -3.8270      2.00000
      2      -0.5036      2.00000
      3       6.8445      2.00000
      4       6.8805      2.00000
      5      13.2755      0.00000
      6      15.0617      0.00000
      7      15.1379      0.00000
      8      17.9699      0.00000

 k-point   203 :      -0.5000   -0.4737   -0.5263
  band No.  band energies     occupation 
      1      -3.8045      2.00000
      2      -0.4792      2.00000
      3       6.7038      2.00000
      4       6.8423      2.00000
      5      13.3648      0.00000
      6      14.9394      0.00000
      7      15.2281      0.00000
      8      18.1197      0.00000

 k-point   204 :      -0.5000   -0.4605   -0.5395
  band No.  band energies     occupation 
      1      -3.7672      2.00000
      2      -0.4387      2.00000
      3       6.4850      2.00000
      4       6.7780      2.00000
      5      13.4778      0.00000
      6      14.7870      0.00000
      7      15.3869      0.00000
      8      18.3219      0.00000

 k-point   205 :      -0.5000   -0.4474   -0.5526
  band No.  band energies     occupation 
      1      -3.7153      2.00000
      2      -0.3824      2.00000
      3       6.2057      2.00000
      4       6.6869      2.00000
      5      13.5661      0.00000
      6      14.6596      0.00000
      7      15.6228      0.00000
      8      18.5331      0.00000

 k-point   206 :      -0.5000   -0.4342   -0.5658
  band No.  band energies     occupation 
      1      -3.6492      2.00000
      2      -0.3106      2.00000
      3       5.8836      2.00000
      4       6.5683      2.00000
      5      13.5822      0.00000
      6      14.6075      0.00000
      7      15.9388      0.00000
      8      18.7172      0.00000

 k-point   207 :      -0.5000   -0.4211   -0.5789
  band No.  band energies     occupation 
      1      -3.5694      2.00000
      2      -0.2239      2.00000
      3       5.5341      2.00000
      4       6.4220      2.00000
      5      13.5182      0.00000
      6      14.6444      0.00000
      7      16.3277      0.00000
      8      18.8482      0.00000

 k-point   208 :      -0.5000   -0.4079   -0.5921
  band No.  band energies     occupation 
      1      -3.4765      2.00000
      2      -0.1232      2.00000
      3       5.1696      2.00000
      4       6.2483      2.00000
      5      13.4111      0.00000
      6      14.7432      0.00000
      7      16.7734      0.00000
      8      18.9121      0.00000

 k-point   209 :      -0.5000   -0.3947   -0.6053
  band No.  band energies     occupation 
      1      -3.3714      2.00000
      2      -0.0095      2.00000
      3       4.8007      2.00000
      4       6.0484      2.00000
      5      13.2981      0.00000
      6      14.8763      0.00000
      7      17.2541      0.00000
      8      18.9082      0.00000

 k-point   210 :      -0.5000   -0.3816   -0.6184
  band No.  band energies     occupation 
      1      -3.2553      2.00000
      2       0.1155      2.00000
      3       4.4360      2.00000
      4       5.8247      2.00000
      5      13.1994      0.00000
      6      15.0306      0.00000
      7      17.7395      0.00000
      8      18.8520      0.00000

 k-point   211 :      -0.5000   -0.3684   -0.6316
  band No.  band energies     occupation 
      1      -3.1297      2.00000
      2       0.2496      2.00000
      3       4.0838      2.00000
      4       5.5802      2.00000
      5      13.1237      0.00000
      6      15.2013      0.00000
      7      18.1620      0.00000
      8      18.7967      0.00000

 k-point   212 :      -0.5000   -0.3553   -0.6447
  band No.  band energies     occupation 
      1      -2.9965      2.00000
      2       0.3894      2.00000
      3       3.7522      2.00000
      4       5.3188      2.00000
      5      13.0729      0.00000
      6      15.3867      0.00000
      7      18.3206      0.00000
      8      18.9119      0.00000

 k-point   213 :      -0.5000   -0.3421   -0.6579
  band No.  band energies     occupation 
      1      -2.8583      2.00000
      2       0.5301      2.00000
      3       3.4505      2.00000
      4       5.0448      2.00000
      5      13.0457      0.00000
      6      15.5862      0.00000
      7      18.2162      0.00000
      8      19.1161      0.00000

 k-point   214 :      -0.5000   -0.3289   -0.6711
  band No.  band energies     occupation 
      1      -2.7187      2.00000
      2       0.6642      2.00000
      3       3.1904      2.00000
      4       4.7627      2.00000
      5      13.0387      0.00000
      6      15.7996      0.00000
      7      18.0471      0.00000
      8      19.1188      0.00000

 k-point   215 :      -0.5000   -0.3158   -0.6842
  band No.  band energies     occupation 
      1      -2.5819      2.00000
      2       0.7817      2.00000
      3       2.9862      2.00000
      4       4.4776      2.00000
      5      13.0471      0.00000
      6      16.0264      0.00000
      7      17.8701      0.00000
      8      18.9279      0.00000

 k-point   216 :      -0.5000   -0.3026   -0.6974
  band No.  band energies     occupation 
      1      -2.4537      2.00000
      2       0.8710      2.00000
      3       2.8541      2.00000
      4       4.1945      2.00000
      5      13.0654      0.00000
      6      16.2662      0.00000
      7      17.7048      0.00000
      8      18.6533      0.00000

 k-point   217 :      -0.5000   -0.2895   -0.7105
  band No.  band energies     occupation 
      1      -2.3411      2.00000
      2       0.9241      2.00000
      3       2.8065      2.00000
      4       3.9194      2.00000
      5      13.0879      0.00000
      6      16.5174      0.00000
      7      17.5629      0.00000
      8      18.3530      0.00000

 k-point   218 :      -0.5000   -0.2763   -0.7237
  band No.  band energies     occupation 
      1      -2.2521      2.00000
      2       0.9439      2.00000
      3       2.8427      2.00000
      4       3.6604      2.00000
      5      13.1088      0.00000
      6      16.7771      0.00000
      7      17.4514      0.00000
      8      18.0536      0.00000

 k-point   219 :      -0.5000   -0.2632   -0.7368
  band No.  band energies     occupation 
      1      -2.1946      2.00000
      2       0.9449      2.00000
      3       2.9417      2.00000
      4       3.4340      2.00000
      5      13.1236      0.00000
      6      17.0356      0.00000
      7      17.3674      0.00000
      8      17.7834      0.00000

 k-point   220 :      -0.5000   -0.2500   -0.7500
  band No.  band energies     occupation 
      1      -2.1746      2.00000
      2       0.9430      2.00000
      3       3.0215      2.00000
      4       3.3130      2.00000
      5      13.1289      0.00000
      6      17.2424      0.00000
      7      17.2667      0.00000
      8      17.6444      0.00000

 k-point   221 :      -0.5000   -0.2500   -0.7500
  band No.  band energies     occupation 
      1      -2.1746      2.00000
      2       0.9430      2.00000
      3       3.0215      2.00000
      4       3.3130      2.00000
      5      13.1289      0.00000
      6      17.2424      0.00000
      7      17.2667      0.00000
      8      17.6444      0.00000

 k-point   222 :      -0.5000   -0.2368   -0.7368
  band No.  band energies     occupation 
      1      -2.1763      2.00000
      2       0.9347      2.00000
      3       3.0353      2.00000
      4       3.3208      2.00000
      5      13.0875      0.00000
      6      16.9869      0.00000
      7      17.3126      0.00000
      8      17.9021      0.00000

 k-point   223 :      -0.5000   -0.2237   -0.7237
  band No.  band energies     occupation 
      1      -2.1813      2.00000
      2       0.9108      2.00000
      3       3.0759      2.00000
      4       3.3442      2.00000
      5      12.9689      0.00000
      6      16.6031      0.00000
      7      17.4447      0.00000
      8      18.2921      0.00000

 k-point   224 :      -0.5000   -0.2105   -0.7105
  band No.  band energies     occupation 
      1      -2.1894      2.00000
      2       0.8733      2.00000
      3       3.1409      2.00000
      4       3.3829      2.00000
      5      12.7867      0.00000
      6      16.2108      0.00000
      7      17.6489      0.00000
      8      18.6944      0.00000

 k-point   225 :      -0.5000   -0.1974   -0.6974
  band No.  band energies     occupation 
      1      -2.2003      2.00000
      2       0.8250      2.00000
      3       3.2270      2.00000
      4       3.4362      2.00000
      5      12.5576      0.00000
      6      15.8220      0.00000
      7      17.9083      0.00000
      8      19.0958      0.00000

 k-point   226 :      -0.5000   -0.1842   -0.6842
  band No.  band energies     occupation 
      1      -2.2137      2.00000
      2       0.7693      2.00000
      3       3.3305      2.00000
      4       3.5033      2.00000
      5      12.2965      0.00000
      6      15.4407      0.00000
      7      18.2075      0.00000
      8      19.4915      0.00000

 k-point   227 :      -0.5000   -0.1711   -0.6711
  band No.  band energies     occupation 
      1      -2.2291      2.00000
      2       0.7089      2.00000
      3       3.4479      2.00000
      4       3.5833      2.00000
      5      12.0155      0.00000
      6      15.0694      0.00000
      7      18.5335      0.00000
      8      19.8773      0.00000

 k-point   228 :      -0.5000   -0.1579   -0.6579
  band No.  band energies     occupation 
      1      -2.2460      2.00000
      2       0.6463      2.00000
      3       3.5757      2.00000
      4       3.6749      2.00000
      5      11.7238      0.00000
      6      14.7101      0.00000
      7      18.8760      0.00000
      8      20.2491      0.00000

 k-point   229 :      -0.5000   -0.1447   -0.6447
  band No.  band energies     occupation 
      1      -2.2640      2.00000
      2       0.5838      2.00000
      3       3.7105      2.00000
      4       3.7766      2.00000
      5      11.4285      0.00000
      6      14.3649      0.00000
      7      19.2269      0.00000
      8      20.6029      0.00000

 k-point   230 :      -0.5000   -0.1316   -0.6316
  band No.  band energies     occupation 
      1      -2.2824      2.00000
      2       0.5229      2.00000
      3       3.8493      2.00000
      4       3.8867      2.00000
      5      11.1354      0.00000
      6      14.0360      0.00000
      7      19.5791      0.00000
      8      20.9346      0.00000

 k-point   231 :      -0.5000   -0.1184   -0.6184
  band No.  band energies     occupation 
      1      -2.3008      2.00000
      2       0.4650      2.00000
      3       3.9892      2.00000
      4       4.0030      2.00000
      5      10.8492      0.00000
      6      13.7255      0.00000
      7      19.9261      0.00000
      8      21.2410      0.00000

 k-point   232 :      -0.5000   -0.1053   -0.6053
  band No.  band energies     occupation 
      1      -2.3187      2.00000
      2       0.4111      2.00000
      3       4.1232      2.00000
      4       4.1270      2.00000
      5      10.5742      0.00000
      6      13.4359      0.00000
      7      20.2619      0.00000
      8      21.5205      0.00000

 k-point   233 :      -0.5000   -0.0921   -0.5921
  band No.  band energies     occupation 
      1      -2.3356      2.00000
      2       0.3621      2.00000
      3       4.2443      2.00000
      4       4.2598      2.00000
      5      10.3146      0.00000
      6      13.1699      0.00000
      7      20.5804      0.00000
      8      21.7513      0.00000

 k-point   234 :      -0.5000   -0.0789   -0.5789
  band No.  band energies     occupation 
      1      -2.3511      2.00000
      2       0.3185      2.00000
      3       4.3631      2.00000
      4       4.3844      2.00000
      5      10.0747      0.00000
      6      12.9303      0.00000
      7      20.8754      0.00000
      8      21.8367      0.00000

 k-point   235 :      -0.5000   -0.0658   -0.5658
  band No.  band energies     occupation 
      1      -2.3649      2.00000
      2       0.2810      2.00000
      3       4.4755      2.00000
      4       4.4975      2.00000
      5       9.8589      0.00000
      6      12.7202      0.00000
      7      21.1404      0.00000
      8      21.8357      0.00000

 k-point   236 :      -0.5000   -0.0526   -0.5526
  band No.  band energies     occupation 
      1      -2.3766      2.00000
      2       0.2498      2.00000
      3       4.5773      2.00000
      4       4.5958      2.00000
      5       9.6722      0.00000
      6      12.5426      0.00000
      7      21.3692      0.00000
      8      21.8216      0.00000

 k-point   237 :      -0.5000   -0.0395   -0.5395
  band No.  band energies     occupation 
      1      -2.3859      2.00000
      2       0.2252      2.00000
      3       4.6635      2.00000
      4       4.6762      2.00000
      5       9.5196      0.00000
      6      12.4005      0.00000
      7      21.5541      0.00000
      8      21.8160      0.00000

 k-point   238 :      -0.5000   -0.0263   -0.5263
  band No.  band energies     occupation 
      1      -2.3927      2.00000
      2       0.2076      2.00000
      3       4.7295      2.00000
      4       4.7360      2.00000
      5       9.4060      0.00000
      6      12.2969      0.00000
      7      21.6940      0.00000
      8      21.8103      0.00000

 k-point   239 :      -0.5000   -0.0132   -0.5132
  band No.  band energies     occupation 
      1      -2.3969      2.00000
      2       0.1969      2.00000
      3       4.7711      2.00000
      4       4.7729      2.00000
      5       9.3359      0.00000
      6      12.2337      0.00000
      7      21.7758      0.00000
      8      21.8134      0.00000

 k-point   240 :      -0.5000    0.0000   -0.5000
  band No.  band energies     occupation 
      1      -2.3983      2.00000
      2       0.1933      2.00000
      3       4.7853      2.00000
      4       4.7853      2.00000
      5       9.3122      0.00000
      6      12.2124      0.00000
      7      21.8037      0.00000
      8      21.8138      0.00000


--------------------------------------------------------------------------------------------------------


 soft charge-density along one line, spin component           1
         0         1         2         3         4         5         6         7         8         9
 total charge-density along one line
 
 pseudopotential strength for first ion, spin component:           1
 18.083  25.227  -0.000  -0.000  -0.000  -0.000  -0.000  -0.000
 25.227  35.198  -0.000  -0.000  -0.000  -0.000  -0.000  -0.000
 -0.000  -0.000   4.123  -0.000  -0.000   7.680  -0.000  -0.000
 -0.000  -0.000  -0.000   4.123  -0.000  -0.000   7.680  -0.000
 -0.000  -0.000  -0.000  -0.000   4.123  -0.000  -0.000   7.680
 -0.000  -0.000   7.680  -0.000  -0.000  14.319  -0.000  -0.000
 -0.000  -0.000  -0.000   7.680  -0.000  -0.000  14.319  -0.000
 -0.000  -0.000  -0.000  -0.000   7.680  -0.000  -0.000  14.319
 total augmentation occupancy for first ion, spin component:           1
  2.000   0.000   0.000   0.000   0.000   0.000   0.000   0.000
  0.000   0.000   0.000   0.000   0.000   0.000   0.000   0.000
  0.000   0.000   0.667   0.000   0.000   0.000   0.000   0.000
  0.000   0.000   0.000   0.667   0.000   0.000   0.000   0.000
  0.000   0.000   0.000   0.000   0.667   0.000   0.000   0.000
  0.000   0.000   0.000   0.000   0.000   0.000   0.000   0.000
  0.000   0.000   0.000   0.000   0.000   0.000   0.000   0.000
  0.000   0.000   0.000   0.000   0.000   0.000   0.000   0.000


------------------------ aborting loop because EDIFF is reached ----------------------------------------


 


 total charge     
 
# of ion       s       p       d       tot
------------------------------------------
    1        0.675   0.918   0.000   1.593
    2        0.799   1.821   0.000   2.620
--------------------------------------------------
tot          1.474   2.740   0.000   4.213
 
    CHARGE:  cpu time    0.0558: real time    0.0558
    FORLOC:  cpu time    0.0022: real time    0.0022
    FORNL :  cpu time    0.0944: real time    0.0945
    STRESS:  cpu time    0.6060: real time    0.6078
    FORCOR:  cpu time    0.0092: real time    0.0093
    FORHAR:  cpu time    0.0023: real time    0.0023
    OFIELD:  cpu time    0.0000: real time    0.0000

  FORCE on cell =-STRESS in cart. coord.  units (eV):
  Direction    XX          YY          ZZ          XY          YZ          ZX
  --------------------------------------------------------------------------------------
  Alpha Z    11.02920    11.02920    11.02920
  Ewald     -94.46158   -94.46158   -94.46158    -0.00000    -0.00000     0.00000
  Hartree    11.67953    11.67953    11.67953     0.00000     0.00000     0.00000
  E(xc)     -28.32556   -28.32556   -28.32556     0.00000     0.00000     0.00000
  Local     -20.69133   -20.69133   -20.69133     0.00000     0.00000     0.00000
  n-local    31.87591    27.98066    30.74652    -0.12581    -0.02278    -0.15176
  augment    -5.51873    -5.51873    -5.51873    -0.00000    -0.00000    -0.00000
  Kinetic    96.87613    95.43598   100.18667    -2.12150    -1.36213    -2.23096
  Fock        0.00000     0.00000     0.00000     0.00000     0.00000     0.00000
  -------------------------------------------------------------------------------------
  Total       1.41216     1.41216     1.41216     0.00000    -0.00000    -0.00000
  in kB     107.73690   107.73690   107.73690     0.00000    -0.00000    -0.00000
  external pressure =      107.74 kB  Pullay stress =        0.00 kB


 VOLUME and BASIS-vectors are now :
 -----------------------------------------------------------------------------
  energy-cutoff  :      520.00
  volume of cell :       21.00
      direct lattice vectors                 reciprocal lattice vectors
     0.000000000  2.189780000  2.189780000    -0.228333440  0.228333440  0.228333440
     2.189780000  0.000000000  2.189780000     0.228333440 -0.228333440  0.228333440
     2.189780000  2.189780000  0.000000000     0.228333440  0.228333440 -0.228333440

  length of vectors
     3.096816575  3.096816575  3.096816575     0.395485119  0.395485119  0.395485119


 FORCES acting on ions
    electron-ion (+dipol)            ewald-force                    non-local-force                 convergence-correction
 -----------------------------------------------------------------------------------------------
   -.802E-07 -.802E-07 -.789E-07   -.207E-14 0.394E-14 0.296E-14   0.416E-16 0.416E-16 0.902E-16   0.332E-09 0.332E-09 0.324E-09
   0.855E-08 0.855E-08 0.673E-08   0.208E-14 -.444E-14 -.286E-14   0.555E-16 0.971E-16 0.815E-16   -.232E-08 -.232E-08 -.235E-08
 -----------------------------------------------------------------------------------------------
   -.717E-07 -.717E-07 -.722E-07   0.154E-16 -.498E-15 0.105E-15   0.971E-16 0.139E-15 0.172E-15   -.199E-08 -.199E-08 -.203E-08
 
 
 POSITION                                       TOTAL-FORCE (eV/Angst)
 -----------------------------------------------------------------------------------
      1.09489      1.09489      1.09489        -0.000000     -0.000000     -0.000000
      0.00000      0.00000      0.00000         0.000000      0.000000      0.000000
 -----------------------------------------------------------------------------------
    total drift:                               -0.000000     -0.000000     -0.000000


--------------------------------------------------------------------------------------------------------



  FREE ENERGIE OF THE ION-ELECTRON SYSTEM (eV)
  ---------------------------------------------------
  free  energy   TOTEN  =       -13.50764801 eV

  energy  without entropy=      -13.50764801  energy(sigma->0) =      -13.50764801
 


--------------------------------------------------------------------------------------------------------


    POTLOK:  cpu time    0.0212: real time    0.0212


--------------------------------------------------------------------------------------------------------


 writing wavefunctions
     LOOP+:  cpu time    7.1307: real time    7.1413
    4ORBIT:  cpu time    0.0000: real time    0.0000
 


 total charge     
 
# of ion       s       p       d       tot
------------------------------------------
    1        0.675   0.918   0.000   1.593
    2        0.799   1.821   0.000   2.620
--------------------------------------------------
tot          1.474   2.740   0.000   4.213
 

 total amount of memory used by VASP MPI-rank0    59059. kBytes
=======================================================================

   base      :      30000. kBytes
   nonl-proj :      18082. kBytes
   fftplans  :       4177. kBytes
   grid      :       2156. kBytes
   one-center:          6. kBytes
   wavefun   :       4638. kBytes
 
  
  
 General timing and accounting informations for this job:
 ========================================================
  
                  Total CPU time used (sec):        7.993
                            User time (sec):        7.465
                          System time (sec):        0.528
                         Elapsed time (sec):        8.020
  
                   Maximum memory used (kb):      109776.
                   Average memory used (kb):           0.
  
                          Minor page faults:        18779
                          Major page faults:            0
                 Voluntary context switches:          180
