PROCAR lm decomposed
# of k-points:  240         # of bands:    8         # of ions:    2

 k-point     1 :    0.00000000 0.00000000 0.00000000     weight = 0.00416667

band     1 # energy   -7.34592252 # occ.  2.00000000
 
ion      s     py     pz     px    dxy    dyz    dz2    dxz  x2-y2    tot
    1  0.244  0.000  0.000  0.000  0.000  0.000  0.000  0.000  0.000  0.244
    2  0.252  0.000  0.000  0.000  0.000  0.000  0.000  0.000  0.000  0.252
tot    0.496  0.000  0.000  0.000  0.000  0.000  0.000  0.000  0.000  0.496
 
band     2 # energy    7.94152032 # occ.  2.00000000
 
ion      s     py     pz     px    dxy    dyz    dz2    dxz  x2-y2    tot
    1  0.000  0.028  0.000  0.029  0.000  0.000  0.000  0.000  0.000  0.057
    2  0.000  0.229  0.003  0.239  0.000  0.000  0.000  0.000  0.000  0.471
tot    0.000  0.257  0.004  0.268  0.000  0.000  0.000  0.000  0.000  0.528
 
band     3 # energy    7.94152032 # occ.  2.00000000
 
ion      s     py     pz     px    dxy    dyz    dz2    dxz  x2-y2    tot
    1  0.000  0.010  0.038  0.009  0.000  0.000  0.000  0.000  0.000  0.057
    2  0.000  0.085  0.311  0.075  0.000  0.000  0.000  0.000  0.000  0.471
tot    0.000  0.095  0.348  0.084  0.000  0.000  0.000  0.000  0.000  0.528
 
band     4 # energy    7.94152090 # occ.  2.00000000
 
ion      s     py     pz     px    dxy    dyz    dz2    dxz  x2-y2    tot
    1  0.000  0.019  0.019  0.019  0.000  0.000  0.000  0.000  0.000  0.057
    2  0.000  0.157  0.157  0.157  0.000  0.000  0.000  0.000  0.000  0.471
tot    0.000  0.176  0.176  0.176  0.000  0.000  0.000  0.000  0.000  0.528
 
band     5 # energy   14.00215207 # occ.  0.00000000
 
ion      s     py     pz     px    dxy    dyz    dz2    dxz  x2-y2    tot
    1  0.126  0.000  0.000  0.000  0.000  0.000  0.000  0.000  0.000  0.126
    2  0.446  0.000  0.000  0.000  0.000  0.000  0.000  0.000  0.000  0.446
tot    0.572  0.000  0.000  0.000  0.000  0.000  0.000  0.000  0.000  0.572
 
band     6 # energy   15.14689590 # occ.  0.00000000
 
ion      s     py     pz     px    dxy    dyz    dz2    dxz  x2-y2    tot
    1  0.000  0.166  0.166  0.167  0.000  0.000  0.000  0.000  0.000  0.499
    2  0.000  0.003  0.003  0.003  0.000  0.000  0.000  0.000  0.000  0.010
tot    0.000  0.169  0.169  0.170  0.000  0.000  0.000  0.000  0.000  0.509
 
band     7 # energy   15.14689594 # occ.  0.00000000
 
ion      s     py     pz     px    dxy    dyz    dz2    dxz  x2-y2    tot
    1  0.000  0.144  0.168  0.187  0.000  0.000  0.000  0.000  0.000  0.499
    2  0.000  0.003  0.003  0.004  0.000  0.000  0.000  0.000  0.000  0.010
tot    0.000  0.147  0.171  0.191  0.000  0.000  0.000  0.000  0.000  0.509
 
band     8 # energy   15.14689594 # occ.  0.00000000
 
ion      s     py     pz     px    dxy    dyz    dz2    dxz  x2-y2    tot
    1  0.000  0.189  0.165  0.145  0.000  0.000  0.000  0.000  0.000  0.499
    2  0.000  0.004  0.003  0.003  0.000  0.000  0.000  0.000  0.000  0.010
tot    0.000  0.193  0.168  0.147  0.000  0.000  0.000  0.000  0.000  0.509
 

 k-point     2 :    0.02631579 0.00000000 0.02631579     weight = 0.00416667

band     1 # energy   -7.32806363 # occ.  2.00000000
 
ion      s     py     pz     px    dxy    dyz    dz2    dxz  x2-y2    tot
    1  0.243  0.000  0.000  0.000  0.000  0.000  0.000  0.000  0.000  0.244
    2  0.252  0.000  0.000  0.000  0.000  0.000  0.000  0.000  0.000  0.252
tot    0.496  0.000  0.000  0.000  0.000  0.000  0.000  0.000  0.000  0.496
 
band     2 # energy    7.88198414 # occ.  2.00000000
 
ion      s     py     pz     px    dxy    dyz    dz2    dxz  x2-y2    tot
    1  0.002  0.057  0.000  0.000  0.000  0.000  0.000  0.000  0.000  0.059
    2  0.006  0.463  0.000  0.000  0.000  0.000  0.000  0.000  0.000  0.469
tot    0.008  0.520  0.000  0.000  0.000  0.000  0.000  0.000  0.000  0.528
 
band     3 # energy    7.90524172 # occ.  2.00000000
 
ion      s     py     pz     px    dxy    dyz    dz2    dxz  x2-y2    tot
    1  0.000  0.000  0.030  0.030  0.000  0.000  0.000  0.000  0.000  0.060
    2  0.000  0.000  0.234  0.234  0.000  0.000  0.000  0.000  0.000  0.467
tot    0.000  0.000  0.264  0.264  0.000  0.000  0.000  0.000  0.000  0.528
 
band     4 # energy    7.90524210 # occ.  2.00000000
 
ion      s     py     pz     px    dxy    dyz    dz2    dxz  x2-y2    tot
    1  0.000  0.000  0.030  0.030  0.000  0.000  0.000  0.000  0.000  0.060
    2  0.000  0.000  0.234  0.234  0.000  0.000  0.000  0.000  0.000  0.467
tot    0.000  0.000  0.264  0.264  0.000  0.000  0.000  0.000  0.000  0.528
 
band     5 # energy   14.05696752 # occ.  0.00000000
 
ion      s     py     pz     px    dxy    dyz    dz2    dxz  x2-y2    tot
    1  0.122  0.003  0.000  0.000  0.000  0.000  0.000  0.000  0.000  0.125
    2  0.438  0.008  0.000  0.000  0.000  0.000  0.000  0.000  0.000  0.446
tot    0.560  0.011  0.000  0.000  0.000  0.000  0.000  0.000  0.000  0.571
 
band     6 # energy   15.09741456 # occ.  0.00000000
 
ion      s     py     pz     px    dxy    dyz    dz2    dxz  x2-y2    tot
    1  0.008  0.489  0.000  0.000  0.000  0.000  0.000  0.000  0.000  0.497
    2  0.001  0.011  0.000  0.000  0.000  0.000  0.000  0.000  0.000  0.011
tot    0.008  0.500  0.000  0.000  0.000  0.000  0.000  0.000  0.000  0.508
 
band     7 # energy   15.19935163 # occ.  0.00000000
 
ion      s     py     pz     px    dxy    dyz    dz2    dxz  x2-y2    tot
    1  0.000  0.000  0.284  0.211  0.000  0.000  0.000  0.000  0.000  0.495
    2  0.000  0.000  0.008  0.006  0.000  0.000  0.000  0.000  0.000  0.014
tot    0.000  0.000  0.291  0.218  0.000  0.000  0.000  0.000  0.000  0.509
 
band     8 # energy   15.19935165 # occ.  0.00000000
 
ion      s     py     pz     px    dxy    dyz    dz2    dxz  x2-y2    tot
    1  0.000  0.000  0.211  0.284  0.000  0.000  0.000  0.000  0.000  0.495
    2  0.000  0.000  0.006  0.008  0.000  0.000  0.000  0.000  0.000  0.014
tot    0.000  0.000  0.218  0.291  0.000  0.000  0.000  0.000  0.000  0.509
 

 k-point     3 :    0.05263158 0.00000000 0.05263158     weight = 0.00416667

band     1 # energy   -7.27445361 # occ.  2.00000000
 
ion      s     py     pz     px    dxy    dyz    dz2    dxz  x2-y2    tot
    1  0.242  0.001  0.000  0.000  0.000  0.000  0.000  0.000  0.000  0.243
    2  0.253  0.001  0.000  0.000  0.000  0.000  0.000  0.000  0.000  0.253
tot    0.495  0.002  0.000  0.000  0.000  0.000  0.000  0.000  0.000  0.497
 
band     2 # energy    7.71068978 # occ.  2.00000000
 
ion      s     py     pz     px    dxy    dyz    dz2    dxz  x2-y2    tot
    1  0.008  0.056  0.000  0.000  0.000  0.000  0.000  0.000  0.000  0.064
    2  0.022  0.443  0.000  0.000  0.000  0.000  0.000  0.000  0.000  0.465
tot    0.030  0.499  0.000  0.000  0.000  0.000  0.000  0.000  0.000  0.529
 
band     3 # energy    7.80022807 # occ.  2.00000000
 
ion      s     py     pz     px    dxy    dyz    dz2    dxz  x2-y2    tot
    1  0.000  0.000  0.035  0.035  0.000  0.000  0.000  0.000  0.000  0.070
    2  0.000  0.000  0.229  0.229  0.000  0.000  0.000  0.000  0.000  0.458
tot    0.000  0.000  0.264  0.264  0.000  0.000  0.000  0.000  0.000  0.528
 
band     4 # energy    7.80022845 # occ.  2.00000000
 
ion      s     py     pz     px    dxy    dyz    dz2    dxz  x2-y2    tot
    1  0.000  0.000  0.035  0.035  0.000  0.000  0.000  0.000  0.000  0.070
    2  0.000  0.000  0.229  0.229  0.000  0.000  0.000  0.000  0.000  0.458
tot    0.000  0.000  0.264  0.264  0.000  0.000  0.000  0.000  0.000  0.528
 
band     5 # energy   14.20524516 # occ.  0.00000000
 
ion      s     py     pz     px    dxy    dyz    dz2    dxz  x2-y2    tot
    1  0.106  0.020  0.000  0.000  0.000  0.000  0.000  0.000  0.000  0.127
    2  0.413  0.028  0.000  0.000  0.000  0.000  0.000  0.000  0.000  0.441
tot    0.519  0.048  0.000  0.000  0.000  0.000  0.000  0.000  0.000  0.567
 
band     6 # energy   14.95959399 # occ.  0.00000000
 
ion      s     py     pz     px    dxy    dyz    dz2    dxz  x2-y2    tot
    1  0.034  0.456  0.000  0.000  0.000  0.000  0.000  0.000  0.000  0.489
    2  0.006  0.015  0.000  0.000  0.000  0.000  0.000  0.000  0.000  0.021
tot    0.039  0.471  0.000  0.000  0.000  0.000  0.000  0.000  0.000  0.510
 
band     7 # energy   15.35265468 # occ.  0.00000000
 
ion      s     py     pz     px    dxy    dyz    dz2    dxz  x2-y2    tot
    1  0.000  0.000  0.245  0.240  0.000  0.000  0.000  0.000  0.000  0.485
    2  0.000  0.000  0.010  0.015  0.000  0.000  0.000  0.000  0.000  0.025
tot    0.000  0.000  0.255  0.254  0.000  0.000  0.000  0.000  0.000  0.510
 
band     8 # energy   15.35265469 # occ.  0.00000000
 
ion      s     py     pz     px    dxy    dyz    dz2    dxz  x2-y2    tot
    1  0.000  0.000  0.240  0.245  0.000  0.000  0.000  0.000  0.000  0.485
    2  0.000  0.000  0.015  0.010  0.000  0.000  0.000  0.000  0.000  0.025
tot    0.000  0.000  0.254  0.255  0.000  0.000  0.000  0.000  0.000  0.510
 

 k-point     4 :    0.07894737 0.00000000 0.07894737     weight = 0.00416667

band     1 # energy   -7.18532043 # occ.  2.00000000
 
ion      s     py     pz     px    dxy    dyz    dz2    dxz  x2-y2    tot
    1  0.240  0.003  0.000  0.000  0.000  0.000  0.000  0.000  0.000  0.243
    2  0.253  0.001  0.000  0.000  0.000  0.000  0.000  0.000  0.000  0.254
tot    0.493  0.004  0.000  0.000  0.000  0.000  0.000  0.000  0.000  0.497
 
band     2 # energy    7.44582367 # occ.  2.00000000
 
ion      s     py     pz     px    dxy    dyz    dz2    dxz  x2-y2    tot
    1  0.017  0.055  0.000  0.000  0.000  0.000  0.000  0.000  0.000  0.072
    2  0.043  0.415  0.000  0.000  0.000  0.000  0.000  0.000  0.000  0.458
tot    0.060  0.471  0.000  0.000  0.000  0.000  0.000  0.000  0.000  0.530
 
band     3 # energy    7.63666265 # occ.  2.00000000
 
ion      s     py     pz     px    dxy    dyz    dz2    dxz  x2-y2    tot
    1  0.000  0.000  0.042  0.042  0.000  0.000  0.000  0.000  0.000  0.083
    2  0.000  0.000  0.222  0.222  0.000  0.000  0.000  0.000  0.000  0.445
tot    0.000  0.000  0.264  0.264  0.000  0.000  0.000  0.000  0.000  0.528
 
band     4 # energy    7.63666301 # occ.  2.00000000
 
ion      s     py     pz     px    dxy    dyz    dz2    dxz  x2-y2    tot
    1  0.000  0.000  0.042  0.042  0.000  0.000  0.000  0.000  0.000  0.083
    2  0.000  0.000  0.222  0.222  0.000  0.000  0.000  0.000  0.000  0.445
tot    0.000  0.000  0.264  0.264  0.000  0.000  0.000  0.000  0.000  0.528
 
band     5 # energy   14.36990930 # occ.  0.00000000
 
ion      s     py     pz     px    dxy    dyz    dz2    dxz  x2-y2    tot
    1  0.048  0.128  0.000  0.000  0.000  0.000  0.000  0.000  0.000  0.176
    2  0.324  0.036  0.000  0.000  0.000  0.000  0.000  0.000  0.000  0.360
tot    0.372  0.164  0.000  0.000  0.000  0.000  0.000  0.000  0.000  0.536
 
band     6 # energy   14.79412627 # occ.  0.00000000
 
ion      s     py     pz     px    dxy    dyz    dz2    dxz  x2-y2    tot
    1  0.107  0.323  0.000  0.000  0.000  0.000  0.000  0.000  0.000  0.430
    2  0.065  0.042  0.000  0.000  0.000  0.000  0.000  0.000  0.000  0.107
tot    0.172  0.365  0.000  0.000  0.000  0.000  0.000  0.000  0.000  0.537
 
band     7 # energy   15.59585854 # occ.  0.00000000
 
ion      s     py     pz     px    dxy    dyz    dz2    dxz  x2-y2    tot
    1  0.000  0.000  0.439  0.030  0.000  0.000  0.000  0.000  0.000  0.469
    2  0.000  0.000  0.009  0.033  0.000  0.000  0.000  0.000  0.000  0.042
tot    0.000  0.000  0.448  0.063  0.000  0.000  0.000  0.000  0.000  0.511
 
band     8 # energy   15.59585855 # occ.  0.00000000
 
ion      s     py     pz     px    dxy    dyz    dz2    dxz  x2-y2    tot
    1  0.000  0.000  0.030  0.439  0.000  0.000  0.000  0.000  0.000  0.469
    2  0.000  0.000  0.033  0.009  0.000  0.000  0.000  0.000  0.000  0.042
tot    0.000  0.000  0.063  0.448  0.000  0.000  0.000  0.000  0.000  0.511
 

 k-point     5 :    0.10526316 0.00000000 0.10526316     weight = 0.00416667

band     1 # energy   -7.06080155 # occ.  2.00000000
 
ion      s     py     pz     px    dxy    dyz    dz2    dxz  x2-y2    tot
    1  0.237  0.006  0.000  0.000  0.000  0.000  0.000  0.000  0.000  0.242
    2  0.254  0.002  0.000  0.000  0.000  0.000  0.000  0.000  0.000  0.256
tot    0.491  0.008  0.000  0.000  0.000  0.000  0.000  0.000  0.000  0.499
 
band     2 # energy    7.10885035 # occ.  2.00000000
 
ion      s     py     pz     px    dxy    dyz    dz2    dxz  x2-y2    tot
    1  0.027  0.055  0.000  0.000  0.000  0.000  0.000  0.000  0.000  0.082
    2  0.066  0.384  0.000  0.000  0.000  0.000  0.000  0.000  0.000  0.450
tot    0.093  0.439  0.000  0.000  0.000  0.000  0.000  0.000  0.000  0.533
 
band     3 # energy    7.42817045 # occ.  2.00000000
 
ion      s     py     pz     px    dxy    dyz    dz2    dxz  x2-y2    tot
    1  0.000  0.000  0.050  0.050  0.000  0.000  0.000  0.000  0.000  0.099
    2  0.000  0.000  0.214  0.214  0.000  0.000  0.000  0.000  0.000  0.429
tot    0.000  0.000  0.264  0.264  0.000  0.000  0.000  0.000  0.000  0.528
 
band     4 # energy    7.42817079 # occ.  2.00000000
 
ion      s     py     pz     px    dxy    dyz    dz2    dxz  x2-y2    tot
    1  0.000  0.000  0.050  0.050  0.000  0.000  0.000  0.000  0.000  0.099
    2  0.000  0.000  0.214  0.214  0.000  0.000  0.000  0.000  0.000  0.429
tot    0.000  0.000  0.264  0.264  0.000  0.000  0.000  0.000  0.000  0.528
 
band     5 # energy   14.27209467 # occ.  0.00000000
 
ion      s     py     pz     px    dxy    dyz    dz2    dxz  x2-y2    tot
    1  0.003  0.365  0.000  0.000  0.000  0.000  0.000  0.000  0.000  0.367
    2  0.101  0.005  0.000  0.000  0.000  0.000  0.000  0.000  0.000  0.106
tot    0.104  0.370  0.000  0.000  0.000  0.000  0.000  0.000  0.000  0.473
 
band     6 # energy   14.85134514 # occ.  0.00000000
 
ion      s     py     pz     px    dxy    dyz    dz2    dxz  x2-y2    tot
    1  0.171  0.057  0.000  0.000  0.000  0.000  0.000  0.000  0.000  0.228
    2  0.250  0.109  0.000  0.000  0.000  0.000  0.000  0.000  0.000  0.360
tot    0.421  0.167  0.000  0.000  0.000  0.000  0.000  0.000  0.000  0.588
 
band     7 # energy   15.91427135 # occ.  0.00000000
 
ion      s     py     pz     px    dxy    dyz    dz2    dxz  x2-y2    tot
    1  0.000  0.000  0.249  0.202  0.000  0.000  0.000  0.000  0.000  0.451
    2  0.000  0.000  0.028  0.034  0.000  0.000  0.000  0.000  0.000  0.061
tot    0.000  0.000  0.277  0.236  0.000  0.000  0.000  0.000  0.000  0.512
 
band     8 # energy   15.91427138 # occ.  0.00000000
 
ion      s     py     pz     px    dxy    dyz    dz2    dxz  x2-y2    tot
    1  0.000  0.000  0.202  0.249  0.000  0.000  0.000  0.000  0.000  0.451
    2  0.000  0.000  0.034  0.028  0.000  0.000  0.000  0.000  0.000  0.061
tot    0.000  0.000  0.236  0.277  0.000  0.000  0.000  0.000  0.000  0.512
 

 k-point     6 :    0.13157895 0.00000000 0.13157895     weight = 0.00416667

band     1 # energy   -6.90132075 # occ.  2.00000000
 
ion      s     py     pz     px    dxy    dyz    dz2    dxz  x2-y2    tot
    1  0.233  0.009  0.000  0.000  0.000  0.000  0.000  0.000  0.000  0.242
    2  0.255  0.003  0.000  0.000  0.000  0.000  0.000  0.000  0.000  0.258
tot    0.488  0.012  0.000  0.000  0.000  0.000  0.000  0.000  0.000  0.500
 
band     2 # energy    6.71871789 # occ.  2.00000000
 
ion      s     py     pz     px    dxy    dyz    dz2    dxz  x2-y2    tot
    1  0.039  0.055  0.000  0.000  0.000  0.000  0.000  0.000  0.000  0.094
    2  0.088  0.354  0.000  0.000  0.000  0.000  0.000  0.000  0.000  0.442
tot    0.126  0.409  0.000  0.000  0.000  0.000  0.000  0.000  0.000  0.536
 
band     3 # energy    7.18890140 # occ.  2.00000000
 
ion      s     py     pz     px    dxy    dyz    dz2    dxz  x2-y2    tot
    1  0.000  0.000  0.058  0.058  0.000  0.000  0.000  0.000  0.000  0.115
    2  0.000  0.000  0.206  0.206  0.000  0.000  0.000  0.000  0.000  0.413
tot    0.000  0.000  0.264  0.264  0.000  0.000  0.000  0.000  0.000  0.528
 
band     4 # energy    7.18890173 # occ.  2.00000000
 
ion      s     py     pz     px    dxy    dyz    dz2    dxz  x2-y2    tot
    1  0.000  0.000  0.058  0.058  0.000  0.000  0.000  0.000  0.000  0.115
    2  0.000  0.000  0.206  0.206  0.000  0.000  0.000  0.000  0.000  0.413
tot    0.000  0.000  0.264  0.264  0.000  0.000  0.000  0.000  0.000  0.528
 
band     5 # energy   13.94540801 # occ.  0.00000000
 
ion      s     py     pz     px    dxy    dyz    dz2    dxz  x2-y2    tot
    1  0.027  0.379  0.000  0.000  0.000  0.000  0.000  0.000  0.000  0.406
    2  0.048  0.001  0.000  0.000  0.000  0.000  0.000  0.000  0.000  0.049
tot    0.076  0.380  0.000  0.000  0.000  0.000  0.000  0.000  0.000  0.455
 
band     6 # energy   15.04939977 # occ.  0.00000000
 
ion      s     py     pz     px    dxy    dyz    dz2    dxz  x2-y2    tot
    1  0.164  0.011  0.000  0.000  0.000  0.000  0.000  0.000  0.000  0.175
    2  0.255  0.147  0.000  0.000  0.000  0.000  0.000  0.000  0.000  0.402
tot    0.420  0.157  0.000  0.000  0.000  0.000  0.000  0.000  0.000  0.577
 
band     7 # energy   16.29229075 # occ.  0.00000000
 
ion      s     py     pz     px    dxy    dyz    dz2    dxz  x2-y2    tot
    1  0.000  0.000  0.222  0.209  0.000  0.000  0.000  0.000  0.000  0.431
    2  0.000  0.000  0.040  0.042  0.000  0.000  0.000  0.000  0.000  0.082
tot    0.000  0.000  0.262  0.251  0.000  0.000  0.000  0.000  0.000  0.513
 
band     8 # energy   16.29229079 # occ.  0.00000000
 
ion      s     py     pz     px    dxy    dyz    dz2    dxz  x2-y2    tot
    1  0.000  0.000  0.209  0.222  0.000  0.000  0.000  0.000  0.000  0.431
    2  0.000  0.000  0.042  0.040  0.000  0.000  0.000  0.000  0.000  0.082
tot    0.000  0.000  0.251  0.262  0.000  0.000  0.000  0.000  0.000  0.513
 

 k-point     7 :    0.15789474 0.00000000 0.15789474     weight = 0.00416667

band     1 # energy   -6.70731524 # occ.  2.00000000
 
ion      s     py     pz     px    dxy    dyz    dz2    dxz  x2-y2    tot
    1  0.228  0.013  0.000  0.000  0.000  0.000  0.000  0.000  0.000  0.241
    2  0.256  0.005  0.000  0.000  0.000  0.000  0.000  0.000  0.000  0.261
tot    0.485  0.017  0.000  0.000  0.000  0.000  0.000  0.000  0.000  0.502
 
band     2 # energy    6.28972160 # occ.  2.00000000
 
ion      s     py     pz     px    dxy    dyz    dz2    dxz  x2-y2    tot
    1  0.051  0.055  0.000  0.000  0.000  0.000  0.000  0.000  0.000  0.106
    2  0.107  0.326  0.000  0.000  0.000  0.000  0.000  0.000  0.000  0.433
tot    0.158  0.382  0.000  0.000  0.000  0.000  0.000  0.000  0.000  0.539
 
band     3 # energy    6.93168207 # occ.  2.00000000
 
ion      s     py     pz     px    dxy    dyz    dz2    dxz  x2-y2    tot
    1  0.000  0.000  0.066  0.066  0.000  0.000  0.000  0.000  0.000  0.131
    2  0.000  0.000  0.199  0.199  0.000  0.000  0.000  0.000  0.000  0.397
tot    0.000  0.000  0.264  0.264  0.000  0.000  0.000  0.000  0.000  0.529
 
band     4 # energy    6.93168239 # occ.  2.00000000
 
ion      s     py     pz     px    dxy    dyz    dz2    dxz  x2-y2    tot
    1  0.000  0.000  0.066  0.066  0.000  0.000  0.000  0.000  0.000  0.131
    2  0.000  0.000  0.199  0.199  0.000  0.000  0.000  0.000  0.000  0.397
tot    0.000  0.000  0.264  0.264  0.000  0.000  0.000  0.000  0.000  0.529
 
band     5 # energy   13.54922526 # occ.  0.00000000
 
ion      s     py     pz     px    dxy    dyz    dz2    dxz  x2-y2    tot
    1  0.047  0.353  0.000  0.000  0.000  0.000  0.000  0.000  0.000  0.400
    2  0.038  0.000  0.000  0.000  0.000  0.000  0.000  0.000  0.000  0.038
tot    0.085  0.354  0.000  0.000  0.000  0.000  0.000  0.000  0.000  0.438
 
band     6 # energy   15.15493089 # occ.  0.00000000
 
ion      s     py     pz     px    dxy    dyz    dz2    dxz  x2-y2    tot
    1  0.159  0.004  0.000  0.000  0.000  0.000  0.000  0.000  0.000  0.163
    2  0.204  0.163  0.000  0.000  0.000  0.000  0.000  0.000  0.000  0.366
tot    0.363  0.166  0.000  0.000  0.000  0.000  0.000  0.000  0.000  0.529
 
band     7 # energy   16.71548653 # occ.  0.00000000
 
ion      s     py     pz     px    dxy    dyz    dz2    dxz  x2-y2    tot
    1  0.000  0.000  0.323  0.087  0.000  0.000  0.000  0.000  0.000  0.411
    2  0.000  0.000  0.022  0.082  0.000  0.000  0.000  0.000  0.000  0.104
tot    0.000  0.000  0.346  0.169  0.000  0.000  0.000  0.000  0.000  0.514
 
band     8 # energy   16.71548682 # occ.  0.00000000
 
ion      s     py     pz     px    dxy    dyz    dz2    dxz  x2-y2    tot
    1  0.000  0.000  0.087  0.323  0.000  0.000  0.000  0.000  0.000  0.411
    2  0.000  0.000  0.082  0.022  0.000  0.000  0.000  0.000  0.000  0.104
tot    0.000  0.000  0.169  0.346  0.000  0.000  0.000  0.000  0.000  0.514
 

 k-point     8 :    0.18421053 0.00000000 0.18421053     weight = 0.00416667

band     1 # energy   -6.47944952 # occ.  2.00000000
 
ion      s     py     pz     px    dxy    dyz    dz2    dxz  x2-y2    tot
    1  0.222  0.017  0.000  0.000  0.000  0.000  0.000  0.000  0.000  0.239
    2  0.258  0.007  0.000  0.000  0.000  0.000  0.000  0.000  0.000  0.265
tot    0.481  0.024  0.000  0.000  0.000  0.000  0.000  0.000  0.000  0.504
 
band     2 # energy    5.83158780 # occ.  2.00000000
 
ion      s     py     pz     px    dxy    dyz    dz2    dxz  x2-y2    tot
    1  0.064  0.056  0.000  0.000  0.000  0.000  0.000  0.000  0.000  0.120
    2  0.122  0.301  0.000  0.000  0.000  0.000  0.000  0.000  0.000  0.423
tot    0.187  0.357  0.000  0.000  0.000  0.000  0.000  0.000  0.000  0.543
 
band     3 # energy    6.66726723 # occ.  2.00000000
 
ion      s     py     pz     px    dxy    dyz    dz2    dxz  x2-y2    tot
    1  0.000  0.000  0.073  0.073  0.000  0.000  0.000  0.000  0.000  0.146
    2  0.000  0.000  0.192  0.192  0.000  0.000  0.000  0.000  0.000  0.383
tot    0.000  0.000  0.265  0.265  0.000  0.000  0.000  0.000  0.000  0.529
 
band     4 # energy    6.66726753 # occ.  2.00000000
 
ion      s     py     pz     px    dxy    dyz    dz2    dxz  x2-y2    tot
    1  0.000  0.000  0.073  0.073  0.000  0.000  0.000  0.000  0.000  0.146
    2  0.000  0.000  0.192  0.192  0.000  0.000  0.000  0.000  0.000  0.383
tot    0.000  0.000  0.265  0.265  0.000  0.000  0.000  0.000  0.000  0.529
 
band     5 # energy   13.11574137 # occ.  0.00000000
 
ion      s     py     pz     px    dxy    dyz    dz2    dxz  x2-y2    tot
    1  0.058  0.322  0.000  0.000  0.000  0.000  0.000  0.000  0.000  0.380
    2  0.037  0.000  0.000  0.000  0.000  0.000  0.000  0.000  0.000  0.037
tot    0.095  0.322  0.000  0.000  0.000  0.000  0.000  0.000  0.000  0.417
 
band     6 # energy   15.06795073 # occ.  0.00000000
 
ion      s     py     pz     px    dxy    dyz    dz2    dxz  x2-y2    tot
    1  0.154  0.003  0.000  0.000  0.000  0.000  0.000  0.000  0.000  0.157
    2  0.138  0.152  0.000  0.000  0.000  0.000  0.000  0.000  0.000  0.290
tot    0.293  0.154  0.000  0.000  0.000  0.000  0.000  0.000  0.000  0.447
 
band     7 # energy   17.17130354 # occ.  0.00000000
 
ion      s     py     pz     px    dxy    dyz    dz2    dxz  x2-y2    tot
    1  0.000  0.000  0.245  0.145  0.000  0.000  0.000  0.000  0.000  0.390
    2  0.000  0.000  0.049  0.075  0.000  0.000  0.000  0.000  0.000  0.125
tot    0.000  0.000  0.295  0.220  0.000  0.000  0.000  0.000  0.000  0.515
 
band     8 # energy   17.17130404 # occ.  0.00000000
 
ion      s     py     pz     px    dxy    dyz    dz2    dxz  x2-y2    tot
    1  0.000  0.000  0.145  0.245  0.000  0.000  0.000  0.000  0.000  0.390
    2  0.000  0.000  0.075  0.049  0.000  0.000  0.000  0.000  0.000  0.125
tot    0.000  0.000  0.220  0.295  0.000  0.000  0.000  0.000  0.000  0.515
 

 k-point     9 :    0.21052632 0.00000000 0.21052632     weight = 0.00416667

band     1 # energy   -6.21850879 # occ.  2.00000000
 
ion      s     py     pz     px    dxy    dyz    dz2    dxz  x2-y2    tot
    1  0.216  0.022  0.000  0.000  0.000  0.000  0.000  0.000  0.000  0.238
    2  0.261  0.008  0.000  0.000  0.000  0.000  0.000  0.000  0.000  0.269
tot    0.476  0.031  0.000  0.000  0.000  0.000  0.000  0.000  0.000  0.507
 
band     2 # energy    5.35054055 # occ.  2.00000000
 
ion      s     py     pz     px    dxy    dyz    dz2    dxz  x2-y2    tot
    1  0.079  0.057  0.000  0.000  0.000  0.000  0.000  0.000  0.000  0.136
    2  0.135  0.278  0.000  0.000  0.000  0.000  0.000  0.000  0.000  0.412
tot    0.213  0.335  0.000  0.000  0.000  0.000  0.000  0.000  0.000  0.548
 
band     3 # energy    6.40427693 # occ.  2.00000000
 
ion      s     py     pz     px    dxy    dyz    dz2    dxz  x2-y2    tot
    1  0.000  0.000  0.080  0.080  0.000  0.000  0.000  0.000  0.000  0.159
    2  0.000  0.000  0.185  0.185  0.000  0.000  0.000  0.000  0.000  0.371
tot    0.000  0.000  0.265  0.265  0.000  0.000  0.000  0.000  0.000  0.530
 
band     4 # energy    6.40427722 # occ.  2.00000000
 
ion      s     py     pz     px    dxy    dyz    dz2    dxz  x2-y2    tot
    1  0.000  0.000  0.080  0.080  0.000  0.000  0.000  0.000  0.000  0.159
    2  0.000  0.000  0.185  0.185  0.000  0.000  0.000  0.000  0.000  0.371
tot    0.000  0.000  0.265  0.265  0.000  0.000  0.000  0.000  0.000  0.530
 
band     5 # energy   12.65844985 # occ.  0.00000000
 
ion      s     py     pz     px    dxy    dyz    dz2    dxz  x2-y2    tot
    1  0.063  0.289  0.000  0.000  0.000  0.000  0.000  0.000  0.000  0.351
    2  0.040  0.000  0.000  0.000  0.000  0.000  0.000  0.000  0.000  0.040
tot    0.102  0.289  0.000  0.000  0.000  0.000  0.000  0.000  0.000  0.391
 
band     6 # energy   14.79284411 # occ.  0.00000000
 
ion      s     py     pz     px    dxy    dyz    dz2    dxz  x2-y2    tot
    1  0.152  0.003  0.000  0.000  0.000  0.000  0.000  0.000  0.000  0.156
    2  0.084  0.125  0.000  0.000  0.000  0.000  0.000  0.000  0.000  0.209
tot    0.237  0.128  0.000  0.000  0.000  0.000  0.000  0.000  0.000  0.365
 
band     7 # energy   17.64929729 # occ.  0.00000000
 
ion      s     py     pz     px    dxy    dyz    dz2    dxz  x2-y2    tot
    1  0.000  0.000  0.061  0.310  0.000  0.000  0.000  0.000  0.000  0.371
    2  0.000  0.000  0.129  0.016  0.000  0.000  0.000  0.000  0.000  0.145
tot    0.000  0.000  0.189  0.326  0.000  0.000  0.000  0.000  0.000  0.515
 
band     8 # energy   17.64932122 # occ.  0.00000000
 
ion      s     py     pz     px    dxy    dyz    dz2    dxz  x2-y2    tot
    1  0.000  0.000  0.310  0.061  0.000  0.000  0.000  0.000  0.000  0.371
    2  0.000  0.000  0.016  0.129  0.000  0.000  0.000  0.000  0.000  0.145
tot    0.000  0.000  0.326  0.189  0.000  0.000  0.000  0.000  0.000  0.515
 

 k-point    10 :    0.23684211 0.00000000 0.23684211     weight = 0.00416667

band     1 # energy   -5.92557887 # occ.  2.00000000
 
ion      s     py     pz     px    dxy    dyz    dz2    dxz  x2-y2    tot
    1  0.208  0.028  0.000  0.000  0.000  0.000  0.000  0.000  0.000  0.235
    2  0.264  0.011  0.000  0.000  0.000  0.000  0.000  0.000  0.000  0.275
tot    0.472  0.038  0.000  0.000  0.000  0.000  0.000  0.000  0.000  0.510
 
band     2 # energy    4.85043909 # occ.  2.00000000
 
ion      s     py     pz     px    dxy    dyz    dz2    dxz  x2-y2    tot
    1  0.094  0.058  0.000  0.000  0.000  0.000  0.000  0.000  0.000  0.152
    2  0.143  0.257  0.000  0.000  0.000  0.000  0.000  0.000  0.000  0.400
tot    0.237  0.315  0.000  0.000  0.000  0.000  0.000  0.000  0.000  0.552
 
band     3 # energy    6.14947204 # occ.  2.00000000
 
ion      s     py     pz     px    dxy    dyz    dz2    dxz  x2-y2    tot
    1  0.000  0.000  0.086  0.086  0.000  0.000  0.000  0.000  0.000  0.171
    2  0.000  0.000  0.180  0.180  0.000  0.000  0.000  0.000  0.000  0.360
tot    0.000  0.000  0.265  0.265  0.000  0.000  0.000  0.000  0.000  0.531
 
band     4 # energy    6.14947232 # occ.  2.00000000
 
ion      s     py     pz     px    dxy    dyz    dz2    dxz  x2-y2    tot
    1  0.000  0.000  0.086  0.086  0.000  0.000  0.000  0.000  0.000  0.171
    2  0.000  0.000  0.180  0.180  0.000  0.000  0.000  0.000  0.000  0.360
tot    0.000  0.000  0.265  0.265  0.000  0.000  0.000  0.000  0.000  0.531
 
band     5 # energy   12.18846246 # occ.  0.00000000
 
ion      s     py     pz     px    dxy    dyz    dz2    dxz  x2-y2    tot
    1  0.061  0.256  0.000  0.000  0.000  0.000  0.000  0.000  0.000  0.316
    2  0.044  0.001  0.000  0.000  0.000  0.000  0.000  0.000  0.000  0.044
tot    0.105  0.256  0.000  0.000  0.000  0.000  0.000  0.000  0.000  0.361
 
band     6 # energy   14.41577717 # occ.  0.00000000
 
ion      s     py     pz     px    dxy    dyz    dz2    dxz  x2-y2    tot
    1  0.157  0.005  0.000  0.000  0.000  0.000  0.000  0.000  0.000  0.163
    2  0.050  0.099  0.000  0.000  0.000  0.000  0.000  0.000  0.000  0.149
tot    0.208  0.104  0.000  0.000  0.000  0.000  0.000  0.000  0.000  0.312
 
band     7 # energy   18.14073153 # occ.  0.00000000
 
ion      s     py     pz     px    dxy    dyz    dz2    dxz  x2-y2    tot
    1  0.000  0.000  0.155  0.196  0.000  0.000  0.000  0.000  0.000  0.351
    2  0.000  0.000  0.100  0.064  0.000  0.000  0.000  0.000  0.000  0.164
tot    0.000  0.000  0.255  0.260  0.000  0.000  0.000  0.000  0.000  0.515
 
band     8 # energy   18.14079423 # occ.  0.00000000
 
ion      s     py     pz     px    dxy    dyz    dz2    dxz  x2-y2    tot
    1  0.000  0.000  0.196  0.155  0.000  0.000  0.000  0.000  0.000  0.351
    2  0.000  0.000  0.064  0.100  0.000  0.000  0.000  0.000  0.000  0.164
tot    0.000  0.000  0.260  0.255  0.000  0.000  0.000  0.000  0.000  0.515
 

 k-point    11 :    0.26315789 0.00000000 0.26315789     weight = 0.00416667

band     1 # energy   -5.60201518 # occ.  2.00000000
 
ion      s     py     pz     px    dxy    dyz    dz2    dxz  x2-y2    tot
    1  0.198  0.034  0.000  0.000  0.000  0.000  0.000  0.000  0.000  0.233
    2  0.268  0.013  0.000  0.000  0.000  0.000  0.000  0.000  0.000  0.281
tot    0.467  0.047  0.000  0.000  0.000  0.000  0.000  0.000  0.000  0.514
 
band     2 # energy    4.33389189 # occ.  2.00000000
 
ion      s     py     pz     px    dxy    dyz    dz2    dxz  x2-y2    tot
    1  0.111  0.059  0.000  0.000  0.000  0.000  0.000  0.000  0.000  0.169
    2  0.148  0.239  0.000  0.000  0.000  0.000  0.000  0.000  0.000  0.387
tot    0.259  0.297  0.000  0.000  0.000  0.000  0.000  0.000  0.000  0.556
 
band     3 # energy    5.90811161 # occ.  2.00000000
 
ion      s     py     pz     px    dxy    dyz    dz2    dxz  x2-y2    tot
    1  0.000  0.000  0.091  0.091  0.000  0.000  0.000  0.000  0.000  0.182
    2  0.000  0.000  0.175  0.175  0.000  0.000  0.000  0.000  0.000  0.350
tot    0.000  0.000  0.266  0.266  0.000  0.000  0.000  0.000  0.000  0.532
 
band     4 # energy    5.90811188 # occ.  2.00000000
 
ion      s     py     pz     px    dxy    dyz    dz2    dxz  x2-y2    tot
    1  0.000  0.000  0.091  0.091  0.000  0.000  0.000  0.000  0.000  0.182
    2  0.000  0.000  0.175  0.175  0.000  0.000  0.000  0.000  0.000  0.350
tot    0.000  0.000  0.266  0.266  0.000  0.000  0.000  0.000  0.000  0.532
 
band     5 # energy   11.71815758 # occ.  0.00000000
 
ion      s     py     pz     px    dxy    dyz    dz2    dxz  x2-y2    tot
    1  0.055  0.224  0.000  0.000  0.000  0.000  0.000  0.000  0.000  0.279
    2  0.049  0.001  0.000  0.000  0.000  0.000  0.000  0.000  0.000  0.050
tot    0.104  0.225  0.000  0.000  0.000  0.000  0.000  0.000  0.000  0.329
 
band     6 # energy   14.01650203 # occ.  0.00000000
 
ion      s     py     pz     px    dxy    dyz    dz2    dxz  x2-y2    tot
    1  0.169  0.007  0.000  0.000  0.000  0.000  0.000  0.000  0.000  0.176
    2  0.031  0.079  0.000  0.000  0.000  0.000  0.000  0.000  0.000  0.110
tot    0.199  0.087  0.000  0.000  0.000  0.000  0.000  0.000  0.000  0.286
 
band     7 # energy   18.63802464 # occ.  0.00000000
 
ion      s     py     pz     px    dxy    dyz    dz2    dxz  x2-y2    tot
    1  0.000  0.000  0.074  0.258  0.000  0.000  0.000  0.000  0.000  0.333
    2  0.000  0.000  0.115  0.067  0.000  0.000  0.000  0.000  0.000  0.182
tot    0.000  0.000  0.189  0.325  0.000  0.000  0.000  0.000  0.000  0.515
 
band     8 # energy   18.63813426 # occ.  0.00000000
 
ion      s     py     pz     px    dxy    dyz    dz2    dxz  x2-y2    tot
    1  0.000  0.000  0.258  0.075  0.000  0.000  0.000  0.000  0.000  0.332
    2  0.000  0.000  0.068  0.115  0.000  0.000  0.000  0.000  0.000  0.183
tot    0.000  0.000  0.325  0.190  0.000  0.000  0.000  0.000  0.000  0.515
 

 k-point    12 :    0.28947368 0.00000000 0.28947368     weight = 0.00416667

band     1 # energy   -5.24960890 # occ.  2.00000000
 
ion      s     py     pz     px    dxy    dyz    dz2    dxz  x2-y2    tot
    1  0.188  0.041  0.000  0.000  0.000  0.000  0.000  0.000  0.000  0.229
    2  0.273  0.015  0.000  0.000  0.000  0.000  0.000  0.000  0.000  0.288
tot    0.461  0.056  0.000  0.000  0.000  0.000  0.000  0.000  0.000  0.517
 
band     2 # energy    3.80320991 # occ.  2.00000000
 
ion      s     py     pz     px    dxy    dyz    dz2    dxz  x2-y2    tot
    1  0.129  0.059  0.000  0.000  0.000  0.000  0.000  0.000  0.000  0.187
    2  0.149  0.222  0.000  0.000  0.000  0.000  0.000  0.000  0.000  0.372
tot    0.278  0.281  0.000  0.000  0.000  0.000  0.000  0.000  0.000  0.559
 
band     3 # energy    5.68428110 # occ.  2.00000000
 
ion      s     py     pz     px    dxy    dyz    dz2    dxz  x2-y2    tot
    1  0.000  0.000  0.096  0.096  0.000  0.000  0.000  0.000  0.000  0.191
    2  0.000  0.000  0.171  0.171  0.000  0.000  0.000  0.000  0.000  0.342
tot    0.000  0.000  0.267  0.267  0.000  0.000  0.000  0.000  0.000  0.533
 
band     4 # energy    5.68428136 # occ.  2.00000000
 
ion      s     py     pz     px    dxy    dyz    dz2    dxz  x2-y2    tot
    1  0.000  0.000  0.096  0.096  0.000  0.000  0.000  0.000  0.000  0.191
    2  0.000  0.000  0.171  0.171  0.000  0.000  0.000  0.000  0.000  0.342
tot    0.000  0.000  0.267  0.267  0.000  0.000  0.000  0.000  0.000  0.533
 
band     5 # energy   11.26155581 # occ.  0.00000000
 
ion      s     py     pz     px    dxy    dyz    dz2    dxz  x2-y2    tot
    1  0.046  0.196  0.000  0.000  0.000  0.000  0.000  0.000  0.000  0.242
    2  0.055  0.001  0.000  0.000  0.000  0.000  0.000  0.000  0.000  0.056
tot    0.101  0.196  0.000  0.000  0.000  0.000  0.000  0.000  0.000  0.298
 
band     6 # energy   13.63839908 # occ.  0.00000000
 
ion      s     py     pz     px    dxy    dyz    dz2    dxz  x2-y2    tot
    1  0.183  0.009  0.000  0.000  0.000  0.000  0.000  0.000  0.000  0.192
    2  0.019  0.065  0.000  0.000  0.000  0.000  0.000  0.000  0.000  0.084
tot    0.202  0.074  0.000  0.000  0.000  0.000  0.000  0.000  0.000  0.276
 
band     7 # energy   19.13436185 # occ.  0.00000000
 
ion      s     py     pz     px    dxy    dyz    dz2    dxz  x2-y2    tot
    1  0.000  0.000  0.035  0.279  0.000  0.000  0.000  0.000  0.000  0.314
    2  0.000  0.000  0.144  0.057  0.000  0.000  0.000  0.000  0.000  0.200
tot    0.000  0.000  0.179  0.335  0.000  0.000  0.000  0.000  0.000  0.514
 
band     8 # energy   19.13526234 # occ.  0.00000000
 
ion      s     py     pz     px    dxy    dyz    dz2    dxz  x2-y2    tot
    1  0.000  0.000  0.279  0.035  0.000  0.000  0.000  0.000  0.000  0.314
    2  0.000  0.000  0.057  0.143  0.000  0.000  0.000  0.000  0.000  0.200
tot    0.000  0.000  0.335  0.179  0.000  0.000  0.000  0.000  0.000  0.514
 

 k-point    13 :    0.31578947 0.00000000 0.31578947     weight = 0.00416667

band     1 # energy   -4.87083965 # occ.  2.00000000
 
ion      s     py     pz     px    dxy    dyz    dz2    dxz  x2-y2    tot
    1  0.175  0.049  0.000  0.000  0.000  0.000  0.000  0.000  0.000  0.224
    2  0.280  0.017  0.000  0.000  0.000  0.000  0.000  0.000  0.000  0.297
tot    0.456  0.066  0.000  0.000  0.000  0.000  0.000  0.000  0.000  0.522
 
band     2 # energy    3.26131341 # occ.  2.00000000
 
ion      s     py     pz     px    dxy    dyz    dz2    dxz  x2-y2    tot
    1  0.148  0.058  0.000  0.000  0.000  0.000  0.000  0.000  0.000  0.206
    2  0.147  0.208  0.000  0.000  0.000  0.000  0.000  0.000  0.000  0.355
tot    0.295  0.266  0.000  0.000  0.000  0.000  0.000  0.000  0.000  0.561
 
band     3 # energy    5.48113076 # occ.  2.00000000
 
ion      s     py     pz     px    dxy    dyz    dz2    dxz  x2-y2    tot
    1  0.000  0.000  0.099  0.099  0.000  0.000  0.000  0.000  0.000  0.199
    2  0.000  0.000  0.168  0.168  0.000  0.000  0.000  0.000  0.000  0.335
tot    0.000  0.000  0.267  0.267  0.000  0.000  0.000  0.000  0.000  0.534
 
band     4 # energy    5.48113102 # occ.  2.00000000
 
ion      s     py     pz     px    dxy    dyz    dz2    dxz  x2-y2    tot
    1  0.000  0.000  0.099  0.099  0.000  0.000  0.000  0.000  0.000  0.199
    2  0.000  0.000  0.168  0.168  0.000  0.000  0.000  0.000  0.000  0.335
tot    0.000  0.000  0.267  0.267  0.000  0.000  0.000  0.000  0.000  0.534
 
band     5 # energy   10.83277336 # occ.  0.00000000
 
ion      s     py     pz     px    dxy    dyz    dz2    dxz  x2-y2    tot
    1  0.036  0.171  0.000  0.000  0.000  0.000  0.000  0.000  0.000  0.207
    2  0.062  0.001  0.000  0.000  0.000  0.000  0.000  0.000  0.000  0.062
tot    0.098  0.171  0.000  0.000  0.000  0.000  0.000  0.000  0.000  0.269
 
band     6 # energy   13.29996258 # occ.  0.00000000
 
ion      s     py     pz     px    dxy    dyz    dz2    dxz  x2-y2    tot
    1  0.198  0.009  0.000  0.000  0.000  0.000  0.000  0.000  0.000  0.207
    2  0.012  0.055  0.000  0.000  0.000  0.000  0.000  0.000  0.000  0.067
tot    0.210  0.065  0.000  0.000  0.000  0.000  0.000  0.000  0.000  0.275
 
band     7 # energy   19.62261547 # occ.  0.00000000
 
ion      s     py     pz     px    dxy    dyz    dz2    dxz  x2-y2    tot
    1  0.000  0.000  0.029  0.268  0.000  0.000  0.000  0.000  0.000  0.296
    2  0.000  0.000  0.203  0.015  0.000  0.000  0.000  0.000  0.000  0.218
tot    0.000  0.000  0.231  0.283  0.000  0.000  0.000  0.000  0.000  0.514
 
band     8 # energy   19.62274539 # occ.  0.00000000
 
ion      s     py     pz     px    dxy    dyz    dz2    dxz  x2-y2    tot
    1  0.000  0.000  0.267  0.029  0.000  0.000  0.000  0.000  0.000  0.296
    2  0.000  0.000  0.015  0.203  0.000  0.000  0.000  0.000  0.000  0.217
tot    0.000  0.000  0.282  0.231  0.000  0.000  0.000  0.000  0.000  0.514
 

 k-point    14 :    0.34210526 0.00000000 0.34210526     weight = 0.00416667

band     1 # energy   -4.46922004 # occ.  2.00000000
 
ion      s     py     pz     px    dxy    dyz    dz2    dxz  x2-y2    tot
    1  0.160  0.058  0.000  0.000  0.000  0.000  0.000  0.000  0.000  0.218
    2  0.290  0.019  0.000  0.000  0.000  0.000  0.000  0.000  0.000  0.308
tot    0.450  0.077  0.000  0.000  0.000  0.000  0.000  0.000  0.000  0.527
 
band     2 # energy    2.71253718 # occ.  2.00000000
 
ion      s     py     pz     px    dxy    dyz    dz2    dxz  x2-y2    tot
    1  0.169  0.055  0.000  0.000  0.000  0.000  0.000  0.000  0.000  0.225
    2  0.140  0.195  0.000  0.000  0.000  0.000  0.000  0.000  0.000  0.336
tot    0.310  0.251  0.000  0.000  0.000  0.000  0.000  0.000  0.000  0.560
 
band     3 # energy    5.30110550 # occ.  2.00000000
 
ion      s     py     pz     px    dxy    dyz    dz2    dxz  x2-y2    tot
    1  0.000  0.000  0.103  0.103  0.000  0.000  0.000  0.000  0.000  0.206
    2  0.000  0.000  0.165  0.165  0.000  0.000  0.000  0.000  0.000  0.329
tot    0.000  0.000  0.268  0.268  0.000  0.000  0.000  0.000  0.000  0.535
 
band     4 # energy    5.30110575 # occ.  2.00000000
 
ion      s     py     pz     px    dxy    dyz    dz2    dxz  x2-y2    tot
    1  0.000  0.000  0.103  0.103  0.000  0.000  0.000  0.000  0.000  0.206
    2  0.000  0.000  0.165  0.165  0.000  0.000  0.000  0.000  0.000  0.329
tot    0.000  0.000  0.268  0.268  0.000  0.000  0.000  0.000  0.000  0.535
 
band     5 # energy   10.44415491 # occ.  0.00000000
 
ion      s     py     pz     px    dxy    dyz    dz2    dxz  x2-y2    tot
    1  0.027  0.150  0.000  0.000  0.000  0.000  0.000  0.000  0.000  0.177
    2  0.068  0.000  0.000  0.000  0.000  0.000  0.000  0.000  0.000  0.068
tot    0.095  0.150  0.000  0.000  0.000  0.000  0.000  0.000  0.000  0.246
 
band     6 # energy   13.00737872 # occ.  0.00000000
 
ion      s     py     pz     px    dxy    dyz    dz2    dxz  x2-y2    tot
    1  0.212  0.009  0.000  0.000  0.000  0.000  0.000  0.000  0.000  0.221
    2  0.007  0.048  0.000  0.000  0.000  0.000  0.000  0.000  0.000  0.056
tot    0.220  0.057  0.000  0.000  0.000  0.000  0.000  0.000  0.000  0.277
 
band     7 # energy   20.09465730 # occ.  0.00000000
 
ion      s     py     pz     px    dxy    dyz    dz2    dxz  x2-y2    tot
    1  0.000  0.000  0.117  0.162  0.000  0.000  0.000  0.000  0.000  0.279
    2  0.000  0.000  0.130  0.104  0.000  0.000  0.000  0.000  0.000  0.235
tot    0.000  0.000  0.248  0.266  0.000  0.000  0.000  0.000  0.000  0.514
 
band     8 # energy   20.09537739 # occ.  0.00000000
 
ion      s     py     pz     px    dxy    dyz    dz2    dxz  x2-y2    tot
    1  0.000  0.000  0.162  0.117  0.000  0.000  0.000  0.000  0.000  0.279
    2  0.000  0.000  0.105  0.130  0.000  0.000  0.000  0.000  0.000  0.235
tot    0.000  0.000  0.266  0.247  0.000  0.000  0.000  0.000  0.000  0.514
 

 k-point    15 :    0.36842105 0.00000000 0.36842105     weight = 0.00416667

band     1 # energy   -4.04998890 # occ.  2.00000000
 
ion      s     py     pz     px    dxy    dyz    dz2    dxz  x2-y2    tot
    1  0.142  0.068  0.000  0.000  0.000  0.000  0.000  0.000  0.000  0.210
    2  0.302  0.020  0.000  0.000  0.000  0.000  0.000  0.000  0.000  0.322
tot    0.444  0.088  0.000  0.000  0.000  0.000  0.000  0.000  0.000  0.532
 
band     2 # energy    2.16354592 # occ.  2.00000000
 
ion      s     py     pz     px    dxy    dyz    dz2    dxz  x2-y2    tot
    1  0.193  0.051  0.000  0.000  0.000  0.000  0.000  0.000  0.000  0.244
    2  0.129  0.185  0.000  0.000  0.000  0.000  0.000  0.000  0.000  0.314
tot    0.322  0.236  0.000  0.000  0.000  0.000  0.000  0.000  0.000  0.559
 
band     3 # energy    5.14608836 # occ.  2.00000000
 
ion      s     py     pz     px    dxy    dyz    dz2    dxz  x2-y2    tot
    1  0.000  0.000  0.106  0.106  0.000  0.000  0.000  0.000  0.000  0.211
    2  0.000  0.000  0.162  0.162  0.000  0.000  0.000  0.000  0.000  0.325
tot    0.000  0.000  0.268  0.268  0.000  0.000  0.000  0.000  0.000  0.536
 
band     4 # energy    5.14608861 # occ.  2.00000000
 
ion      s     py     pz     px    dxy    dyz    dz2    dxz  x2-y2    tot
    1  0.000  0.000  0.106  0.106  0.000  0.000  0.000  0.000  0.000  0.211
    2  0.000  0.000  0.162  0.162  0.000  0.000  0.000  0.000  0.000  0.325
tot    0.000  0.000  0.268  0.268  0.000  0.000  0.000  0.000  0.000  0.536
 
band     5 # energy   10.10525729 # occ.  0.00000000
 
ion      s     py     pz     px    dxy    dyz    dz2    dxz  x2-y2    tot
    1  0.019  0.133  0.000  0.000  0.000  0.000  0.000  0.000  0.000  0.152
    2  0.074  0.000  0.000  0.000  0.000  0.000  0.000  0.000  0.000  0.074
tot    0.093  0.134  0.000  0.000  0.000  0.000  0.000  0.000  0.000  0.227
 
band     6 # energy   12.76177789 # occ.  0.00000000
 
ion      s     py     pz     px    dxy    dyz    dz2    dxz  x2-y2    tot
    1  0.225  0.007  0.000  0.000  0.000  0.000  0.000  0.000  0.000  0.232
    2  0.004  0.044  0.000  0.000  0.000  0.000  0.000  0.000  0.000  0.048
tot    0.229  0.051  0.000  0.000  0.000  0.000  0.000  0.000  0.000  0.280
 
band     7 # energy   20.54026030 # occ.  0.00000000
 
ion      s     py     pz     px    dxy    dyz    dz2    dxz  x2-y2    tot
    1  0.000  0.000  0.012  0.250  0.000  0.000  0.000  0.000  0.000  0.263
    2  0.000  0.000  0.239  0.013  0.000  0.000  0.000  0.000  0.000  0.252
tot    0.000  0.000  0.251  0.263  0.000  0.000  0.000  0.000  0.000  0.514
 
band     8 # energy   20.54388834 # occ.  0.00000000
 
ion      s     py     pz     px    dxy    dyz    dz2    dxz  x2-y2    tot
    1  0.000  0.000  0.250  0.012  0.000  0.000  0.000  0.000  0.000  0.262
    2  0.000  0.001  0.013  0.238  0.000  0.000  0.000  0.000  0.000  0.252
tot    0.000  0.001  0.263  0.250  0.000  0.000  0.000  0.000  0.000  0.514
 

 k-point    16 :    0.39473684 0.00000000 0.39473684     weight = 0.00416667

band     1 # energy   -3.62166994 # occ.  2.00000000
 
ion      s     py     pz     px    dxy    dyz    dz2    dxz  x2-y2    tot
    1  0.120  0.079  0.000  0.000  0.000  0.000  0.000  0.000  0.000  0.200
    2  0.319  0.020  0.000  0.000  0.000  0.000  0.000  0.000  0.000  0.339
tot    0.439  0.099  0.000  0.000  0.000  0.000  0.000  0.000  0.000  0.538
 
band     2 # energy    1.62474863 # occ.  2.00000000
 
ion      s     py     pz     px    dxy    dyz    dz2    dxz  x2-y2    tot
    1  0.220  0.045  0.000  0.000  0.000  0.000  0.000  0.000  0.000  0.265
    2  0.113  0.178  0.000  0.000  0.000  0.000  0.000  0.000  0.000  0.290
tot    0.333  0.222  0.000  0.000  0.000  0.000  0.000  0.000  0.000  0.555
 
band     3 # energy    5.01752288 # occ.  2.00000000
 
ion      s     py     pz     px    dxy    dyz    dz2    dxz  x2-y2    tot
    1  0.000  0.000  0.108  0.108  0.000  0.000  0.000  0.000  0.000  0.215
    2  0.000  0.000  0.161  0.161  0.000  0.000  0.000  0.000  0.000  0.321
tot    0.000  0.000  0.268  0.268  0.000  0.000  0.000  0.000  0.000  0.537
 
band     4 # energy    5.01752313 # occ.  2.00000000
 
ion      s     py     pz     px    dxy    dyz    dz2    dxz  x2-y2    tot
    1  0.000  0.000  0.108  0.108  0.000  0.000  0.000  0.000  0.000  0.215
    2  0.000  0.000  0.161  0.161  0.000  0.000  0.000  0.000  0.000  0.321
tot    0.000  0.000  0.268  0.268  0.000  0.000  0.000  0.000  0.000  0.537
 
band     5 # energy    9.82261003 # occ.  0.00000000
 
ion      s     py     pz     px    dxy    dyz    dz2    dxz  x2-y2    tot
    1  0.012  0.120  0.000  0.000  0.000  0.000  0.000  0.000  0.000  0.132
    2  0.080  0.000  0.000  0.000  0.000  0.000  0.000  0.000  0.000  0.080
tot    0.092  0.120  0.000  0.000  0.000  0.000  0.000  0.000  0.000  0.212
 
band     6 # energy   12.56256470 # occ.  0.00000000
 
ion      s     py     pz     px    dxy    dyz    dz2    dxz  x2-y2    tot
    1  0.235  0.005  0.000  0.000  0.000  0.000  0.000  0.000  0.000  0.240
    2  0.003  0.040  0.000  0.000  0.000  0.000  0.000  0.000  0.000  0.043
tot    0.238  0.045  0.000  0.000  0.000  0.000  0.000  0.000  0.000  0.283
 
band     7 # energy   20.94625945 # occ.  0.00000000
 
ion      s     py     pz     px    dxy    dyz    dz2    dxz  x2-y2    tot
    1  0.000  0.000  0.048  0.200  0.000  0.000  0.000  0.000  0.000  0.247
    2  0.000  0.000  0.248  0.021  0.000  0.000  0.000  0.000  0.000  0.269
tot    0.000  0.000  0.295  0.220  0.000  0.000  0.000  0.000  0.000  0.516
 
band     8 # energy   20.94735209 # occ.  0.00000000
 
ion      s     py     pz     px    dxy    dyz    dz2    dxz  x2-y2    tot
    1  0.000  0.000  0.199  0.047  0.000  0.000  0.000  0.000  0.000  0.247
    2  0.000  0.000  0.021  0.247  0.000  0.000  0.000  0.000  0.000  0.268
tot    0.000  0.000  0.220  0.295  0.000  0.000  0.000  0.000  0.000  0.515
 

 k-point    17 :    0.42105263 0.00000000 0.42105263     weight = 0.00416667

band     1 # energy   -3.19928976 # occ.  2.00000000
 
ion      s     py     pz     px    dxy    dyz    dz2    dxz  x2-y2    tot
    1  0.092  0.093  0.000  0.000  0.000  0.000  0.000  0.000  0.000  0.185
    2  0.343  0.017  0.000  0.000  0.000  0.000  0.000  0.000  0.000  0.360
tot    0.435  0.110  0.000  0.000  0.000  0.000  0.000  0.000  0.000  0.545
 
band     2 # energy    1.11340366 # occ.  2.00000000
 
ion      s     py     pz     px    dxy    dyz    dz2    dxz  x2-y2    tot
    1  0.252  0.035  0.000  0.000  0.000  0.000  0.000  0.000  0.000  0.287
    2  0.089  0.174  0.000  0.000  0.000  0.000  0.000  0.000  0.000  0.263
tot    0.341  0.209  0.000  0.000  0.000  0.000  0.000  0.000  0.000  0.550
 
band     3 # energy    4.91649994 # occ.  2.00000000
 
ion      s     py     pz     px    dxy    dyz    dz2    dxz  x2-y2    tot
    1  0.000  0.000  0.109  0.109  0.000  0.000  0.000  0.000  0.000  0.219
    2  0.000  0.000  0.159  0.159  0.000  0.000  0.000  0.000  0.000  0.318
tot    0.000  0.000  0.269  0.269  0.000  0.000  0.000  0.000  0.000  0.537
 
band     4 # energy    4.91650018 # occ.  2.00000000
 
ion      s     py     pz     px    dxy    dyz    dz2    dxz  x2-y2    tot
    1  0.000  0.000  0.109  0.109  0.000  0.000  0.000  0.000  0.000  0.219
    2  0.000  0.000  0.159  0.159  0.000  0.000  0.000  0.000  0.000  0.318
tot    0.000  0.000  0.269  0.269  0.000  0.000  0.000  0.000  0.000  0.537
 
band     5 # energy    9.60027838 # occ.  0.00000000
 
ion      s     py     pz     px    dxy    dyz    dz2    dxz  x2-y2    tot
    1  0.007  0.111  0.000  0.000  0.000  0.000  0.000  0.000  0.000  0.117
    2  0.084  0.000  0.000  0.000  0.000  0.000  0.000  0.000  0.000  0.085
tot    0.091  0.111  0.000  0.000  0.000  0.000  0.000  0.000  0.000  0.202
 
band     6 # energy   12.40877889 # occ.  0.00000000
 
ion      s     py     pz     px    dxy    dyz    dz2    dxz  x2-y2    tot
    1  0.243  0.003  0.000  0.000  0.000  0.000  0.000  0.000  0.000  0.246
    2  0.001  0.038  0.000  0.000  0.000  0.000  0.000  0.000  0.000  0.039
tot    0.244  0.041  0.000  0.000  0.000  0.000  0.000  0.000  0.000  0.285
 
band     7 # energy   21.29581012 # occ.  0.00000000
 
ion      s     py     pz     px    dxy    dyz    dz2    dxz  x2-y2    tot
    1  0.000  0.000  0.124  0.110  0.000  0.000  0.000  0.000  0.000  0.234
    2  0.000  0.000  0.137  0.148  0.000  0.000  0.000  0.000  0.000  0.284
tot    0.000  0.000  0.261  0.257  0.000  0.000  0.000  0.000  0.000  0.518
 
band     8 # energy   21.29815795 # occ.  0.00000000
 
ion      s     py     pz     px    dxy    dyz    dz2    dxz  x2-y2    tot
    1  0.000  0.000  0.110  0.123  0.000  0.000  0.000  0.000  0.000  0.233
    2  0.000  0.001  0.147  0.137  0.000  0.000  0.000  0.000  0.000  0.284
tot    0.000  0.001  0.257  0.260  0.000  0.000  0.000  0.000  0.000  0.517
 

 k-point    18 :    0.44736842 0.00000000 0.44736842     weight = 0.00416667

band     1 # energy   -2.81169478 # occ.  2.00000000
 
ion      s     py     pz     px    dxy    dyz    dz2    dxz  x2-y2    tot
    1  0.057  0.108  0.000  0.000  0.000  0.000  0.000  0.000  0.000  0.165
    2  0.375  0.012  0.000  0.000  0.000  0.000  0.000  0.000  0.000  0.387
tot    0.432  0.121  0.000  0.000  0.000  0.000  0.000  0.000  0.000  0.552
 
band     2 # energy    0.66035598 # occ.  2.00000000
 
ion      s     py     pz     px    dxy    dyz    dz2    dxz  x2-y2    tot
    1  0.290  0.022  0.000  0.000  0.000  0.000  0.000  0.000  0.000  0.312
    2  0.056  0.175  0.000  0.000  0.000  0.000  0.000  0.000  0.000  0.231
tot    0.346  0.197  0.000  0.000  0.000  0.000  0.000  0.000  0.000  0.543
 
band     3 # energy    4.84379940 # occ.  2.00000000
 
ion      s     py     pz     px    dxy    dyz    dz2    dxz  x2-y2    tot
    1  0.000  0.000  0.111  0.111  0.000  0.000  0.000  0.000  0.000  0.221
    2  0.000  0.000  0.158  0.158  0.000  0.000  0.000  0.000  0.000  0.316
tot    0.000  0.000  0.269  0.269  0.000  0.000  0.000  0.000  0.000  0.538
 
band     4 # energy    4.84379964 # occ.  2.00000000
 
ion      s     py     pz     px    dxy    dyz    dz2    dxz  x2-y2    tot
    1  0.000  0.000  0.111  0.111  0.000  0.000  0.000  0.000  0.000  0.221
    2  0.000  0.000  0.158  0.158  0.000  0.000  0.000  0.000  0.000  0.316
tot    0.000  0.000  0.269  0.269  0.000  0.000  0.000  0.000  0.000  0.538
 
band     5 # energy    9.44046372 # occ.  0.00000000
 
ion      s     py     pz     px    dxy    dyz    dz2    dxz  x2-y2    tot
    1  0.003  0.104  0.000  0.000  0.000  0.000  0.000  0.000  0.000  0.107
    2  0.088  0.000  0.000  0.000  0.000  0.000  0.000  0.000  0.000  0.088
tot    0.091  0.104  0.000  0.000  0.000  0.000  0.000  0.000  0.000  0.195
 
band     6 # energy   12.29950532 # occ.  0.00000000
 
ion      s     py     pz     px    dxy    dyz    dz2    dxz  x2-y2    tot
    1  0.249  0.002  0.000  0.000  0.000  0.000  0.000  0.000  0.000  0.250
    2  0.001  0.036  0.000  0.000  0.000  0.000  0.000  0.000  0.000  0.037
tot    0.249  0.038  0.000  0.000  0.000  0.000  0.000  0.000  0.000  0.287
 
band     7 # energy   21.56852010 # occ.  0.00000000
 
ion      s     py     pz     px    dxy    dyz    dz2    dxz  x2-y2    tot
    1  0.000  0.000  0.217  0.006  0.000  0.000  0.000  0.000  0.000  0.222
    2  0.000  0.000  0.014  0.284  0.000  0.000  0.000  0.000  0.000  0.298
tot    0.000  0.000  0.230  0.290  0.000  0.000  0.000  0.000  0.000  0.520
 
band     8 # energy   21.57142324 # occ.  0.00000000
 
ion      s     py     pz     px    dxy    dyz    dz2    dxz  x2-y2    tot
    1  0.000  0.000  0.006  0.217  0.000  0.000  0.000  0.000  0.000  0.223
    2  0.000  0.001  0.284  0.014  0.000  0.000  0.000  0.000  0.000  0.298
tot    0.000  0.001  0.290  0.231  0.000  0.000  0.000  0.000  0.000  0.521
 

 k-point    19 :    0.47368421 0.00000000 0.47368421     weight = 0.00416667

band     1 # energy   -2.51519221 # occ.  2.00000000
 
ion      s     py     pz     px    dxy    dyz    dz2    dxz  x2-y2    tot
    1  0.019  0.124  0.000  0.000  0.000  0.000  0.000  0.000  0.000  0.144
    2  0.411  0.005  0.000  0.000  0.000  0.000  0.000  0.000  0.000  0.416
tot    0.431  0.129  0.000  0.000  0.000  0.000  0.000  0.000  0.000  0.560
 
band     2 # energy    0.32378751 # occ.  2.00000000
 
ion      s     py     pz     px    dxy    dyz    dz2    dxz  x2-y2    tot
    1  0.329  0.007  0.000  0.000  0.000  0.000  0.000  0.000  0.000  0.337
    2  0.019  0.180  0.000  0.000  0.000  0.000  0.000  0.000  0.000  0.200
tot    0.349  0.188  0.000  0.000  0.000  0.000  0.000  0.000  0.000  0.537
 
band     3 # energy    4.79997362 # occ.  2.00000000
 
ion      s     py     pz     px    dxy    dyz    dz2    dxz  x2-y2    tot
    1  0.000  0.000  0.111  0.111  0.000  0.000  0.000  0.000  0.000  0.223
    2  0.000  0.000  0.158  0.158  0.000  0.000  0.000  0.000  0.000  0.315
tot    0.000  0.000  0.269  0.269  0.000  0.000  0.000  0.000  0.000  0.538
 
band     4 # energy    4.79997385 # occ.  2.00000000
 
ion      s     py     pz     px    dxy    dyz    dz2    dxz  x2-y2    tot
    1  0.000  0.000  0.111  0.111  0.000  0.000  0.000  0.000  0.000  0.223
    2  0.000  0.000  0.158  0.158  0.000  0.000  0.000  0.000  0.000  0.315
tot    0.000  0.000  0.269  0.269  0.000  0.000  0.000  0.000  0.000  0.538
 
band     5 # energy    9.34428735 # occ.  0.00000000
 
ion      s     py     pz     px    dxy    dyz    dz2    dxz  x2-y2    tot
    1  0.001  0.100  0.000  0.000  0.000  0.000  0.000  0.000  0.000  0.101
    2  0.090  0.000  0.000  0.000  0.000  0.000  0.000  0.000  0.000  0.090
tot    0.091  0.100  0.000  0.000  0.000  0.000  0.000  0.000  0.000  0.191
 
band     6 # energy   12.23418931 # occ.  0.00000000
 
ion      s     py     pz     px    dxy    dyz    dz2    dxz  x2-y2    tot
    1  0.252  0.000  0.000  0.000  0.000  0.000  0.000  0.000  0.000  0.253
    2  0.000  0.035  0.000  0.000  0.000  0.000  0.000  0.000  0.000  0.035
tot    0.252  0.036  0.000  0.000  0.000  0.000  0.000  0.000  0.000  0.288
 
band     7 # energy   21.74350326 # occ.  0.00000000
 
ion      s     py     pz     px    dxy    dyz    dz2    dxz  x2-y2    tot
    1  0.000  0.000  0.177  0.038  0.000  0.000  0.000  0.000  0.000  0.215
    2  0.000  0.000  0.056  0.251  0.000  0.000  0.000  0.000  0.000  0.307
tot    0.000  0.000  0.233  0.289  0.000  0.000  0.000  0.000  0.000  0.522
 
band     8 # energy   21.74578989 # occ.  0.00000000
 
ion      s     py     pz     px    dxy    dyz    dz2    dxz  x2-y2    tot
    1  0.000  0.000  0.039  0.177  0.000  0.000  0.000  0.000  0.000  0.216
    2  0.000  0.001  0.251  0.056  0.000  0.000  0.000  0.000  0.000  0.308
tot    0.000  0.001  0.290  0.233  0.000  0.000  0.000  0.000  0.000  0.524
 

 k-point    20 :    0.50000000 0.00000000 0.50000000     weight = 0.00416667

band     1 # energy   -2.39831047 # occ.  2.00000000
 
ion      s     py     pz     px    dxy    dyz    dz2    dxz  x2-y2    tot
    1  0.000  0.132  0.000  0.000  0.000  0.000  0.000  0.000  0.000  0.132
    2  0.431  0.000  0.000  0.000  0.000  0.000  0.000  0.000  0.000  0.431
tot    0.431  0.132  0.000  0.000  0.000  0.000  0.000  0.000  0.000  0.563
 
band     2 # energy    0.19333169 # occ.  2.00000000
 
ion      s     py     pz     px    dxy    dyz    dz2    dxz  x2-y2    tot
    1  0.349  0.000  0.000  0.000  0.000  0.000  0.000  0.000  0.000  0.349
    2  0.000  0.184  0.000  0.000  0.000  0.000  0.000  0.000  0.000  0.184
tot    0.349  0.184  0.000  0.000  0.000  0.000  0.000  0.000  0.000  0.533
 
band     3 # energy    4.78532213 # occ.  2.00000000
 
ion      s     py     pz     px    dxy    dyz    dz2    dxz  x2-y2    tot
    1  0.000  0.000  0.112  0.112  0.000  0.000  0.000  0.000  0.000  0.223
    2  0.000  0.000  0.157  0.157  0.000  0.000  0.000  0.000  0.000  0.315
tot    0.000  0.000  0.269  0.269  0.000  0.000  0.000  0.000  0.000  0.538
 
band     4 # energy    4.78532236 # occ.  2.00000000
 
ion      s     py     pz     px    dxy    dyz    dz2    dxz  x2-y2    tot
    1  0.000  0.000  0.112  0.112  0.000  0.000  0.000  0.000  0.000  0.223
    2  0.000  0.000  0.157  0.157  0.000  0.000  0.000  0.000  0.000  0.315
tot    0.000  0.000  0.269  0.269  0.000  0.000  0.000  0.000  0.000  0.538
 
band     5 # energy    9.31217896 # occ.  0.00000000
 
ion      s     py     pz     px    dxy    dyz    dz2    dxz  x2-y2    tot
    1  0.000  0.099  0.000  0.000  0.000  0.000  0.000  0.000  0.000  0.099
    2  0.091  0.000  0.000  0.000  0.000  0.000  0.000  0.000  0.000  0.091
tot    0.091  0.099  0.000  0.000  0.000  0.000  0.000  0.000  0.000  0.190
 
band     6 # energy   12.21244698 # occ.  0.00000000
 
ion      s     py     pz     px    dxy    dyz    dz2    dxz  x2-y2    tot
    1  0.253  0.000  0.000  0.000  0.000  0.000  0.000  0.000  0.000  0.253
    2  0.000  0.035  0.000  0.000  0.000  0.000  0.000  0.000  0.000  0.035
tot    0.253  0.035  0.000  0.000  0.000  0.000  0.000  0.000  0.000  0.288
 
band     7 # energy   21.80373914 # occ.  0.00000000
 
ion      s     py     pz     px    dxy    dyz    dz2    dxz  x2-y2    tot
    1  0.000  0.000  0.186  0.027  0.000  0.000  0.000  0.000  0.000  0.212
    2  0.000  0.000  0.039  0.271  0.000  0.000  0.000  0.000  0.000  0.310
tot    0.000  0.000  0.225  0.298  0.000  0.000  0.000  0.000  0.000  0.523
 
band     8 # energy   21.81419280 # occ.  0.00000000
 
ion      s     py     pz     px    dxy    dyz    dz2    dxz  x2-y2    tot
    1  0.000  0.000  0.026  0.184  0.000  0.000  0.000  0.000  0.000  0.210
    2  0.000  0.003  0.271  0.038  0.000  0.000  0.000  0.000  0.000  0.312
tot    0.000  0.003  0.297  0.222  0.000  0.000  0.000  0.000  0.000  0.522
 

 k-point    21 :    0.50000000 0.00000000 0.50000000     weight = 0.00416667

band     1 # energy   -2.39831047 # occ.  2.00000000
 
ion      s     py     pz     px    dxy    dyz    dz2    dxz  x2-y2    tot
    1  0.000  0.132  0.000  0.000  0.000  0.000  0.000  0.000  0.000  0.132
    2  0.431  0.000  0.000  0.000  0.000  0.000  0.000  0.000  0.000  0.431
tot    0.431  0.132  0.000  0.000  0.000  0.000  0.000  0.000  0.000  0.563
 
band     2 # energy    0.19333169 # occ.  2.00000000
 
ion      s     py     pz     px    dxy    dyz    dz2    dxz  x2-y2    tot
    1  0.349  0.000  0.000  0.000  0.000  0.000  0.000  0.000  0.000  0.349
    2  0.000  0.184  0.000  0.000  0.000  0.000  0.000  0.000  0.000  0.184
tot    0.349  0.184  0.000  0.000  0.000  0.000  0.000  0.000  0.000  0.533
 
band     3 # energy    4.78532213 # occ.  2.00000000
 
ion      s     py     pz     px    dxy    dyz    dz2    dxz  x2-y2    tot
    1  0.000  0.000  0.112  0.112  0.000  0.000  0.000  0.000  0.000  0.223
    2  0.000  0.000  0.157  0.157  0.000  0.000  0.000  0.000  0.000  0.315
tot    0.000  0.000  0.269  0.269  0.000  0.000  0.000  0.000  0.000  0.538
 
band     4 # energy    4.78532236 # occ.  2.00000000
 
ion      s     py     pz     px    dxy    dyz    dz2    dxz  x2-y2    tot
    1  0.000  0.000  0.112  0.112  0.000  0.000  0.000  0.000  0.000  0.223
    2  0.000  0.000  0.157  0.157  0.000  0.000  0.000  0.000  0.000  0.315
tot    0.000  0.000  0.269  0.269  0.000  0.000  0.000  0.000  0.000  0.538
 
band     5 # energy    9.31217896 # occ.  0.00000000
 
ion      s     py     pz     px    dxy    dyz    dz2    dxz  x2-y2    tot
    1  0.000  0.099  0.000  0.000  0.000  0.000  0.000  0.000  0.000  0.099
    2  0.091  0.000  0.000  0.000  0.000  0.000  0.000  0.000  0.000  0.091
tot    0.091  0.099  0.000  0.000  0.000  0.000  0.000  0.000  0.000  0.190
 
band     6 # energy   12.21244698 # occ.  0.00000000
 
ion      s     py     pz     px    dxy    dyz    dz2    dxz  x2-y2    tot
    1  0.253  0.000  0.000  0.000  0.000  0.000  0.000  0.000  0.000  0.253
    2  0.000  0.035  0.000  0.000  0.000  0.000  0.000  0.000  0.000  0.035
tot    0.253  0.035  0.000  0.000  0.000  0.000  0.000  0.000  0.000  0.288
 
band     7 # energy   21.80373901 # occ.  0.00000000
 
ion      s     py     pz     px    dxy    dyz    dz2    dxz  x2-y2    tot
    1  0.000  0.000  0.199  0.013  0.000  0.000  0.000  0.000  0.000  0.212
    2  0.000  0.000  0.019  0.291  0.000  0.000  0.000  0.000  0.000  0.310
tot    0.000  0.000  0.219  0.304  0.000  0.000  0.000  0.000  0.000  0.523
 
band     8 # energy   21.80446552 # occ.  0.00000000
 
ion      s     py     pz     px    dxy    dyz    dz2    dxz  x2-y2    tot
    1  0.000  0.000  0.013  0.199  0.000  0.000  0.000  0.000  0.000  0.212
    2  0.000  0.001  0.291  0.019  0.000  0.000  0.000  0.000  0.000  0.310
tot    0.000  0.001  0.304  0.218  0.000  0.000  0.000  0.000  0.000  0.523
 

 k-point    22 :    0.50657895 0.01315789 0.50657895     weight = 0.00416667

band     1 # energy   -2.39761458 # occ.  2.00000000
 
ion      s     py     pz     px    dxy    dyz    dz2    dxz  x2-y2    tot
    1  0.000  0.132  0.000  0.000  0.000  0.000  0.000  0.000  0.000  0.132
    2  0.431  0.000  0.000  0.000  0.000  0.000  0.000  0.000  0.000  0.431
tot    0.431  0.132  0.000  0.000  0.000  0.000  0.000  0.000  0.000  0.563
 
band     2 # energy    0.19511270 # occ.  2.00000000
 
ion      s     py     pz     px    dxy    dyz    dz2    dxz  x2-y2    tot
    1  0.349  0.000  0.000  0.000  0.000  0.000  0.000  0.000  0.000  0.349
    2  0.000  0.184  0.000  0.000  0.000  0.000  0.000  0.000  0.000  0.184
tot    0.349  0.184  0.000  0.000  0.000  0.000  0.000  0.000  0.000  0.533
 
band     3 # energy    4.77029996 # occ.  2.00000000
 
ion      s     py     pz     px    dxy    dyz    dz2    dxz  x2-y2    tot
    1  0.000  0.000  0.111  0.111  0.000  0.000  0.000  0.000  0.000  0.223
    2  0.000  0.000  0.157  0.157  0.000  0.000  0.000  0.000  0.000  0.314
tot    0.000  0.001  0.268  0.268  0.000  0.000  0.000  0.000  0.000  0.537
 
band     4 # energy    4.78701042 # occ.  2.00000000
 
ion      s     py     pz     px    dxy    dyz    dz2    dxz  x2-y2    tot
    1  0.000  0.000  0.112  0.112  0.000  0.000  0.000  0.000  0.000  0.223
    2  0.000  0.000  0.157  0.157  0.000  0.000  0.000  0.000  0.000  0.315
tot    0.000  0.000  0.269  0.269  0.000  0.000  0.000  0.000  0.000  0.538
 
band     5 # energy    9.32402575 # occ.  0.00000000
 
ion      s     py     pz     px    dxy    dyz    dz2    dxz  x2-y2    tot
    1  0.000  0.098  0.000  0.000  0.000  0.000  0.000  0.000  0.000  0.099
    2  0.091  0.000  0.001  0.001  0.000  0.000  0.000  0.000  0.000  0.092
tot    0.091  0.098  0.001  0.001  0.000  0.000  0.000  0.000  0.000  0.190
 
band     6 # energy   12.22308702 # occ.  0.00000000
 
ion      s     py     pz     px    dxy    dyz    dz2    dxz  x2-y2    tot
    1  0.253  0.000  0.000  0.000  0.000  0.000  0.000  0.000  0.000  0.253
    2  0.000  0.035  0.000  0.000  0.000  0.000  0.000  0.000  0.000  0.035
tot    0.253  0.035  0.000  0.000  0.000  0.000  0.000  0.000  0.000  0.288
 
band     7 # energy   21.79628841 # occ.  0.00000000
 
ion      s     py     pz     px    dxy    dyz    dz2    dxz  x2-y2    tot
    1  0.000  0.000  0.137  0.076  0.000  0.000  0.000  0.000  0.000  0.213
    2  0.000  0.000  0.110  0.199  0.000  0.000  0.000  0.000  0.000  0.310
tot    0.000  0.000  0.247  0.275  0.000  0.000  0.000  0.000  0.000  0.522
 
band     8 # energy   21.80109726 # occ.  0.00000000
 
ion      s     py     pz     px    dxy    dyz    dz2    dxz  x2-y2    tot
    1  0.000  0.000  0.075  0.137  0.000  0.000  0.000  0.000  0.000  0.211
    2  0.000  0.000  0.199  0.110  0.000  0.000  0.000  0.000  0.000  0.310
tot    0.000  0.000  0.274  0.247  0.000  0.000  0.000  0.000  0.000  0.521
 

 k-point    23 :    0.51315789 0.02631579 0.51315789     weight = 0.00416667

band     1 # energy   -2.39550959 # occ.  2.00000000
 
ion      s     py     pz     px    dxy    dyz    dz2    dxz  x2-y2    tot
    1  0.000  0.132  0.000  0.000  0.000  0.000  0.000  0.000  0.000  0.132
    2  0.431  0.000  0.000  0.000  0.000  0.000  0.000  0.000  0.000  0.431
tot    0.431  0.132  0.000  0.000  0.000  0.000  0.000  0.000  0.000  0.563
 
band     2 # energy    0.20046266 # occ.  2.00000000
 
ion      s     py     pz     px    dxy    dyz    dz2    dxz  x2-y2    tot
    1  0.349  0.000  0.000  0.000  0.000  0.000  0.000  0.000  0.000  0.350
    2  0.000  0.184  0.000  0.000  0.000  0.000  0.000  0.000  0.000  0.184
tot    0.349  0.184  0.000  0.000  0.000  0.000  0.000  0.000  0.000  0.534
 
band     3 # energy    4.72597547 # occ.  2.00000000
 
ion      s     py     pz     px    dxy    dyz    dz2    dxz  x2-y2    tot
    1  0.001  0.002  0.110  0.110  0.000  0.000  0.000  0.000  0.000  0.223
    2  0.000  0.000  0.155  0.155  0.000  0.000  0.000  0.000  0.000  0.311
tot    0.002  0.002  0.265  0.265  0.000  0.000  0.000  0.000  0.000  0.534
 
band     4 # energy    4.79207878 # occ.  2.00000000
 
ion      s     py     pz     px    dxy    dyz    dz2    dxz  x2-y2    tot
    1  0.000  0.000  0.112  0.112  0.000  0.000  0.000  0.000  0.000  0.223
    2  0.000  0.000  0.158  0.158  0.000  0.000  0.000  0.000  0.000  0.315
tot    0.000  0.000  0.269  0.269  0.000  0.000  0.000  0.000  0.000  0.538
 
band     5 # energy    9.35878540 # occ.  0.00000000
 
ion      s     py     pz     px    dxy    dyz    dz2    dxz  x2-y2    tot
    1  0.000  0.097  0.001  0.001  0.000  0.000  0.000  0.000  0.000  0.099
    2  0.090  0.000  0.002  0.002  0.000  0.000  0.000  0.000  0.000  0.094
tot    0.090  0.097  0.003  0.003  0.000  0.000  0.000  0.000  0.000  0.193
 
band     6 # energy   12.25507696 # occ.  0.00000000
 
ion      s     py     pz     px    dxy    dyz    dz2    dxz  x2-y2    tot
    1  0.251  0.000  0.001  0.001  0.000  0.000  0.000  0.000  0.000  0.253
    2  0.000  0.035  0.001  0.001  0.000  0.000  0.000  0.000  0.000  0.037
tot    0.252  0.035  0.002  0.002  0.000  0.000  0.000  0.000  0.000  0.290
 
band     7 # energy   21.77440772 # occ.  0.00000000
 
ion      s     py     pz     px    dxy    dyz    dz2    dxz  x2-y2    tot
    1  0.000  0.000  0.123  0.088  0.000  0.000  0.000  0.000  0.000  0.211
    2  0.000  0.001  0.128  0.179  0.000  0.000  0.000  0.000  0.000  0.308
tot    0.000  0.001  0.251  0.267  0.000  0.000  0.000  0.000  0.000  0.519
 
band     8 # energy   21.78214480 # occ.  0.00000000
 
ion      s     py     pz     px    dxy    dyz    dz2    dxz  x2-y2    tot
    1  0.000  0.001  0.088  0.123  0.000  0.000  0.000  0.000  0.000  0.213
    2  0.002  0.000  0.179  0.128  0.000  0.000  0.000  0.000  0.000  0.309
tot    0.002  0.002  0.267  0.251  0.000  0.000  0.000  0.000  0.000  0.522
 

 k-point    24 :    0.51973684 0.03947368 0.51973684     weight = 0.00416667

band     1 # energy   -2.39212628 # occ.  2.00000000
 
ion      s     py     pz     px    dxy    dyz    dz2    dxz  x2-y2    tot
    1  0.000  0.131  0.000  0.000  0.000  0.000  0.000  0.000  0.000  0.132
    2  0.431  0.000  0.000  0.000  0.000  0.000  0.000  0.000  0.000  0.431
tot    0.431  0.131  0.000  0.000  0.000  0.000  0.000  0.000  0.000  0.563
 
band     2 # energy    0.20932233 # occ.  2.00000000
 
ion      s     py     pz     px    dxy    dyz    dz2    dxz  x2-y2    tot
    1  0.350  0.000  0.000  0.000  0.000  0.000  0.000  0.000  0.000  0.350
    2  0.000  0.184  0.000  0.000  0.000  0.000  0.000  0.000  0.000  0.184
tot    0.350  0.184  0.000  0.000  0.000  0.000  0.000  0.000  0.000  0.534
 
band     3 # energy    4.65440277 # occ.  2.00000000
 
ion      s     py     pz     px    dxy    dyz    dz2    dxz  x2-y2    tot
    1  0.003  0.004  0.108  0.108  0.000  0.000  0.000  0.000  0.000  0.223
    2  0.001  0.001  0.152  0.152  0.000  0.000  0.000  0.000  0.000  0.306
tot    0.004  0.004  0.260  0.260  0.000  0.000  0.000  0.000  0.000  0.528
 
band     4 # energy    4.80050910 # occ.  2.00000000
 
ion      s     py     pz     px    dxy    dyz    dz2    dxz  x2-y2    tot
    1  0.000  0.000  0.111  0.111  0.000  0.000  0.000  0.000  0.000  0.223
    2  0.000  0.000  0.158  0.158  0.000  0.000  0.000  0.000  0.000  0.315
tot    0.000  0.000  0.269  0.269  0.000  0.000  0.000  0.000  0.000  0.538
 
band     5 # energy    9.41423333 # occ.  0.00000000
 
ion      s     py     pz     px    dxy    dyz    dz2    dxz  x2-y2    tot
    1  0.000  0.096  0.001  0.001  0.000  0.000  0.000  0.000  0.000  0.098
    2  0.089  0.000  0.004  0.004  0.000  0.000  0.000  0.000  0.000  0.097
tot    0.089  0.096  0.005  0.005  0.000  0.000  0.000  0.000  0.000  0.196
 
band     6 # energy   12.30857537 # occ.  0.00000000
 
ion      s     py     pz     px    dxy    dyz    dz2    dxz  x2-y2    tot
    1  0.249  0.000  0.002  0.002  0.000  0.000  0.000  0.000  0.000  0.253
    2  0.000  0.034  0.002  0.002  0.000  0.000  0.000  0.000  0.000  0.039
tot    0.249  0.034  0.004  0.004  0.000  0.000  0.000  0.000  0.000  0.292
 
band     7 # energy   21.73772478 # occ.  0.00000000
 
ion      s     py     pz     px    dxy    dyz    dz2    dxz  x2-y2    tot
    1  0.000  0.000  0.090  0.120  0.000  0.000  0.000  0.000  0.000  0.211
    2  0.000  0.004  0.173  0.131  0.000  0.000  0.000  0.000  0.000  0.308
tot    0.001  0.004  0.263  0.251  0.000  0.000  0.000  0.000  0.000  0.518
 
band     8 # energy   21.75645708 # occ.  0.00000000
 
ion      s     py     pz     px    dxy    dyz    dz2    dxz  x2-y2    tot
    1  0.000  0.003  0.119  0.091  0.000  0.000  0.000  0.000  0.000  0.214
    2  0.004  0.001  0.132  0.171  0.000  0.000  0.000  0.000  0.000  0.308
tot    0.004  0.005  0.250  0.262  0.000  0.000  0.000  0.000  0.000  0.521
 

 k-point    25 :    0.52631579 0.05263158 0.52631579     weight = 0.00416667

band     1 # energy   -2.38752714 # occ.  2.00000000
 
ion      s     py     pz     px    dxy    dyz    dz2    dxz  x2-y2    tot
    1  0.000  0.131  0.001  0.001  0.000  0.000  0.000  0.000  0.000  0.132
    2  0.432  0.000  0.000  0.000  0.000  0.000  0.000  0.000  0.000  0.432
tot    0.432  0.131  0.001  0.001  0.000  0.000  0.000  0.000  0.000  0.564
 
band     2 # energy    0.22166322 # occ.  2.00000000
 
ion      s     py     pz     px    dxy    dyz    dz2    dxz  x2-y2    tot
    1  0.350  0.000  0.000  0.000  0.000  0.000  0.000  0.000  0.000  0.351
    2  0.000  0.184  0.000  0.000  0.000  0.000  0.000  0.000  0.000  0.184
tot    0.350  0.184  0.000  0.000  0.000  0.000  0.000  0.000  0.000  0.535
 
band     3 # energy    4.55867594 # occ.  2.00000000
 
ion      s     py     pz     px    dxy    dyz    dz2    dxz  x2-y2    tot
    1  0.004  0.006  0.106  0.106  0.000  0.000  0.000  0.000  0.000  0.223
    2  0.002  0.002  0.148  0.148  0.000  0.000  0.000  0.000  0.000  0.299
tot    0.006  0.008  0.254  0.254  0.000  0.000  0.000  0.000  0.000  0.522
 
band     4 # energy    4.81229670 # occ.  2.00000000
 
ion      s     py     pz     px    dxy    dyz    dz2    dxz  x2-y2    tot
    1  0.000  0.000  0.111  0.111  0.000  0.000  0.000  0.000  0.000  0.223
    2  0.000  0.000  0.158  0.158  0.000  0.000  0.000  0.000  0.000  0.316
tot    0.000  0.000  0.269  0.269  0.000  0.000  0.000  0.000  0.000  0.538
 
band     5 # energy    9.48713412 # occ.  0.00000000
 
ion      s     py     pz     px    dxy    dyz    dz2    dxz  x2-y2    tot
    1  0.001  0.094  0.002  0.002  0.000  0.000  0.000  0.000  0.000  0.098
    2  0.087  0.000  0.007  0.007  0.000  0.000  0.000  0.000  0.000  0.101
tot    0.088  0.094  0.009  0.009  0.000  0.000  0.000  0.000  0.000  0.199
 
band     6 # energy   12.38381301 # occ.  0.00000000
 
ion      s     py     pz     px    dxy    dyz    dz2    dxz  x2-y2    tot
    1  0.246  0.000  0.003  0.003  0.000  0.000  0.000  0.000  0.000  0.252
    2  0.000  0.034  0.004  0.004  0.000  0.000  0.000  0.000  0.000  0.042
tot    0.246  0.034  0.007  0.007  0.000  0.000  0.000  0.000  0.000  0.294
 
band     7 # energy   21.67664296 # occ.  0.00000000
 
ion      s     py     pz     px    dxy    dyz    dz2    dxz  x2-y2    tot
    1  0.000  0.000  0.106  0.105  0.000  0.000  0.000  0.000  0.000  0.211
    2  0.000  0.000  0.151  0.152  0.000  0.000  0.000  0.000  0.000  0.303
tot    0.000  0.000  0.257  0.257  0.000  0.000  0.000  0.000  0.000  0.514
 
band     8 # energy   21.71682213 # occ.  0.00000000
 
ion      s     py     pz     px    dxy    dyz    dz2    dxz  x2-y2    tot
    1  0.000  0.006  0.104  0.104  0.000  0.000  0.000  0.000  0.000  0.214
    2  0.007  0.002  0.149  0.149  0.000  0.000  0.000  0.000  0.000  0.306
tot    0.007  0.008  0.253  0.253  0.000  0.000  0.000  0.000  0.000  0.519
 

 k-point    26 :    0.53289474 0.06578947 0.53289474     weight = 0.00416667

band     1 # energy   -2.38185305 # occ.  2.00000000
 
ion      s     py     pz     px    dxy    dyz    dz2    dxz  x2-y2    tot
    1  0.000  0.130  0.001  0.001  0.000  0.000  0.000  0.000  0.000  0.132
    2  0.432  0.000  0.000  0.000  0.000  0.000  0.000  0.000  0.000  0.432
tot    0.432  0.130  0.001  0.001  0.000  0.000  0.000  0.000  0.000  0.564
 
band     2 # energy    0.23742005 # occ.  2.00000000
 
ion      s     py     pz     px    dxy    dyz    dz2    dxz  x2-y2    tot
    1  0.351  0.000  0.000  0.000  0.000  0.000  0.000  0.000  0.000  0.351
    2  0.000  0.183  0.000  0.000  0.000  0.000  0.000  0.000  0.000  0.184
tot    0.351  0.183  0.001  0.001  0.000  0.000  0.000  0.000  0.000  0.536
 
band     3 # energy    4.44245875 # occ.  2.00000000
 
ion      s     py     pz     px    dxy    dyz    dz2    dxz  x2-y2    tot
    1  0.006  0.009  0.104  0.104  0.000  0.000  0.000  0.000  0.000  0.222
    2  0.002  0.003  0.144  0.144  0.000  0.000  0.000  0.000  0.000  0.292
tot    0.008  0.011  0.247  0.247  0.000  0.000  0.000  0.000  0.000  0.514
 
band     4 # energy    4.82742625 # occ.  2.00000000
 
ion      s     py     pz     px    dxy    dyz    dz2    dxz  x2-y2    tot
    1  0.000  0.000  0.111  0.111  0.000  0.000  0.000  0.000  0.000  0.222
    2  0.000  0.000  0.158  0.158  0.000  0.000  0.000  0.000  0.000  0.316
tot    0.000  0.000  0.269  0.269  0.000  0.000  0.000  0.000  0.000  0.538
 
band     5 # energy    9.57372578 # occ.  0.00000000
 
ion      s     py     pz     px    dxy    dyz    dz2    dxz  x2-y2    tot
    1  0.002  0.092  0.002  0.002  0.000  0.000  0.000  0.000  0.000  0.098
    2  0.085  0.000  0.010  0.010  0.000  0.000  0.000  0.000  0.000  0.105
tot    0.087  0.092  0.012  0.012  0.000  0.000  0.000  0.000  0.000  0.203
 
band     6 # energy   12.48097553 # occ.  0.00000000
 
ion      s     py     pz     px    dxy    dyz    dz2    dxz  x2-y2    tot
    1  0.242  0.000  0.004  0.004  0.000  0.000  0.000  0.000  0.000  0.251
    2  0.000  0.034  0.006  0.006  0.000  0.000  0.000  0.000  0.000  0.047
tot    0.242  0.034  0.011  0.011  0.000  0.000  0.000  0.000  0.000  0.297
 
band     7 # energy   21.60994868 # occ.  0.00000000
 
ion      s     py     pz     px    dxy    dyz    dz2    dxz  x2-y2    tot
    1  0.000  0.000  0.106  0.100  0.000  0.000  0.000  0.000  0.000  0.207
    2  0.000  0.001  0.145  0.152  0.000  0.000  0.000  0.000  0.000  0.298
tot    0.000  0.001  0.251  0.253  0.000  0.000  0.000  0.000  0.000  0.505
 
band     8 # energy   21.67193354 # occ.  0.00000000
 
ion      s     py     pz     px    dxy    dyz    dz2    dxz  x2-y2    tot
    1  0.000  0.009  0.100  0.106  0.000  0.000  0.000  0.000  0.000  0.214
    2  0.010  0.005  0.150  0.140  0.000  0.000  0.000  0.000  0.000  0.305
tot    0.010  0.014  0.249  0.246  0.000  0.000  0.000  0.000  0.000  0.520
 

 k-point    27 :    0.53947368 0.07894737 0.53947368     weight = 0.00416667

band     1 # energy   -2.37528223 # occ.  2.00000000
 
ion      s     py     pz     px    dxy    dyz    dz2    dxz  x2-y2    tot
    1  0.000  0.129  0.001  0.001  0.000  0.000  0.000  0.000  0.000  0.131
    2  0.433  0.000  0.000  0.000  0.000  0.000  0.000  0.000  0.000  0.433
tot    0.433  0.129  0.001  0.001  0.000  0.000  0.000  0.000  0.000  0.564
 
band     2 # energy    0.25651219 # occ.  2.00000000
 
ion      s     py     pz     px    dxy    dyz    dz2    dxz  x2-y2    tot
    1  0.352  0.000  0.000  0.000  0.000  0.000  0.000  0.000  0.000  0.352
    2  0.000  0.183  0.001  0.001  0.000  0.000  0.000  0.000  0.000  0.184
tot    0.352  0.183  0.001  0.001  0.000  0.000  0.000  0.000  0.000  0.537
 
band     3 # energy    4.30961510 # occ.  2.00000000
 
ion      s     py     pz     px    dxy    dyz    dz2    dxz  x2-y2    tot
    1  0.008  0.012  0.101  0.101  0.000  0.000  0.000  0.000  0.000  0.222
    2  0.003  0.004  0.139  0.139  0.000  0.000  0.000  0.000  0.000  0.284
tot    0.011  0.015  0.240  0.240  0.000  0.000  0.000  0.000  0.000  0.506
 
band     4 # energy    4.84587775 # occ.  2.00000000
 
ion      s     py     pz     px    dxy    dyz    dz2    dxz  x2-y2    tot
    1  0.000  0.000  0.111  0.111  0.000  0.000  0.000  0.000  0.000  0.222
    2  0.000  0.000  0.158  0.158  0.000  0.000  0.000  0.000  0.000  0.317
tot    0.000  0.000  0.269  0.269  0.000  0.000  0.000  0.000  0.000  0.539
 
band     5 # energy    9.67021780 # occ.  0.00000000
 
ion      s     py     pz     px    dxy    dyz    dz2    dxz  x2-y2    tot
    1  0.004  0.089  0.003  0.003  0.000  0.000  0.000  0.000  0.000  0.099
    2  0.083  0.001  0.012  0.012  0.000  0.000  0.000  0.000  0.000  0.108
tot    0.087  0.090  0.015  0.015  0.000  0.000  0.000  0.000  0.000  0.207
 
band     6 # energy   12.60010725 # occ.  0.00000000
 
ion      s     py     pz     px    dxy    dyz    dz2    dxz  x2-y2    tot
    1  0.236  0.000  0.006  0.006  0.000  0.000  0.000  0.000  0.000  0.249
    2  0.000  0.033  0.009  0.009  0.000  0.000  0.000  0.000  0.000  0.052
tot    0.237  0.034  0.016  0.016  0.000  0.000  0.000  0.000  0.000  0.301
 
band     7 # energy   21.52228459 # occ.  0.00000000
 
ion      s     py     pz     px    dxy    dyz    dz2    dxz  x2-y2    tot
    1  0.000  0.000  0.108  0.102  0.000  0.000  0.000  0.000  0.000  0.209
    2  0.000  0.000  0.143  0.152  0.000  0.000  0.000  0.000  0.000  0.295
tot    0.000  0.000  0.251  0.253  0.000  0.000  0.000  0.000  0.000  0.504
 
band     8 # energy   21.64801999 # occ.  0.00000000
 
ion      s     py     pz     px    dxy    dyz    dz2    dxz  x2-y2    tot
    1  0.001  0.010  0.091  0.100  0.000  0.000  0.000  0.000  0.000  0.201
    2  0.011  0.023  0.140  0.131  0.000  0.000  0.000  0.000  0.000  0.306
tot    0.012  0.033  0.231  0.230  0.000  0.000  0.000  0.000  0.000  0.507
 

 k-point    28 :    0.54605263 0.09210526 0.54605263     weight = 0.00416667

band     1 # energy   -2.36804907 # occ.  2.00000000
 
ion      s     py     pz     px    dxy    dyz    dz2    dxz  x2-y2    tot
    1  0.000  0.127  0.002  0.002  0.000  0.000  0.000  0.000  0.000  0.131
    2  0.434  0.000  0.000  0.000  0.000  0.000  0.000  0.000  0.000  0.434
tot    0.434  0.127  0.002  0.002  0.000  0.000  0.000  0.000  0.000  0.565
 
band     2 # energy    0.27883356 # occ.  2.00000000
 
ion      s     py     pz     px    dxy    dyz    dz2    dxz  x2-y2    tot
    1  0.352  0.000  0.001  0.001  0.000  0.000  0.000  0.000  0.000  0.354
    2  0.000  0.183  0.001  0.001  0.000  0.000  0.000  0.000  0.000  0.184
tot    0.352  0.183  0.001  0.001  0.000  0.000  0.000  0.000  0.000  0.538
 
band     3 # energy    4.16394159 # occ.  2.00000000
 
ion      s     py     pz     px    dxy    dyz    dz2    dxz  x2-y2    tot
    1  0.009  0.015  0.098  0.098  0.000  0.000  0.000  0.000  0.000  0.222
    2  0.003  0.005  0.134  0.134  0.000  0.000  0.000  0.000  0.000  0.276
tot    0.013  0.020  0.233  0.233  0.000  0.000  0.000  0.000  0.000  0.498
 
band     4 # energy    4.86763283 # occ.  2.00000000
 
ion      s     py     pz     px    dxy    dyz    dz2    dxz  x2-y2    tot
    1  0.000  0.000  0.111  0.111  0.000  0.000  0.000  0.000  0.000  0.221
    2  0.000  0.000  0.159  0.159  0.000  0.000  0.000  0.000  0.000  0.317
tot    0.000  0.000  0.269  0.269  0.000  0.000  0.000  0.000  0.000  0.539
 
band     5 # energy    9.77317539 # occ.  0.00000000
 
ion      s     py     pz     px    dxy    dyz    dz2    dxz  x2-y2    tot
    1  0.007  0.087  0.003  0.003  0.000  0.000  0.000  0.000  0.000  0.099
    2  0.080  0.001  0.015  0.015  0.000  0.000  0.000  0.000  0.000  0.111
tot    0.087  0.088  0.017  0.017  0.000  0.000  0.000  0.000  0.000  0.210
 
band     6 # energy   12.74101211 # occ.  0.00000000
 
ion      s     py     pz     px    dxy    dyz    dz2    dxz  x2-y2    tot
    1  0.230  0.001  0.008  0.008  0.000  0.000  0.000  0.000  0.000  0.247
    2  0.000  0.033  0.013  0.013  0.000  0.000  0.000  0.000  0.000  0.059
tot    0.231  0.033  0.021  0.021  0.000  0.000  0.000  0.000  0.000  0.306
 
band     7 # energy   21.42611542 # occ.  0.00000000
 
ion      s     py     pz     px    dxy    dyz    dz2    dxz  x2-y2    tot
    1  0.000  0.000  0.105  0.103  0.000  0.000  0.000  0.000  0.000  0.208
    2  0.000  0.000  0.143  0.146  0.000  0.000  0.000  0.000  0.000  0.290
tot    0.000  0.000  0.249  0.249  0.000  0.000  0.000  0.000  0.000  0.498
 
band     8 # energy   21.54577476 # occ.  0.00000000
 
ion      s     py     pz     px    dxy    dyz    dz2    dxz  x2-y2    tot
    1  0.000  0.018  0.097  0.098  0.000  0.000  0.000  0.000  0.000  0.212
    2  0.019  0.009  0.136  0.134  0.000  0.000  0.000  0.000  0.000  0.297
tot    0.019  0.027  0.233  0.232  0.000  0.000  0.000  0.000  0.000  0.510
 

 k-point    29 :    0.55263158 0.10526316 0.55263158     weight = 0.00416667

band     1 # energy   -2.36046580 # occ.  2.00000000
 
ion      s     py     pz     px    dxy    dyz    dz2    dxz  x2-y2    tot
    1  0.001  0.125  0.002  0.002  0.000  0.000  0.000  0.000  0.000  0.130
    2  0.435  0.000  0.000  0.000  0.000  0.000  0.000  0.000  0.000  0.435
tot    0.435  0.125  0.002  0.002  0.000  0.000  0.000  0.000  0.000  0.565
 
band     2 # energy    0.30421120 # occ.  2.00000000
 
ion      s     py     pz     px    dxy    dyz    dz2    dxz  x2-y2    tot
    1  0.353  0.000  0.001  0.001  0.000  0.000  0.000  0.000  0.000  0.355
    2  0.000  0.182  0.001  0.001  0.000  0.000  0.000  0.000  0.000  0.185
tot    0.354  0.182  0.002  0.002  0.000  0.000  0.000  0.000  0.000  0.540
 
band     3 # energy    4.00897676 # occ.  2.00000000
 
ion      s     py     pz     px    dxy    dyz    dz2    dxz  x2-y2    tot
    1  0.011  0.019  0.096  0.096  0.000  0.000  0.000  0.000  0.000  0.221
    2  0.003  0.006  0.130  0.130  0.000  0.000  0.000  0.000  0.000  0.269
tot    0.014  0.025  0.225  0.225  0.000  0.000  0.000  0.000  0.000  0.490
 
band     4 # energy    4.89265072 # occ.  2.00000000
 
ion      s     py     pz     px    dxy    dyz    dz2    dxz  x2-y2    tot
    1  0.000  0.000  0.110  0.110  0.000  0.000  0.000  0.000  0.000  0.221
    2  0.000  0.000  0.159  0.159  0.000  0.000  0.000  0.000  0.000  0.318
tot    0.000  0.000  0.269  0.269  0.000  0.000  0.000  0.000  0.000  0.539
 
band     5 # energy    9.87973508 # occ.  0.00000000
 
ion      s     py     pz     px    dxy    dyz    dz2    dxz  x2-y2    tot
    1  0.011  0.084  0.003  0.003  0.000  0.000  0.000  0.000  0.000  0.100
    2  0.078  0.002  0.017  0.017  0.000  0.000  0.000  0.000  0.000  0.113
tot    0.089  0.086  0.019  0.019  0.000  0.000  0.000  0.000  0.000  0.213
 
band     6 # energy   12.90313393 # occ.  0.00000000
 
ion      s     py     pz     px    dxy    dyz    dz2    dxz  x2-y2    tot
    1  0.223  0.001  0.010  0.010  0.000  0.000  0.000  0.000  0.000  0.244
    2  0.001  0.032  0.017  0.017  0.000  0.000  0.000  0.000  0.000  0.067
tot    0.224  0.033  0.027  0.027  0.000  0.000  0.000  0.000  0.000  0.310
 
band     7 # energy   21.31786797 # occ.  0.00000000
 
ion      s     py     pz     px    dxy    dyz    dz2    dxz  x2-y2    tot
    1  0.000  0.000  0.105  0.103  0.000  0.000  0.000  0.000  0.000  0.207
    2  0.000  0.000  0.141  0.143  0.000  0.000  0.000  0.000  0.000  0.284
tot    0.000  0.000  0.246  0.246  0.000  0.000  0.000  0.000  0.000  0.492
 
band     8 # energy   21.47118831 # occ.  0.00000000
 
ion      s     py     pz     px    dxy    dyz    dz2    dxz  x2-y2    tot
    1  0.000  0.022  0.094  0.095  0.000  0.000  0.000  0.000  0.000  0.212
    2  0.024  0.013  0.129  0.128  0.000  0.000  0.000  0.000  0.000  0.294
tot    0.024  0.035  0.224  0.224  0.000  0.000  0.000  0.000  0.000  0.506
 

 k-point    30 :    0.55921053 0.11842105 0.55921053     weight = 0.00416667

band     1 # energy   -2.35286402 # occ.  2.00000000
 
ion      s     py     pz     px    dxy    dyz    dz2    dxz  x2-y2    tot
    1  0.001  0.123  0.003  0.003  0.000  0.000  0.000  0.000  0.000  0.130
    2  0.436  0.000  0.000  0.000  0.000  0.000  0.000  0.000  0.000  0.436
tot    0.437  0.123  0.003  0.003  0.000  0.000  0.000  0.000  0.000  0.566
 
band     2 # energy    0.33249227 # occ.  2.00000000
 
ion      s     py     pz     px    dxy    dyz    dz2    dxz  x2-y2    tot
    1  0.355  0.000  0.001  0.001  0.000  0.000  0.000  0.000  0.000  0.357
    2  0.000  0.181  0.002  0.002  0.000  0.000  0.000  0.000  0.000  0.185
tot    0.355  0.181  0.003  0.003  0.000  0.000  0.000  0.000  0.000  0.541
 
band     3 # energy    3.84799248 # occ.  2.00000000
 
ion      s     py     pz     px    dxy    dyz    dz2    dxz  x2-y2    tot
    1  0.012  0.022  0.093  0.093  0.000  0.000  0.000  0.000  0.000  0.220
    2  0.003  0.008  0.125  0.125  0.000  0.000  0.000  0.000  0.000  0.261
tot    0.015  0.030  0.218  0.218  0.000  0.000  0.000  0.000  0.000  0.481
 
band     4 # energy    4.92090320 # occ.  2.00000000
 
ion      s     py     pz     px    dxy    dyz    dz2    dxz  x2-y2    tot
    1  0.000  0.000  0.110  0.110  0.000  0.000  0.000  0.000  0.000  0.220
    2  0.000  0.000  0.159  0.159  0.000  0.000  0.000  0.000  0.000  0.319
tot    0.000  0.000  0.270  0.270  0.000  0.000  0.000  0.000  0.000  0.539
 
band     5 # energy    9.98775908 # occ.  0.00000000
 
ion      s     py     pz     px    dxy    dyz    dz2    dxz  x2-y2    tot
    1  0.015  0.082  0.002  0.002  0.000  0.000  0.000  0.000  0.000  0.101
    2  0.075  0.002  0.018  0.018  0.000  0.000  0.000  0.000  0.000  0.114
tot    0.090  0.084  0.021  0.021  0.000  0.000  0.000  0.000  0.000  0.216
 
band     6 # energy   13.08557996 # occ.  0.00000000
 
ion      s     py     pz     px    dxy    dyz    dz2    dxz  x2-y2    tot
    1  0.215  0.001  0.012  0.012  0.000  0.000  0.000  0.000  0.000  0.240
    2  0.001  0.031  0.022  0.022  0.000  0.000  0.000  0.000  0.000  0.075
tot    0.216  0.032  0.034  0.034  0.000  0.000  0.000  0.000  0.000  0.315
 
band     7 # energy   21.19915865 # occ.  0.00000000
 
ion      s     py     pz     px    dxy    dyz    dz2    dxz  x2-y2    tot
    1  0.000  0.000  0.103  0.103  0.000  0.000  0.000  0.000  0.000  0.206
    2  0.000  0.000  0.139  0.139  0.000  0.000  0.000  0.000  0.000  0.279
tot    0.000  0.000  0.243  0.242  0.000  0.000  0.000  0.000  0.000  0.485
 
band     8 # energy   21.38780272 # occ.  0.00000000
 
ion      s     py     pz     px    dxy    dyz    dz2    dxz  x2-y2    tot
    1  0.000  0.027  0.094  0.093  0.000  0.000  0.000  0.000  0.000  0.215
    2  0.029  0.014  0.123  0.124  0.000  0.000  0.000  0.000  0.000  0.290
tot    0.029  0.042  0.217  0.217  0.000  0.000  0.000  0.000  0.000  0.505
 

 k-point    31 :    0.56578947 0.13157895 0.56578947     weight = 0.00416667

band     1 # energy   -2.34565580 # occ.  2.00000000
 
ion      s     py     pz     px    dxy    dyz    dz2    dxz  x2-y2    tot
    1  0.002  0.121  0.004  0.004  0.000  0.000  0.000  0.000  0.000  0.130
    2  0.437  0.000  0.000  0.000  0.000  0.000  0.000  0.000  0.000  0.437
tot    0.438  0.121  0.004  0.004  0.000  0.000  0.000  0.000  0.000  0.566
 
band     2 # energy    0.36346520 # occ.  2.00000000
 
ion      s     py     pz     px    dxy    dyz    dz2    dxz  x2-y2    tot
    1  0.356  0.001  0.001  0.001  0.000  0.000  0.000  0.000  0.000  0.358
    2  0.000  0.180  0.002  0.002  0.000  0.000  0.000  0.000  0.000  0.185
tot    0.356  0.180  0.003  0.003  0.000  0.000  0.000  0.000  0.000  0.543
 
band     3 # energy    3.68395264 # occ.  2.00000000
 
ion      s     py     pz     px    dxy    dyz    dz2    dxz  x2-y2    tot
    1  0.013  0.026  0.090  0.090  0.000  0.000  0.000  0.000  0.000  0.219
    2  0.003  0.010  0.121  0.121  0.000  0.000  0.000  0.000  0.000  0.254
tot    0.016  0.036  0.211  0.211  0.000  0.000  0.000  0.000  0.000  0.473
 
band     4 # energy    4.95235101 # occ.  2.00000000
 
ion      s     py     pz     px    dxy    dyz    dz2    dxz  x2-y2    tot
    1  0.000  0.000  0.110  0.110  0.000  0.000  0.000  0.000  0.000  0.220
    2  0.000  0.000  0.160  0.160  0.000  0.000  0.000  0.000  0.000  0.320
tot    0.000  0.000  0.270  0.270  0.000  0.000  0.000  0.000  0.000  0.539
 
band     5 # energy   10.09579356 # occ.  0.00000000
 
ion      s     py     pz     px    dxy    dyz    dz2    dxz  x2-y2    tot
    1  0.020  0.079  0.002  0.002  0.000  0.000  0.000  0.000  0.000  0.103
    2  0.073  0.003  0.019  0.019  0.000  0.000  0.000  0.000  0.000  0.115
tot    0.092  0.082  0.021  0.021  0.000  0.000  0.000  0.000  0.000  0.218
 
band     6 # energy   13.28707301 # occ.  0.00000000
 
ion      s     py     pz     px    dxy    dyz    dz2    dxz  x2-y2    tot
    1  0.207  0.001  0.014  0.014  0.000  0.000  0.000  0.000  0.000  0.235
    2  0.001  0.030  0.027  0.027  0.000  0.000  0.000  0.000  0.000  0.085
tot    0.208  0.031  0.041  0.041  0.000  0.000  0.000  0.000  0.000  0.320
 
band     7 # energy   21.07206739 # occ.  0.00000000
 
ion      s     py     pz     px    dxy    dyz    dz2    dxz  x2-y2    tot
    1  0.000  0.000  0.102  0.103  0.000  0.000  0.000  0.000  0.000  0.205
    2  0.000  0.000  0.137  0.135  0.000  0.000  0.000  0.000  0.000  0.272
tot    0.000  0.000  0.239  0.238  0.000  0.000  0.000  0.000  0.000  0.477
 
band     8 # energy   21.29758812 # occ.  0.00000000
 
ion      s     py     pz     px    dxy    dyz    dz2    dxz  x2-y2    tot
    1  0.000  0.033  0.091  0.090  0.000  0.000  0.000  0.000  0.000  0.215
    2  0.035  0.020  0.115  0.116  0.000  0.000  0.000  0.000  0.000  0.287
tot    0.035  0.053  0.206  0.207  0.000  0.000  0.000  0.000  0.000  0.501
 

 k-point    32 :    0.57236842 0.14473684 0.57236842     weight = 0.00416667

band     1 # energy   -2.33933839 # occ.  2.00000000
 
ion      s     py     pz     px    dxy    dyz    dz2    dxz  x2-y2    tot
    1  0.002  0.118  0.004  0.004  0.000  0.000  0.000  0.000  0.000  0.129
    2  0.437  0.000  0.000  0.000  0.000  0.000  0.000  0.000  0.000  0.438
tot    0.440  0.118  0.004  0.004  0.000  0.000  0.000  0.000  0.000  0.567
 
band     2 # energy    0.39687807 # occ.  2.00000000
 
ion      s     py     pz     px    dxy    dyz    dz2    dxz  x2-y2    tot
    1  0.357  0.001  0.001  0.001  0.000  0.000  0.000  0.000  0.000  0.360
    2  0.000  0.178  0.003  0.003  0.000  0.000  0.000  0.000  0.000  0.185
tot    0.358  0.179  0.004  0.004  0.000  0.000  0.000  0.000  0.000  0.545
 
band     3 # energy    3.51957479 # occ.  2.00000000
 
ion      s     py     pz     px    dxy    dyz    dz2    dxz  x2-y2    tot
    1  0.013  0.030  0.088  0.088  0.000  0.000  0.000  0.000  0.000  0.218
    2  0.003  0.012  0.116  0.116  0.000  0.000  0.000  0.000  0.000  0.247
tot    0.015  0.042  0.204  0.204  0.000  0.000  0.000  0.000  0.000  0.466
 
band     4 # energy    4.98694875 # occ.  2.00000000
 
ion      s     py     pz     px    dxy    dyz    dz2    dxz  x2-y2    tot
    1  0.000  0.000  0.109  0.109  0.000  0.000  0.000  0.000  0.000  0.219
    2  0.000  0.000  0.161  0.161  0.000  0.000  0.000  0.000  0.000  0.321
tot    0.000  0.000  0.270  0.270  0.000  0.000  0.000  0.000  0.000  0.540
 
band     5 # energy   10.20299492 # occ.  0.00000000
 
ion      s     py     pz     px    dxy    dyz    dz2    dxz  x2-y2    tot
    1  0.025  0.077  0.002  0.002  0.000  0.000  0.000  0.000  0.000  0.105
    2  0.070  0.004  0.020  0.020  0.000  0.000  0.000  0.000  0.000  0.115
tot    0.095  0.081  0.022  0.022  0.000  0.000  0.000  0.000  0.000  0.220
 
band     6 # energy   13.50600082 # occ.  0.00000000
 
ion      s     py     pz     px    dxy    dyz    dz2    dxz  x2-y2    tot
    1  0.198  0.002  0.015  0.015  0.000  0.000  0.000  0.000  0.000  0.230
    2  0.001  0.029  0.032  0.032  0.000  0.000  0.000  0.000  0.000  0.095
tot    0.199  0.031  0.048  0.048  0.000  0.000  0.000  0.000  0.000  0.325
 
band     7 # energy   20.93461879 # occ.  0.00000000
 
ion      s     py     pz     px    dxy    dyz    dz2    dxz  x2-y2    tot
    1  0.000  0.000  0.102  0.102  0.000  0.000  0.000  0.000  0.000  0.204
    2  0.000  0.000  0.133  0.133  0.000  0.000  0.000  0.000  0.000  0.266
tot    0.000  0.000  0.235  0.235  0.000  0.000  0.000  0.000  0.000  0.470
 
band     8 # energy   21.20106751 # occ.  0.00000000
 
ion      s     py     pz     px    dxy    dyz    dz2    dxz  x2-y2    tot
    1  0.001  0.040  0.087  0.086  0.000  0.000  0.000  0.000  0.000  0.213
    2  0.041  0.028  0.107  0.107  0.000  0.000  0.000  0.000  0.000  0.283
tot    0.041  0.068  0.193  0.193  0.000  0.000  0.000  0.000  0.000  0.496
 

 k-point    33 :    0.57894737 0.15789474 0.57894737     weight = 0.00416667

band     1 # energy   -2.33440145 # occ.  2.00000000
 
ion      s     py     pz     px    dxy    dyz    dz2    dxz  x2-y2    tot
    1  0.003  0.115  0.005  0.005  0.000  0.000  0.000  0.000  0.000  0.129
    2  0.438  0.000  0.000  0.000  0.000  0.000  0.000  0.000  0.000  0.439
tot    0.442  0.115  0.005  0.005  0.000  0.000  0.000  0.000  0.000  0.568
 
band     2 # energy    0.43244714 # occ.  2.00000000
 
ion      s     py     pz     px    dxy    dyz    dz2    dxz  x2-y2    tot
    1  0.359  0.001  0.001  0.001  0.000  0.000  0.000  0.000  0.000  0.363
    2  0.001  0.177  0.004  0.004  0.000  0.000  0.000  0.000  0.000  0.185
tot    0.360  0.178  0.005  0.005  0.000  0.000  0.000  0.000  0.000  0.548
 
band     3 # energy    3.35739834 # occ.  2.00000000
 
ion      s     py     pz     px    dxy    dyz    dz2    dxz  x2-y2    tot
    1  0.012  0.033  0.086  0.086  0.000  0.000  0.000  0.000  0.000  0.217
    2  0.002  0.015  0.112  0.112  0.000  0.000  0.000  0.000  0.000  0.241
tot    0.014  0.048  0.198  0.198  0.000  0.000  0.000  0.000  0.000  0.458
 
band     4 # energy    5.02465708 # occ.  2.00000000
 
ion      s     py     pz     px    dxy    dyz    dz2    dxz  x2-y2    tot
    1  0.000  0.000  0.109  0.109  0.000  0.000  0.000  0.000  0.000  0.218
    2  0.000  0.000  0.161  0.161  0.000  0.000  0.000  0.000  0.000  0.322
tot    0.000  0.000  0.270  0.270  0.000  0.000  0.000  0.000  0.000  0.540
 
band     5 # energy   10.30901449 # occ.  0.00000000
 
ion      s     py     pz     px    dxy    dyz    dz2    dxz  x2-y2    tot
    1  0.030  0.075  0.001  0.001  0.000  0.000  0.000  0.000  0.000  0.107
    2  0.068  0.005  0.021  0.021  0.000  0.000  0.000  0.000  0.000  0.114
tot    0.098  0.080  0.022  0.022  0.000  0.000  0.000  0.000  0.000  0.221
 
band     6 # energy   13.74051449 # occ.  0.00000000
 
ion      s     py     pz     px    dxy    dyz    dz2    dxz  x2-y2    tot
    1  0.189  0.002  0.017  0.017  0.000  0.000  0.000  0.000  0.000  0.225
    2  0.001  0.028  0.038  0.038  0.000  0.000  0.000  0.000  0.000  0.106
tot    0.190  0.030  0.055  0.055  0.000  0.000  0.000  0.000  0.000  0.331
 
band     7 # energy   20.79175687 # occ.  0.00000000
 
ion      s     py     pz     px    dxy    dyz    dz2    dxz  x2-y2    tot
    1  0.000  0.000  0.101  0.104  0.000  0.000  0.000  0.000  0.000  0.204
    2  0.000  0.000  0.131  0.129  0.000  0.000  0.000  0.000  0.000  0.260
tot    0.000  0.000  0.232  0.232  0.000  0.000  0.000  0.000  0.000  0.465
 
band     8 # energy   21.09829888 # occ.  0.00000000
 
ion      s     py     pz     px    dxy    dyz    dz2    dxz  x2-y2    tot
    1  0.001  0.047  0.082  0.082  0.000  0.000  0.000  0.000  0.000  0.212
    2  0.046  0.039  0.097  0.097  0.000  0.000  0.000  0.000  0.000  0.280
tot    0.047  0.086  0.180  0.179  0.000  0.000  0.000  0.000  0.000  0.492
 

 k-point    34 :    0.58552632 0.17105263 0.58552632     weight = 0.00416667

band     1 # energy   -2.33156441 # occ.  2.00000000
 
ion      s     py     pz     px    dxy    dyz    dz2    dxz  x2-y2    tot
    1  0.005  0.112  0.006  0.006  0.000  0.000  0.000  0.000  0.000  0.129
    2  0.439  0.000  0.000  0.000  0.000  0.000  0.000  0.000  0.000  0.439
tot    0.444  0.112  0.006  0.006  0.000  0.000  0.000  0.000  0.000  0.568
 
band     2 # energy    0.46978326 # occ.  2.00000000
 
ion      s     py     pz     px    dxy    dyz    dz2    dxz  x2-y2    tot
    1  0.361  0.002  0.001  0.001  0.000  0.000  0.000  0.000  0.000  0.365
    2  0.001  0.174  0.005  0.005  0.000  0.000  0.000  0.000  0.000  0.185
tot    0.362  0.176  0.006  0.006  0.000  0.000  0.000  0.000  0.000  0.550
 
band     3 # energy    3.19978243 # occ.  2.00000000
 
ion      s     py     pz     px    dxy    dyz    dz2    dxz  x2-y2    tot
    1  0.011  0.037  0.083  0.083  0.000  0.000  0.000  0.000  0.000  0.215
    2  0.002  0.018  0.108  0.108  0.000  0.000  0.000  0.000  0.000  0.236
tot    0.013  0.056  0.191  0.191  0.000  0.000  0.000  0.000  0.000  0.451
 
band     4 # energy    5.06540682 # occ.  2.00000000
 
ion      s     py     pz     px    dxy    dyz    dz2    dxz  x2-y2    tot
    1  0.000  0.000  0.108  0.108  0.000  0.000  0.000  0.000  0.000  0.217
    2  0.000  0.000  0.162  0.162  0.000  0.000  0.000  0.000  0.000  0.324
tot    0.000  0.000  0.270  0.270  0.000  0.000  0.000  0.000  0.000  0.540
 
band     5 # energy   10.41384235 # occ.  0.00000000
 
ion      s     py     pz     px    dxy    dyz    dz2    dxz  x2-y2    tot
    1  0.035  0.073  0.001  0.001  0.000  0.000  0.000  0.000  0.000  0.110
    2  0.066  0.006  0.021  0.021  0.000  0.000  0.000  0.000  0.000  0.113
tot    0.101  0.079  0.022  0.022  0.000  0.000  0.000  0.000  0.000  0.223
 
band     6 # energy   13.98850345 # occ.  0.00000000
 
ion      s     py     pz     px    dxy    dyz    dz2    dxz  x2-y2    tot
    1  0.181  0.002  0.018  0.018  0.000  0.000  0.000  0.000  0.000  0.218
    2  0.001  0.027  0.045  0.045  0.000  0.000  0.000  0.000  0.000  0.118
tot    0.182  0.029  0.063  0.063  0.000  0.000  0.000  0.000  0.000  0.336
 
band     7 # energy   20.64120572 # occ.  0.00000000
 
ion      s     py     pz     px    dxy    dyz    dz2    dxz  x2-y2    tot
    1  0.000  0.000  0.101  0.101  0.000  0.000  0.000  0.000  0.000  0.203
    2  0.000  0.000  0.126  0.126  0.000  0.000  0.000  0.000  0.000  0.253
tot    0.000  0.000  0.228  0.228  0.000  0.000  0.000  0.000  0.000  0.455
 
band     8 # energy   20.99029417 # occ.  0.00000000
 
ion      s     py     pz     px    dxy    dyz    dz2    dxz  x2-y2    tot
    1  0.002  0.053  0.079  0.078  0.000  0.000  0.000  0.000  0.000  0.212
    2  0.051  0.049  0.088  0.089  0.000  0.000  0.000  0.000  0.000  0.278
tot    0.053  0.102  0.167  0.167  0.000  0.000  0.000  0.000  0.000  0.490
 

 k-point    35 :    0.59210526 0.18421053 0.59210526     weight = 0.00416667

band     1 # energy   -2.33150922 # occ.  2.00000000
 
ion      s     py     pz     px    dxy    dyz    dz2    dxz  x2-y2    tot
    1  0.007  0.108  0.007  0.007  0.000  0.000  0.000  0.000  0.000  0.129
    2  0.440  0.000  0.000  0.000  0.000  0.000  0.000  0.000  0.000  0.440
tot    0.446  0.108  0.007  0.007  0.000  0.000  0.000  0.000  0.000  0.569
 
band     2 # energy    0.50848918 # occ.  2.00000000
 
ion      s     py     pz     px    dxy    dyz    dz2    dxz  x2-y2    tot
    1  0.362  0.003  0.001  0.001  0.000  0.000  0.000  0.000  0.000  0.367
    2  0.001  0.171  0.006  0.006  0.000  0.000  0.000  0.000  0.000  0.185
tot    0.363  0.174  0.007  0.007  0.000  0.000  0.000  0.000  0.000  0.553
 
band     3 # energy    3.04901145 # occ.  2.00000000
 
ion      s     py     pz     px    dxy    dyz    dz2    dxz  x2-y2    tot
    1  0.010  0.041  0.081  0.081  0.000  0.000  0.000  0.000  0.000  0.213
    2  0.001  0.022  0.104  0.104  0.000  0.000  0.000  0.000  0.000  0.231
tot    0.011  0.063  0.185  0.185  0.000  0.000  0.000  0.000  0.000  0.444
 
band     4 # energy    5.10914308 # occ.  2.00000000
 
ion      s     py     pz     px    dxy    dyz    dz2    dxz  x2-y2    tot
    1  0.000  0.000  0.108  0.108  0.000  0.000  0.000  0.000  0.000  0.216
    2  0.000  0.000  0.162  0.162  0.000  0.000  0.000  0.000  0.000  0.325
tot    0.000  0.000  0.270  0.270  0.000  0.000  0.000  0.000  0.000  0.541
 
band     5 # energy   10.51771476 # occ.  0.00000000
 
ion      s     py     pz     px    dxy    dyz    dz2    dxz  x2-y2    tot
    1  0.040  0.071  0.000  0.000  0.000  0.000  0.000  0.000  0.000  0.112
    2  0.063  0.007  0.021  0.021  0.000  0.000  0.000  0.000  0.000  0.112
tot    0.103  0.078  0.022  0.022  0.000  0.000  0.000  0.000  0.000  0.224
 
band     6 # energy   14.24774244 # occ.  0.00000000
 
ion      s     py     pz     px    dxy    dyz    dz2    dxz  x2-y2    tot
    1  0.172  0.002  0.019  0.019  0.000  0.000  0.000  0.000  0.000  0.212
    2  0.001  0.027  0.051  0.051  0.000  0.000  0.000  0.000  0.000  0.130
tot    0.173  0.028  0.070  0.070  0.000  0.000  0.000  0.000  0.000  0.342
 
band     7 # energy   20.48594311 # occ.  0.00000000
 
ion      s     py     pz     px    dxy    dyz    dz2    dxz  x2-y2    tot
    1  0.000  0.000  0.102  0.101  0.000  0.000  0.000  0.000  0.000  0.203
    2  0.000  0.000  0.123  0.124  0.000  0.000  0.000  0.000  0.000  0.246
tot    0.000  0.000  0.225  0.224  0.000  0.000  0.000  0.000  0.000  0.449
 
band     8 # energy   20.87650767 # occ.  0.00000000
 
ion      s     py     pz     px    dxy    dyz    dz2    dxz  x2-y2    tot
    1  0.005  0.059  0.070  0.070  0.000  0.000  0.000  0.000  0.000  0.205
    2  0.054  0.077  0.075  0.075  0.000  0.000  0.000  0.000  0.000  0.280
tot    0.059  0.136  0.145  0.145  0.000  0.000  0.000  0.000  0.000  0.485
 

 k-point    36 :    0.59868421 0.19736842 0.59868421     weight = 0.00416667

band     1 # energy   -2.33502964 # occ.  2.00000000
 
ion      s     py     pz     px    dxy    dyz    dz2    dxz  x2-y2    tot
    1  0.009  0.103  0.009  0.009  0.000  0.000  0.000  0.000  0.000  0.130
    2  0.440  0.000  0.000  0.000  0.000  0.000  0.000  0.000  0.000  0.440
tot    0.449  0.104  0.009  0.009  0.000  0.000  0.000  0.000  0.000  0.570
 
band     2 # energy    0.54809562 # occ.  2.00000000
 
ion      s     py     pz     px    dxy    dyz    dz2    dxz  x2-y2    tot
    1  0.363  0.004  0.001  0.001  0.000  0.000  0.000  0.000  0.000  0.370
    2  0.002  0.168  0.008  0.008  0.000  0.000  0.000  0.000  0.000  0.185
tot    0.365  0.172  0.009  0.009  0.000  0.000  0.000  0.000  0.000  0.555
 
band     3 # energy    2.90730849 # occ.  2.00000000
 
ion      s     py     pz     px    dxy    dyz    dz2    dxz  x2-y2    tot
    1  0.008  0.045  0.079  0.079  0.000  0.000  0.000  0.000  0.000  0.210
    2  0.001  0.027  0.100  0.100  0.000  0.000  0.000  0.000  0.000  0.227
tot    0.008  0.072  0.178  0.178  0.000  0.000  0.000  0.000  0.000  0.437
 
band     4 # energy    5.15579863 # occ.  2.00000000
 
ion      s     py     pz     px    dxy    dyz    dz2    dxz  x2-y2    tot
    1  0.000  0.000  0.107  0.107  0.000  0.000  0.000  0.000  0.000  0.215
    2  0.000  0.000  0.163  0.163  0.000  0.000  0.000  0.000  0.000  0.326
tot    0.000  0.000  0.271  0.271  0.000  0.000  0.000  0.000  0.000  0.541
 
band     5 # energy   10.62099666 # occ.  0.00000000
 
ion      s     py     pz     px    dxy    dyz    dz2    dxz  x2-y2    tot
    1  0.045  0.070  0.000  0.000  0.000  0.000  0.000  0.000  0.000  0.115
    2  0.061  0.008  0.021  0.021  0.000  0.000  0.000  0.000  0.000  0.111
tot    0.106  0.077  0.021  0.021  0.000  0.000  0.000  0.000  0.000  0.226
 
band     6 # energy   14.51586135 # occ.  0.00000000
 
ion      s     py     pz     px    dxy    dyz    dz2    dxz  x2-y2    tot
    1  0.165  0.002  0.019  0.019  0.000  0.000  0.000  0.000  0.000  0.205
    2  0.001  0.026  0.058  0.058  0.000  0.000  0.000  0.000  0.000  0.143
tot    0.165  0.027  0.077  0.077  0.000  0.000  0.000  0.000  0.000  0.347
 
band     7 # energy   20.32658274 # occ.  0.00000000
 
ion      s     py     pz     px    dxy    dyz    dz2    dxz  x2-y2    tot
    1  0.000  0.000  0.102  0.101  0.000  0.000  0.000  0.000  0.000  0.203
    2  0.000  0.000  0.120  0.120  0.000  0.000  0.000  0.000  0.000  0.240
tot    0.000  0.000  0.221  0.221  0.000  0.000  0.000  0.000  0.000  0.442
 
band     8 # energy   20.75943067 # occ.  0.00000000
 
ion      s     py     pz     px    dxy    dyz    dz2    dxz  x2-y2    tot
    1  0.007  0.066  0.067  0.066  0.000  0.000  0.000  0.000  0.000  0.206
    2  0.059  0.089  0.065  0.065  0.000  0.000  0.000  0.000  0.000  0.278
tot    0.066  0.155  0.132  0.131  0.000  0.000  0.000  0.000  0.000  0.484
 

 k-point    37 :    0.60526316 0.21052632 0.60526316     weight = 0.00416667

band     1 # energy   -2.34298800 # occ.  2.00000000
 
ion      s     py     pz     px    dxy    dyz    dz2    dxz  x2-y2    tot
    1  0.012  0.099  0.010  0.010  0.000  0.000  0.000  0.000  0.000  0.130
    2  0.439  0.000  0.000  0.000  0.000  0.000  0.000  0.000  0.000  0.440
tot    0.451  0.099  0.010  0.010  0.000  0.000  0.000  0.000  0.000  0.570
 
band     2 # energy    0.58808818 # occ.  2.00000000
 
ion      s     py     pz     px    dxy    dyz    dz2    dxz  x2-y2    tot
    1  0.364  0.006  0.001  0.001  0.000  0.000  0.000  0.000  0.000  0.372
    2  0.003  0.163  0.010  0.010  0.000  0.000  0.000  0.000  0.000  0.186
tot    0.367  0.169  0.011  0.011  0.000  0.000  0.000  0.000  0.000  0.558
 
band     3 # energy    2.77684858 # occ.  2.00000000
 
ion      s     py     pz     px    dxy    dyz    dz2    dxz  x2-y2    tot
    1  0.005  0.048  0.077  0.077  0.000  0.000  0.000  0.000  0.000  0.207
    2  0.000  0.033  0.095  0.095  0.000  0.000  0.000  0.000  0.000  0.224
tot    0.006  0.081  0.172  0.172  0.000  0.000  0.000  0.000  0.000  0.431
 
band     4 # energy    5.20530001 # occ.  2.00000000
 
ion      s     py     pz     px    dxy    dyz    dz2    dxz  x2-y2    tot
    1  0.000  0.000  0.107  0.107  0.000  0.000  0.000  0.000  0.000  0.214
    2  0.000  0.000  0.164  0.164  0.000  0.000  0.000  0.000  0.000  0.328
tot    0.000  0.000  0.271  0.271  0.000  0.000  0.000  0.000  0.000  0.542
 
band     5 # energy   10.72411286 # occ.  0.00000000
 
ion      s     py     pz     px    dxy    dyz    dz2    dxz  x2-y2    tot
    1  0.049  0.068  0.000  0.000  0.000  0.000  0.000  0.000  0.000  0.118
    2  0.059  0.008  0.021  0.021  0.000  0.000  0.000  0.000  0.000  0.110
tot    0.108  0.077  0.021  0.021  0.000  0.000  0.000  0.000  0.000  0.227
 
band     6 # energy   14.79033612 # occ.  0.00000000
 
ion      s     py     pz     px    dxy    dyz    dz2    dxz  x2-y2    tot
    1  0.157  0.001  0.019  0.019  0.000  0.000  0.000  0.000  0.000  0.197
    2  0.000  0.025  0.065  0.065  0.000  0.000  0.000  0.000  0.000  0.156
tot    0.158  0.026  0.084  0.084  0.000  0.000  0.000  0.000  0.000  0.353
 
band     7 # energy   20.16411295 # occ.  0.00000000
 
ion      s     py     pz     px    dxy    dyz    dz2    dxz  x2-y2    tot
    1  0.000  0.000  0.101  0.102  0.000  0.000  0.000  0.000  0.000  0.203
    2  0.000  0.000  0.117  0.116  0.000  0.000  0.000  0.000  0.000  0.233
tot    0.000  0.000  0.218  0.218  0.000  0.000  0.000  0.000  0.000  0.436
 
band     8 # energy   20.64189662 # occ.  0.00000000
 
ion      s     py     pz     px    dxy    dyz    dz2    dxz  x2-y2    tot
    1  0.012  0.070  0.060  0.059  0.000  0.000  0.000  0.000  0.000  0.201
    2  0.059  0.120  0.053  0.053  0.000  0.000  0.000  0.000  0.000  0.286
tot    0.071  0.190  0.113  0.112  0.000  0.000  0.000  0.000  0.000  0.486
 

 k-point    38 :    0.61184211 0.22368421 0.61184211     weight = 0.00416667

band     1 # energy   -2.35628522 # occ.  2.00000000
 
ion      s     py     pz     px    dxy    dyz    dz2    dxz  x2-y2    tot
    1  0.015  0.093  0.011  0.011  0.000  0.000  0.000  0.000  0.000  0.132
    2  0.438  0.000  0.000  0.000  0.000  0.000  0.000  0.000  0.000  0.439
tot    0.454  0.094  0.012  0.012  0.000  0.000  0.000  0.000  0.000  0.571
 
band     2 # energy    0.62794084 # occ.  2.00000000
 
ion      s     py     pz     px    dxy    dyz    dz2    dxz  x2-y2    tot
    1  0.364  0.008  0.001  0.001  0.000  0.000  0.000  0.000  0.000  0.374
    2  0.004  0.157  0.013  0.013  0.000  0.000  0.000  0.000  0.000  0.186
tot    0.368  0.165  0.014  0.014  0.000  0.000  0.000  0.000  0.000  0.560
 
band     3 # energy    2.65974195 # occ.  2.00000000
 
ion      s     py     pz     px    dxy    dyz    dz2    dxz  x2-y2    tot
    1  0.003  0.051  0.075  0.075  0.000  0.000  0.000  0.000  0.000  0.204
    2  0.000  0.040  0.090  0.090  0.000  0.000  0.000  0.000  0.000  0.221
tot    0.003  0.091  0.165  0.165  0.000  0.000  0.000  0.000  0.000  0.425
 
band     4 # energy    5.25756974 # occ.  2.00000000
 
ion      s     py     pz     px    dxy    dyz    dz2    dxz  x2-y2    tot
    1  0.000  0.000  0.106  0.106  0.000  0.000  0.000  0.000  0.000  0.212
    2  0.000  0.000  0.165  0.165  0.000  0.000  0.000  0.000  0.000  0.330
tot    0.000  0.000  0.271  0.271  0.000  0.000  0.000  0.000  0.000  0.542
 
band     5 # energy   10.82750023 # occ.  0.00000000
 
ion      s     py     pz     px    dxy    dyz    dz2    dxz  x2-y2    tot
    1  0.053  0.067  0.000  0.000  0.000  0.000  0.000  0.000  0.000  0.120
    2  0.057  0.009  0.021  0.021  0.000  0.000  0.000  0.000  0.000  0.108
tot    0.110  0.076  0.021  0.021  0.000  0.000  0.000  0.000  0.000  0.229
 
band     6 # energy   15.06846888 # occ.  0.00000000
 
ion      s     py     pz     px    dxy    dyz    dz2    dxz  x2-y2    tot
    1  0.150  0.001  0.019  0.019  0.000  0.000  0.000  0.000  0.000  0.189
    2  0.000  0.024  0.073  0.073  0.000  0.000  0.000  0.000  0.000  0.170
tot    0.151  0.025  0.092  0.092  0.000  0.000  0.000  0.000  0.000  0.359
 
band     7 # energy   19.99836715 # occ.  0.00000000
 
ion      s     py     pz     px    dxy    dyz    dz2    dxz  x2-y2    tot
    1  0.000  0.000  0.102  0.101  0.000  0.000  0.000  0.000  0.000  0.203
    2  0.000  0.000  0.113  0.114  0.000  0.000  0.000  0.000  0.000  0.227
tot    0.000  0.000  0.215  0.215  0.000  0.000  0.000  0.000  0.000  0.430
 
band     8 # energy   20.50865124 # occ.  0.00000000
 
ion      s     py     pz     px    dxy    dyz    dz2    dxz  x2-y2    tot
    1  0.022  0.074  0.046  0.046  0.000  0.000  0.000  0.000  0.000  0.189
    2  0.056  0.166  0.037  0.037  0.000  0.000  0.000  0.000  0.000  0.295
tot    0.078  0.240  0.083  0.083  0.000  0.000  0.000  0.000  0.000  0.484
 

 k-point    39 :    0.61842105 0.23684211 0.61842105     weight = 0.00416667

band     1 # energy   -2.37590664 # occ.  2.00000000
 
ion      s     py     pz     px    dxy    dyz    dz2    dxz  x2-y2    tot
    1  0.020  0.088  0.013  0.013  0.000  0.000  0.000  0.000  0.000  0.133
    2  0.437  0.001  0.000  0.000  0.000  0.000  0.000  0.000  0.000  0.438
tot    0.456  0.088  0.013  0.013  0.000  0.000  0.000  0.000  0.000  0.571
 
band     2 # energy    0.66711679 # occ.  2.00000000
 
ion      s     py     pz     px    dxy    dyz    dz2    dxz  x2-y2    tot
    1  0.362  0.011  0.001  0.001  0.000  0.000  0.000  0.000  0.000  0.375
    2  0.005  0.150  0.016  0.016  0.000  0.000  0.000  0.000  0.000  0.187
tot    0.368  0.161  0.016  0.016  0.000  0.000  0.000  0.000  0.000  0.562
 
band     3 # energy    2.55797870 # occ.  2.00000000
 
ion      s     py     pz     px    dxy    dyz    dz2    dxz  x2-y2    tot
    1  0.001  0.054  0.073  0.073  0.000  0.000  0.000  0.000  0.000  0.201
    2  0.000  0.048  0.085  0.085  0.000  0.000  0.000  0.000  0.000  0.219
tot    0.001  0.102  0.158  0.158  0.000  0.000  0.000  0.000  0.000  0.420
 
band     4 # energy    5.31251237 # occ.  2.00000000
 
ion      s     py     pz     px    dxy    dyz    dz2    dxz  x2-y2    tot
    1  0.000  0.000  0.106  0.106  0.000  0.000  0.000  0.000  0.000  0.211
    2  0.000  0.000  0.166  0.166  0.000  0.000  0.000  0.000  0.000  0.332
tot    0.000  0.000  0.271  0.271  0.000  0.000  0.000  0.000  0.000  0.543
 
band     5 # energy   10.93156375 # occ.  0.00000000
 
ion      s     py     pz     px    dxy    dyz    dz2    dxz  x2-y2    tot
    1  0.057  0.066  0.000  0.000  0.000  0.000  0.000  0.000  0.000  0.123
    2  0.056  0.010  0.021  0.021  0.000  0.000  0.000  0.000  0.000  0.107
tot    0.112  0.076  0.021  0.021  0.000  0.000  0.000  0.000  0.000  0.230
 
band     6 # energy   15.34717845 # occ.  0.00000000
 
ion      s     py     pz     px    dxy    dyz    dz2    dxz  x2-y2    tot
    1  0.144  0.001  0.018  0.018  0.000  0.000  0.000  0.000  0.000  0.180
    2  0.000  0.023  0.081  0.081  0.000  0.000  0.000  0.000  0.000  0.186
tot    0.144  0.024  0.099  0.099  0.000  0.000  0.000  0.000  0.000  0.365
 
band     7 # energy   19.83115391 # occ.  0.00000000
 
ion      s     py     pz     px    dxy    dyz    dz2    dxz  x2-y2    tot
    1  0.000  0.000  0.103  0.100  0.000  0.000  0.000  0.000  0.000  0.204
    2  0.000  0.000  0.109  0.112  0.000  0.000  0.000  0.000  0.000  0.220
tot    0.000  0.000  0.212  0.212  0.000  0.000  0.000  0.000  0.000  0.424
 
band     8 # energy   20.37706454 # occ.  0.00000000
 
ion      s     py     pz     px    dxy    dyz    dz2    dxz  x2-y2    tot
    1  0.030  0.077  0.039  0.039  0.000  0.000  0.000  0.000  0.000  0.184
    2  0.053  0.198  0.026  0.026  0.000  0.000  0.000  0.000  0.000  0.304
tot    0.083  0.275  0.065  0.065  0.000  0.000  0.000  0.000  0.000  0.488
 

 k-point    40 :    0.62500000 0.25000000 0.62500000     weight = 0.00416667

band     1 # energy   -2.40272383 # occ.  2.00000000
 
ion      s     py     pz     px    dxy    dyz    dz2    dxz  x2-y2    tot
    1  0.025  0.082  0.015  0.015  0.000  0.000  0.000  0.000  0.000  0.136
    2  0.434  0.001  0.001  0.001  0.000  0.000  0.000  0.000  0.000  0.436
tot    0.459  0.083  0.015  0.015  0.000  0.000  0.000  0.000  0.000  0.571
 
band     2 # energy    0.70525502 # occ.  2.00000000
 
ion      s     py     pz     px    dxy    dyz    dz2    dxz  x2-y2    tot
    1  0.359  0.015  0.001  0.001  0.000  0.000  0.000  0.000  0.000  0.376
    2  0.008  0.142  0.019  0.019  0.000  0.000  0.000  0.000  0.000  0.188
tot    0.367  0.157  0.020  0.020  0.000  0.000  0.000  0.000  0.000  0.563
 
band     3 # energy    2.47334242 # occ.  2.00000000
 
ion      s     py     pz     px    dxy    dyz    dz2    dxz  x2-y2    tot
    1  0.000  0.056  0.071  0.071  0.000  0.000  0.000  0.000  0.000  0.198
    2  0.000  0.058  0.080  0.080  0.000  0.000  0.000  0.000  0.000  0.218
tot    0.000  0.114  0.151  0.151  0.000  0.000  0.000  0.000  0.000  0.417
 
band     4 # energy    5.37004544 # occ.  2.00000000
 
ion      s     py     pz     px    dxy    dyz    dz2    dxz  x2-y2    tot
    1  0.000  0.000  0.105  0.105  0.000  0.000  0.000  0.000  0.000  0.210
    2  0.000  0.000  0.167  0.167  0.000  0.000  0.000  0.000  0.000  0.334
tot    0.000  0.000  0.272  0.272  0.000  0.000  0.000  0.000  0.000  0.543
 
band     5 # energy   11.03669181 # occ.  0.00000000
 
ion      s     py     pz     px    dxy    dyz    dz2    dxz  x2-y2    tot
    1  0.060  0.065  0.000  0.000  0.000  0.000  0.000  0.000  0.000  0.125
    2  0.054  0.011  0.021  0.021  0.000  0.000  0.000  0.000  0.000  0.106
tot    0.114  0.076  0.021  0.021  0.000  0.000  0.000  0.000  0.000  0.232
 
band     6 # energy   15.62312209 # occ.  0.00000000
 
ion      s     py     pz     px    dxy    dyz    dz2    dxz  x2-y2    tot
    1  0.138  0.000  0.016  0.016  0.000  0.000  0.000  0.000  0.000  0.171
    2  0.000  0.022  0.090  0.090  0.000  0.000  0.000  0.000  0.000  0.202
tot    0.138  0.023  0.106  0.106  0.000  0.000  0.000  0.000  0.000  0.372
 
band     7 # energy   19.66270250 # occ.  0.00000000
 
ion      s     py     pz     px    dxy    dyz    dz2    dxz  x2-y2    tot
    1  0.000  0.000  0.102  0.102  0.000  0.000  0.000  0.000  0.000  0.204
    2  0.000  0.000  0.107  0.107  0.000  0.000  0.000  0.000  0.000  0.214
tot    0.000  0.000  0.209  0.209  0.000  0.000  0.000  0.000  0.000  0.418
 
band     8 # energy   20.24168360 # occ.  0.00000000
 
ion      s     py     pz     px    dxy    dyz    dz2    dxz  x2-y2    tot
    1  0.038  0.079  0.033  0.033  0.000  0.000  0.000  0.000  0.000  0.182
    2  0.050  0.225  0.017  0.017  0.000  0.000  0.000  0.000  0.000  0.310
tot    0.089  0.304  0.050  0.050  0.000  0.000  0.000  0.000  0.000  0.493
 

 k-point    41 :    0.37500000 0.37500000 0.75000000     weight = 0.00416667

band     1 # energy   -2.40272383 # occ.  2.00000000
 
ion      s     py     pz     px    dxy    dyz    dz2    dxz  x2-y2    tot
    1  0.025  0.015  0.082  0.015  0.000  0.000  0.000  0.000  0.000  0.136
    2  0.434  0.001  0.001  0.001  0.000  0.000  0.000  0.000  0.000  0.436
tot    0.459  0.015  0.083  0.015  0.000  0.000  0.000  0.000  0.000  0.571
 
band     2 # energy    0.70525502 # occ.  2.00000000
 
ion      s     py     pz     px    dxy    dyz    dz2    dxz  x2-y2    tot
    1  0.359  0.001  0.015  0.001  0.000  0.000  0.000  0.000  0.000  0.376
    2  0.008  0.019  0.142  0.019  0.000  0.000  0.000  0.000  0.000  0.188
tot    0.367  0.020  0.157  0.020  0.000  0.000  0.000  0.000  0.000  0.563
 
band     3 # energy    2.47334242 # occ.  2.00000000
 
ion      s     py     pz     px    dxy    dyz    dz2    dxz  x2-y2    tot
    1  0.000  0.071  0.056  0.071  0.000  0.000  0.000  0.000  0.000  0.198
    2  0.000  0.080  0.058  0.080  0.000  0.000  0.000  0.000  0.000  0.218
tot    0.000  0.151  0.114  0.151  0.000  0.000  0.000  0.000  0.000  0.417
 
band     4 # energy    5.37004544 # occ.  2.00000000
 
ion      s     py     pz     px    dxy    dyz    dz2    dxz  x2-y2    tot
    1  0.000  0.105  0.000  0.105  0.000  0.000  0.000  0.000  0.000  0.210
    2  0.000  0.167  0.000  0.167  0.000  0.000  0.000  0.000  0.000  0.334
tot    0.000  0.272  0.000  0.272  0.000  0.000  0.000  0.000  0.000  0.543
 
band     5 # energy   11.03669181 # occ.  0.00000000
 
ion      s     py     pz     px    dxy    dyz    dz2    dxz  x2-y2    tot
    1  0.060  0.000  0.065  0.000  0.000  0.000  0.000  0.000  0.000  0.125
    2  0.054  0.021  0.011  0.021  0.000  0.000  0.000  0.000  0.000  0.106
tot    0.114  0.021  0.076  0.021  0.000  0.000  0.000  0.000  0.000  0.232
 
band     6 # energy   15.62312209 # occ.  0.00000000
 
ion      s     py     pz     px    dxy    dyz    dz2    dxz  x2-y2    tot
    1  0.138  0.016  0.000  0.016  0.000  0.000  0.000  0.000  0.000  0.171
    2  0.000  0.090  0.022  0.090  0.000  0.000  0.000  0.000  0.000  0.202
tot    0.138  0.106  0.023  0.106  0.000  0.000  0.000  0.000  0.000  0.372
 
band     7 # energy   19.66273322 # occ.  0.00000000
 
ion      s     py     pz     px    dxy    dyz    dz2    dxz  x2-y2    tot
    1  0.000  0.102  0.000  0.102  0.000  0.000  0.000  0.000  0.000  0.204
    2  0.000  0.107  0.000  0.107  0.000  0.000  0.000  0.000  0.000  0.214
tot    0.000  0.209  0.000  0.209  0.000  0.000  0.000  0.000  0.000  0.418
 
band     8 # energy   20.24221688 # occ.  0.00000000
 
ion      s     py     pz     px    dxy    dyz    dz2    dxz  x2-y2    tot
    1  0.037  0.034  0.080  0.034  0.000  0.000  0.000  0.000  0.000  0.185
    2  0.052  0.018  0.220  0.018  0.000  0.000  0.000  0.000  0.000  0.307
tot    0.089  0.052  0.299  0.052  0.000  0.000  0.000  0.000  0.000  0.493
 

 k-point    42 :    0.35526316 0.35526316 0.71052632     weight = 0.00416667

band     1 # energy   -2.53433425 # occ.  2.00000000
 
ion      s     py     pz     px    dxy    dyz    dz2    dxz  x2-y2    tot
    1  0.044  0.019  0.063  0.019  0.000  0.000  0.000  0.000  0.000  0.146
    2  0.420  0.002  0.001  0.002  0.000  0.000  0.000  0.000  0.000  0.425
tot    0.465  0.021  0.064  0.021  0.000  0.000  0.000  0.000  0.000  0.570
 
band     2 # energy    0.81319467 # occ.  2.00000000
 
ion      s     py     pz     px    dxy    dyz    dz2    dxz  x2-y2    tot
    1  0.335  0.000  0.033  0.000  0.000  0.000  0.000  0.000  0.000  0.368
    2  0.019  0.033  0.110  0.033  0.000  0.000  0.000  0.000  0.000  0.194
tot    0.354  0.033  0.143  0.033  0.000  0.000  0.000  0.000  0.000  0.562
 
band     3 # energy    2.33395462 # occ.  2.00000000
 
ion      s     py     pz     px    dxy    dyz    dz2    dxz  x2-y2    tot
    1  0.006  0.066  0.058  0.066  0.000  0.000  0.000  0.000  0.000  0.195
    2  0.002  0.062  0.093  0.062  0.000  0.000  0.000  0.000  0.000  0.219
tot    0.007  0.128  0.151  0.128  0.000  0.000  0.000  0.000  0.000  0.414
 
band     4 # energy    5.55709495 # occ.  2.00000000
 
ion      s     py     pz     px    dxy    dyz    dz2    dxz  x2-y2    tot
    1  0.000  0.102  0.000  0.102  0.000  0.000  0.000  0.000  0.000  0.205
    2  0.000  0.170  0.000  0.170  0.000  0.000  0.000  0.000  0.000  0.341
tot    0.000  0.273  0.000  0.273  0.000  0.000  0.000  0.000  0.000  0.545
 
band     5 # energy   11.36149822 # occ.  0.00000000
 
ion      s     py     pz     px    dxy    dyz    dz2    dxz  x2-y2    tot
    1  0.068  0.001  0.063  0.001  0.000  0.000  0.000  0.000  0.000  0.133
    2  0.049  0.020  0.014  0.020  0.000  0.000  0.000  0.000  0.000  0.104
tot    0.117  0.022  0.077  0.022  0.000  0.000  0.000  0.000  0.000  0.237
 
band     6 # energy   16.39230237 # occ.  0.00000000
 
ion      s     py     pz     px    dxy    dyz    dz2    dxz  x2-y2    tot
    1  0.121  0.009  0.001  0.009  0.000  0.000  0.000  0.000  0.000  0.140
    2  0.004  0.117  0.019  0.117  0.000  0.000  0.000  0.000  0.000  0.258
tot    0.125  0.126  0.019  0.126  0.000  0.000  0.000  0.000  0.000  0.398
 
band     7 # energy   19.15736235 # occ.  0.00000000
 
ion      s     py     pz     px    dxy    dyz    dz2    dxz  x2-y2    tot
    1  0.000  0.104  0.000  0.104  0.000  0.000  0.000  0.000  0.000  0.208
    2  0.000  0.097  0.000  0.097  0.000  0.000  0.000  0.000  0.000  0.195
tot    0.000  0.202  0.000  0.202  0.000  0.000  0.000  0.000  0.000  0.403
 
band     8 # energy   19.81781207 # occ.  0.00000000
 
ion      s     py     pz     px    dxy    dyz    dz2    dxz  x2-y2    tot
    1  0.072  0.015  0.074  0.015  0.000  0.000  0.000  0.000  0.000  0.176
    2  0.033  0.001  0.304  0.001  0.000  0.000  0.000  0.000  0.000  0.339
tot    0.105  0.016  0.378  0.016  0.000  0.000  0.000  0.000  0.000  0.515
 

 k-point    43 :    0.33552632 0.33552632 0.67105263     weight = 0.00416667

band     1 # energy   -2.75182054 # occ.  2.00000000
 
ion      s     py     pz     px    dxy    dyz    dz2    dxz  x2-y2    tot
    1  0.069  0.024  0.044  0.024  0.000  0.000  0.000  0.000  0.000  0.160
    2  0.398  0.003  0.001  0.003  0.000  0.000  0.000  0.000  0.000  0.406
tot    0.467  0.027  0.045  0.027  0.000  0.000  0.000  0.000  0.000  0.566
 
band     2 # energy    0.92573712 # occ.  2.00000000
 
ion      s     py     pz     px    dxy    dyz    dz2    dxz  x2-y2    tot
    1  0.290  0.000  0.055  0.000  0.000  0.000  0.000  0.000  0.000  0.345
    2  0.037  0.046  0.077  0.046  0.000  0.000  0.000  0.000  0.000  0.207
tot    0.327  0.046  0.133  0.046  0.000  0.000  0.000  0.000  0.000  0.553
 
band     3 # energy    2.36614091 # occ.  2.00000000
 
ion      s     py     pz     px    dxy    dyz    dz2    dxz  x2-y2    tot
    1  0.025  0.062  0.053  0.062  0.000  0.000  0.000  0.000  0.000  0.201
    2  0.003  0.044  0.132  0.044  0.000  0.000  0.000  0.000  0.000  0.223
tot    0.028  0.106  0.184  0.106  0.000  0.000  0.000  0.000  0.000  0.424
 
band     4 # energy    5.76324093 # occ.  2.00000000
 
ion      s     py     pz     px    dxy    dyz    dz2    dxz  x2-y2    tot
    1  0.000  0.100  0.000  0.100  0.000  0.000  0.000  0.000  0.000  0.199
    2  0.000  0.174  0.000  0.174  0.000  0.000  0.000  0.000  0.000  0.349
tot    0.000  0.274  0.000  0.274  0.000  0.000  0.000  0.000  0.000  0.548
 
band     5 # energy   11.70482330 # occ.  0.00000000
 
ion      s     py     pz     px    dxy    dyz    dz2    dxz  x2-y2    tot
    1  0.074  0.003  0.062  0.003  0.000  0.000  0.000  0.000  0.000  0.141
    2  0.045  0.020  0.016  0.020  0.000  0.000  0.000  0.000  0.000  0.102
tot    0.119  0.023  0.078  0.023  0.000  0.000  0.000  0.000  0.000  0.243
 
band     6 # energy   16.96210365 # occ.  0.00000000
 
ion      s     py     pz     px    dxy    dyz    dz2    dxz  x2-y2    tot
    1  0.102  0.002  0.008  0.002  0.000  0.000  0.000  0.000  0.000  0.113
    2  0.022  0.140  0.012  0.140  0.000  0.000  0.000  0.000  0.000  0.314
tot    0.123  0.142  0.020  0.142  0.000  0.000  0.000  0.000  0.000  0.427
 
band     7 # energy   18.66271802 # occ.  0.00000000
 
ion      s     py     pz     px    dxy    dyz    dz2    dxz  x2-y2    tot
    1  0.000  0.108  0.000  0.108  0.000  0.000  0.000  0.000  0.000  0.215
    2  0.000  0.088  0.000  0.088  0.000  0.000  0.000  0.000  0.000  0.176
tot    0.000  0.196  0.000  0.196  0.000  0.000  0.000  0.000  0.000  0.392
 
band     8 # energy   19.38117295 # occ.  0.00000000
 
ion      s     py     pz     px    dxy    dyz    dz2    dxz  x2-y2    tot
    1  0.105  0.005  0.062  0.005  0.000  0.000  0.000  0.000  0.000  0.177
    2  0.015  0.002  0.340  0.002  0.000  0.000  0.000  0.000  0.000  0.360
tot    0.119  0.007  0.402  0.007  0.000  0.000  0.000  0.000  0.000  0.537
 

 k-point    44 :    0.31578947 0.31578947 0.63157895     weight = 0.00416667

band     1 # energy   -3.05090115 # occ.  2.00000000
 
ion      s     py     pz     px    dxy    dyz    dz2    dxz  x2-y2    tot
    1  0.095  0.026  0.029  0.026  0.000  0.000  0.000  0.000  0.000  0.176
    2  0.371  0.005  0.001  0.005  0.000  0.000  0.000  0.000  0.000  0.383
tot    0.466  0.031  0.030  0.031  0.000  0.000  0.000  0.000  0.000  0.559
 
band     2 # energy    1.07576916 # occ.  2.00000000
 
ion      s     py     pz     px    dxy    dyz    dz2    dxz  x2-y2    tot
    1  0.238  0.000  0.076  0.000  0.000  0.000  0.000  0.000  0.000  0.315
    2  0.061  0.057  0.052  0.057  0.000  0.000  0.000  0.000  0.000  0.227
tot    0.299  0.057  0.128  0.057  0.000  0.000  0.000  0.000  0.000  0.542
 
band     3 # energy    2.53661439 # occ.  2.00000000
 
ion      s     py     pz     px    dxy    dyz    dz2    dxz  x2-y2    tot
    1  0.048  0.060  0.045  0.060  0.000  0.000  0.000  0.000  0.000  0.212
    2  0.003  0.031  0.163  0.031  0.000  0.000  0.000  0.000  0.000  0.228
tot    0.051  0.090  0.208  0.090  0.000  0.000  0.000  0.000  0.000  0.440
 
band     4 # energy    5.98455095 # occ.  2.00000000
 
ion      s     py     pz     px    dxy    dyz    dz2    dxz  x2-y2    tot
    1  0.000  0.096  0.000  0.096  0.000  0.000  0.000  0.000  0.000  0.192
    2  0.000  0.179  0.000  0.179  0.000  0.000  0.000  0.000  0.000  0.358
tot    0.000  0.275  0.000  0.275  0.000  0.000  0.000  0.000  0.000  0.550
 
band     5 # energy   12.06954662 # occ.  0.00000000
 
ion      s     py     pz     px    dxy    dyz    dz2    dxz  x2-y2    tot
    1  0.078  0.005  0.061  0.005  0.000  0.000  0.000  0.000  0.000  0.149
    2  0.041  0.021  0.019  0.021  0.000  0.000  0.000  0.000  0.000  0.101
tot    0.119  0.026  0.081  0.026  0.000  0.000  0.000  0.000  0.000  0.251
 
band     6 # energy   17.21314580 # occ.  0.00000000
 
ion      s     py     pz     px    dxy    dyz    dz2    dxz  x2-y2    tot
    1  0.075  0.000  0.031  0.000  0.000  0.000  0.000  0.000  0.000  0.107
    2  0.056  0.142  0.003  0.142  0.000  0.000  0.000  0.000  0.000  0.342
tot    0.130  0.142  0.034  0.142  0.000  0.000  0.000  0.000  0.000  0.449
 
band     7 # energy   18.19076718 # occ.  0.00000000
 
ion      s     py     pz     px    dxy    dyz    dz2    dxz  x2-y2    tot
    1  0.000  0.113  0.000  0.113  0.000  0.000  0.000  0.000  0.000  0.225
    2  0.000  0.079  0.000  0.079  0.000  0.000  0.000  0.000  0.000  0.158
tot    0.000  0.192  0.000  0.192  0.000  0.000  0.000  0.000  0.000  0.384
 
band     8 # energy   18.94874334 # occ.  0.00000000
 
ion      s     py     pz     px    dxy    dyz    dz2    dxz  x2-y2    tot
    1  0.130  0.002  0.049  0.002  0.000  0.000  0.000  0.000  0.000  0.182
    2  0.004  0.012  0.340  0.012  0.000  0.000  0.000  0.000  0.000  0.369
tot    0.134  0.014  0.389  0.014  0.000  0.000  0.000  0.000  0.000  0.551
 

 k-point    45 :    0.29605263 0.29605263 0.59210526     weight = 0.00416667

band     1 # energy   -3.41175342 # occ.  2.00000000
 
ion      s     py     pz     px    dxy    dyz    dz2    dxz  x2-y2    tot
    1  0.119  0.027  0.018  0.027  0.000  0.000  0.000  0.000  0.000  0.191
    2  0.345  0.007  0.001  0.007  0.000  0.000  0.000  0.000  0.000  0.360
tot    0.464  0.034  0.019  0.034  0.000  0.000  0.000  0.000  0.000  0.551
 
band     2 # energy    1.28747550 # occ.  2.00000000
 
ion      s     py     pz     px    dxy    dyz    dz2    dxz  x2-y2    tot
    1  0.194  0.000  0.091  0.000  0.000  0.000  0.000  0.000  0.000  0.286
    2  0.083  0.064  0.036  0.064  0.000  0.000  0.000  0.000  0.000  0.248
tot    0.277  0.065  0.127  0.065  0.000  0.000  0.000  0.000  0.000  0.534
 
band     3 # energy    2.80291054 # occ.  2.00000000
 
ion      s     py     pz     px    dxy    dyz    dz2    dxz  x2-y2    tot
    1  0.064  0.059  0.039  0.059  0.000  0.000  0.000  0.000  0.000  0.221
    2  0.003  0.022  0.186  0.022  0.000  0.000  0.000  0.000  0.000  0.233
tot    0.067  0.081  0.225  0.081  0.000  0.000  0.000  0.000  0.000  0.455
 
band     4 # energy    6.21628633 # occ.  2.00000000
 
ion      s     py     pz     px    dxy    dyz    dz2    dxz  x2-y2    tot
    1  0.000  0.092  0.000  0.092  0.000  0.000  0.000  0.000  0.000  0.185
    2  0.000  0.184  0.000  0.184  0.000  0.000  0.000  0.000  0.000  0.368
tot    0.000  0.277  0.000  0.277  0.000  0.000  0.000  0.000  0.000  0.553
 
band     5 # energy   12.45566850 # occ.  0.00000000
 
ion      s     py     pz     px    dxy    dyz    dz2    dxz  x2-y2    tot
    1  0.081  0.008  0.061  0.008  0.000  0.000  0.000  0.000  0.000  0.158
    2  0.037  0.021  0.023  0.021  0.000  0.000  0.000  0.000  0.000  0.102
tot    0.118  0.029  0.084  0.029  0.000  0.000  0.000  0.000  0.000  0.260
 
band     6 # energy   17.17307840 # occ.  0.00000000
 
ion      s     py     pz     px    dxy    dyz    dz2    dxz  x2-y2    tot
    1  0.049  0.005  0.062  0.005  0.000  0.000  0.000  0.000  0.000  0.120
    2  0.092  0.122  0.000  0.122  0.000  0.000  0.000  0.000  0.000  0.336
tot    0.140  0.127  0.062  0.127  0.000  0.000  0.000  0.000  0.000  0.456
 
band     7 # energy   17.75092146 # occ.  0.00000000
 
ion      s     py     pz     px    dxy    dyz    dz2    dxz  x2-y2    tot
    1  0.000  0.120  0.000  0.120  0.000  0.000  0.000  0.000  0.000  0.239
    2  0.000  0.070  0.000  0.070  0.000  0.000  0.000  0.000  0.000  0.140
tot    0.000  0.190  0.000  0.190  0.000  0.000  0.000  0.000  0.000  0.379
 
band     8 # energy   18.53197812 # occ.  0.00000000
 
ion      s     py     pz     px    dxy    dyz    dz2    dxz  x2-y2    tot
    1  0.148  0.000  0.038  0.000  0.000  0.000  0.000  0.000  0.000  0.187
    2  0.000  0.025  0.320  0.025  0.000  0.000  0.000  0.000  0.000  0.369
tot    0.149  0.025  0.357  0.025  0.000  0.000  0.000  0.000  0.000  0.556
 

 k-point    46 :    0.27631579 0.27631579 0.55263158     weight = 0.00416667

band     1 # energy   -3.80971759 # occ.  2.00000000
 
ion      s     py     pz     px    dxy    dyz    dz2    dxz  x2-y2    tot
    1  0.139  0.026  0.011  0.026  0.000  0.000  0.000  0.000  0.000  0.203
    2  0.323  0.008  0.001  0.008  0.000  0.000  0.000  0.000  0.000  0.339
tot    0.462  0.034  0.012  0.034  0.000  0.000  0.000  0.000  0.000  0.543
 
band     2 # energy    1.56629530 # occ.  2.00000000
 
ion      s     py     pz     px    dxy    dyz    dz2    dxz  x2-y2    tot
    1  0.159  0.001  0.099  0.001  0.000  0.000  0.000  0.000  0.000  0.260
    2  0.102  0.070  0.026  0.070  0.000  0.000  0.000  0.000  0.000  0.268
tot    0.260  0.071  0.125  0.071  0.000  0.000  0.000  0.000  0.000  0.528
 
band     3 # energy    3.13450928 # occ.  2.00000000
 
ion      s     py     pz     px    dxy    dyz    dz2    dxz  x2-y2    tot
    1  0.072  0.060  0.035  0.060  0.000  0.000  0.000  0.000  0.000  0.227
    2  0.002  0.017  0.205  0.017  0.000  0.000  0.000  0.000  0.000  0.240
tot    0.075  0.077  0.240  0.077  0.000  0.000  0.000  0.000  0.000  0.468
 
band     4 # energy    6.45290107 # occ.  2.00000000
 
ion      s     py     pz     px    dxy    dyz    dz2    dxz  x2-y2    tot
    1  0.000  0.088  0.000  0.088  0.000  0.000  0.000  0.000  0.000  0.176
    2  0.000  0.190  0.000  0.190  0.000  0.000  0.000  0.000  0.000  0.380
tot    0.000  0.278  0.000  0.278  0.000  0.000  0.000  0.000  0.000  0.556
 
band     5 # energy   12.86045893 # occ.  0.00000000
 
ion      s     py     pz     px    dxy    dyz    dz2    dxz  x2-y2    tot
    1  0.084  0.011  0.062  0.011  0.000  0.000  0.000  0.000  0.000  0.169
    2  0.033  0.021  0.028  0.021  0.000  0.000  0.000  0.000  0.000  0.103
tot    0.118  0.032  0.090  0.032  0.000  0.000  0.000  0.000  0.000  0.272
 
band     6 # energy   16.96488102 # occ.  0.00000000
 
ion      s     py     pz     px    dxy    dyz    dz2    dxz  x2-y2    tot
    1  0.030  0.009  0.091  0.009  0.000  0.000  0.000  0.000  0.000  0.140
    2  0.119  0.097  0.004  0.097  0.000  0.000  0.000  0.000  0.000  0.317
tot    0.149  0.106  0.095  0.106  0.000  0.000  0.000  0.000  0.000  0.457
 
band     7 # energy   17.35022588 # occ.  0.00000000
 
ion      s     py     pz     px    dxy    dyz    dz2    dxz  x2-y2    tot
    1  0.000  0.128  0.000  0.128  0.000  0.000  0.000  0.000  0.000  0.257
    2  0.000  0.061  0.000  0.061  0.000  0.000  0.000  0.000  0.000  0.122
tot    0.000  0.190  0.000  0.190  0.000  0.000  0.000  0.000  0.000  0.379
 
band     8 # energy   18.13852453 # occ.  0.00000000
 
ion      s     py     pz     px    dxy    dyz    dz2    dxz  x2-y2    tot
    1  0.159  0.000  0.030  0.000  0.000  0.000  0.000  0.000  0.000  0.189
    2  0.001  0.037  0.289  0.037  0.000  0.000  0.000  0.000  0.000  0.364
tot    0.161  0.037  0.319  0.037  0.000  0.000  0.000  0.000  0.000  0.553
 

 k-point    47 :    0.25657895 0.25657895 0.51315789     weight = 0.00416667

band     1 # energy   -4.22296330 # occ.  2.00000000
 
ion      s     py     pz     px    dxy    dyz    dz2    dxz  x2-y2    tot
    1  0.156  0.025  0.007  0.025  0.000  0.000  0.000  0.000  0.000  0.213
    2  0.306  0.008  0.000  0.008  0.000  0.000  0.000  0.000  0.000  0.322
tot    0.462  0.033  0.007  0.033  0.000  0.000  0.000  0.000  0.000  0.535
 
band     2 # energy    1.90737878 # occ.  2.00000000
 
ion      s     py     pz     px    dxy    dyz    dz2    dxz  x2-y2    tot
    1  0.132  0.002  0.103  0.002  0.000  0.000  0.000  0.000  0.000  0.239
    2  0.114  0.076  0.020  0.076  0.000  0.000  0.000  0.000  0.000  0.286
tot    0.246  0.078  0.123  0.078  0.000  0.000  0.000  0.000  0.000  0.525
 
band     3 # energy    3.51260037 # occ.  2.00000000
 
ion      s     py     pz     px    dxy    dyz    dz2    dxz  x2-y2    tot
    1  0.074  0.062  0.032  0.062  0.000  0.000  0.000  0.000  0.000  0.230
    2  0.002  0.013  0.221  0.013  0.000  0.000  0.000  0.000  0.000  0.249
tot    0.076  0.075  0.254  0.075  0.000  0.000  0.000  0.000  0.000  0.479
 
band     4 # energy    6.68814178 # occ.  2.00000000
 
ion      s     py     pz     px    dxy    dyz    dz2    dxz  x2-y2    tot
    1  0.000  0.083  0.000  0.083  0.000  0.000  0.000  0.000  0.000  0.166
    2  0.000  0.196  0.000  0.196  0.000  0.000  0.000  0.000  0.000  0.393
tot    0.000  0.279  0.000  0.279  0.000  0.000  0.000  0.000  0.000  0.559
 
band     5 # energy   13.27817265 # occ.  0.00000000
 
ion      s     py     pz     px    dxy    dyz    dz2    dxz  x2-y2    tot
    1  0.088  0.016  0.062  0.016  0.000  0.000  0.000  0.000  0.000  0.182
    2  0.030  0.021  0.034  0.021  0.000  0.000  0.000  0.000  0.000  0.106
tot    0.118  0.037  0.096  0.037  0.000  0.000  0.000  0.000  0.000  0.287
 
band     6 # energy   16.68260194 # occ.  0.00000000
 
ion      s     py     pz     px    dxy    dyz    dz2    dxz  x2-y2    tot
    1  0.019  0.013  0.116  0.013  0.000  0.000  0.000  0.000  0.000  0.160
    2  0.138  0.075  0.010  0.075  0.000  0.000  0.000  0.000  0.000  0.299
tot    0.157  0.088  0.126  0.088  0.000  0.000  0.000  0.000  0.000  0.459
 
band     7 # energy   16.99369616 # occ.  0.00000000
 
ion      s     py     pz     px    dxy    dyz    dz2    dxz  x2-y2    tot
    1  0.000  0.140  0.000  0.140  0.000  0.000  0.000  0.000  0.000  0.279
    2  0.000  0.053  0.000  0.052  0.000  0.000  0.000  0.000  0.000  0.105
tot    0.000  0.192  0.000  0.192  0.000  0.000  0.000  0.000  0.000  0.384
 
band     8 # energy   17.77513225 # occ.  0.00000000
 
ion      s     py     pz     px    dxy    dyz    dz2    dxz  x2-y2    tot
    1  0.163  0.000  0.025  0.000  0.000  0.000  0.000  0.000  0.000  0.189
    2  0.006  0.047  0.254  0.047  0.000  0.000  0.000  0.000  0.000  0.355
tot    0.169  0.047  0.280  0.047  0.000  0.000  0.000  0.000  0.000  0.544
 

 k-point    48 :    0.23684211 0.23684211 0.47368421     weight = 0.00416667

band     1 # energy   -4.63515100 # occ.  2.00000000
 
ion      s     py     pz     px    dxy    dyz    dz2    dxz  x2-y2    tot
    1  0.171  0.023  0.004  0.023  0.000  0.000  0.000  0.000  0.000  0.220
    2  0.292  0.008  0.000  0.008  0.000  0.000  0.000  0.000  0.000  0.308
tot    0.463  0.030  0.005  0.030  0.000  0.000  0.000  0.000  0.000  0.528
 
band     2 # energy    2.30317164 # occ.  2.00000000
 
ion      s     py     pz     px    dxy    dyz    dz2    dxz  x2-y2    tot
    1  0.111  0.003  0.103  0.003  0.000  0.000  0.000  0.000  0.000  0.221
    2  0.122  0.082  0.015  0.082  0.000  0.000  0.000  0.000  0.000  0.302
tot    0.233  0.086  0.119  0.086  0.000  0.000  0.000  0.000  0.000  0.523
 
band     3 # energy    3.92479527 # occ.  2.00000000
 
ion      s     py     pz     px    dxy    dyz    dz2    dxz  x2-y2    tot
    1  0.070  0.063  0.031  0.063  0.000  0.000  0.000  0.000  0.000  0.228
    2  0.002  0.010  0.237  0.010  0.000  0.000  0.000  0.000  0.000  0.259
tot    0.072  0.074  0.268  0.074  0.000  0.000  0.000  0.000  0.000  0.488
 
band     4 # energy    6.91524872 # occ.  2.00000000
 
ion      s     py     pz     px    dxy    dyz    dz2    dxz  x2-y2    tot
    1  0.000  0.078  0.000  0.078  0.000  0.000  0.000  0.000  0.000  0.156
    2  0.000  0.203  0.000  0.203  0.000  0.000  0.000  0.000  0.000  0.406
tot    0.000  0.281  0.000  0.281  0.000  0.000  0.000  0.000  0.000  0.561
 
band     5 # energy   13.69876197 # occ.  0.00000000
 
ion      s     py     pz     px    dxy    dyz    dz2    dxz  x2-y2    tot
    1  0.094  0.021  0.062  0.021  0.000  0.000  0.000  0.000  0.000  0.198
    2  0.026  0.020  0.044  0.020  0.000  0.000  0.000  0.000  0.000  0.110
tot    0.120  0.041  0.105  0.041  0.000  0.000  0.000  0.000  0.000  0.308
 
band     6 # energy   16.37648021 # occ.  0.00000000
 
ion      s     py     pz     px    dxy    dyz    dz2    dxz  x2-y2    tot
    1  0.014  0.015  0.135  0.015  0.000  0.000  0.000  0.000  0.000  0.179
    2  0.153  0.058  0.015  0.058  0.000  0.000  0.000  0.000  0.000  0.284
tot    0.167  0.073  0.150  0.073  0.000  0.000  0.000  0.000  0.000  0.463
 
band     7 # energy   16.68358489 # occ.  0.00000000
 
ion      s     py     pz     px    dxy    dyz    dz2    dxz  x2-y2    tot
    1  0.000  0.153  0.000  0.153  0.000  0.000  0.000  0.000  0.000  0.306
    2  0.000  0.044  0.000  0.044  0.000  0.000  0.000  0.000  0.000  0.088
tot    0.000  0.197  0.000  0.197  0.000  0.000  0.000  0.000  0.000  0.394
 
band     8 # energy   17.44904274 # occ.  0.00000000
 
ion      s     py     pz     px    dxy    dyz    dz2    dxz  x2-y2    tot
    1  0.161  0.000  0.025  0.000  0.000  0.000  0.000  0.000  0.000  0.186
    2  0.011  0.056  0.219  0.056  0.000  0.000  0.000  0.000  0.000  0.342
tot    0.172  0.056  0.243  0.056  0.000  0.000  0.000  0.000  0.000  0.528
 

 k-point    49 :    0.21710526 0.21710526 0.43421053     weight = 0.00416667

band     1 # energy   -5.03466979 # occ.  2.00000000
 
ion      s     py     pz     px    dxy    dyz    dz2    dxz  x2-y2    tot
    1  0.184  0.020  0.003  0.020  0.000  0.000  0.000  0.000  0.000  0.226
    2  0.282  0.007  0.000  0.007  0.000  0.000  0.000  0.000  0.000  0.296
tot    0.465  0.027  0.003  0.027  0.000  0.000  0.000  0.000  0.000  0.522
 
band     2 # energy    2.74650988 # occ.  2.00000000
 
ion      s     py     pz     px    dxy    dyz    dz2    dxz  x2-y2    tot
    1  0.095  0.005  0.101  0.005  0.000  0.000  0.000  0.000  0.000  0.206
    2  0.125  0.089  0.012  0.089  0.000  0.000  0.000  0.000  0.000  0.316
tot    0.220  0.094  0.113  0.094  0.000  0.000  0.000  0.000  0.000  0.522
 
band     3 # energy    4.36158254 # occ.  2.00000000
 
ion      s     py     pz     px    dxy    dyz    dz2    dxz  x2-y2    tot
    1  0.064  0.064  0.031  0.064  0.000  0.000  0.000  0.000  0.000  0.224
    2  0.001  0.009  0.253  0.009  0.000  0.000  0.000  0.000  0.000  0.272
tot    0.065  0.073  0.284  0.073  0.000  0.000  0.000  0.000  0.000  0.495
 
band     4 # energy    7.12741574 # occ.  2.00000000
 
ion      s     py     pz     px    dxy    dyz    dz2    dxz  x2-y2    tot
    1  0.000  0.072  0.000  0.072  0.000  0.000  0.000  0.000  0.000  0.144
    2  0.000  0.209  0.000  0.209  0.000  0.000  0.000  0.000  0.000  0.419
tot    0.000  0.281  0.000  0.281  0.000  0.000  0.000  0.000  0.000  0.562
 
band     5 # energy   14.10579284 # occ.  0.00000000
 
ion      s     py     pz     px    dxy    dyz    dz2    dxz  x2-y2    tot
    1  0.102  0.028  0.060  0.028  0.000  0.000  0.000  0.000  0.000  0.219
    2  0.022  0.019  0.057  0.019  0.000  0.000  0.000  0.000  0.000  0.116
tot    0.124  0.047  0.117  0.047  0.000  0.000  0.000  0.000  0.000  0.335
 
band     6 # energy   16.07279958 # occ.  0.00000000
 
ion      s     py     pz     px    dxy    dyz    dz2    dxz  x2-y2    tot
    1  0.012  0.017  0.152  0.017  0.000  0.000  0.000  0.000  0.000  0.198
    2  0.167  0.045  0.016  0.045  0.000  0.000  0.000  0.000  0.000  0.274
tot    0.179  0.062  0.168  0.062  0.000  0.000  0.000  0.000  0.000  0.471
 
band     7 # energy   16.41904630 # occ.  0.00000000
 
ion      s     py     pz     px    dxy    dyz    dz2    dxz  x2-y2    tot
    1  0.000  0.168  0.000  0.168  0.000  0.000  0.000  0.000  0.000  0.337
    2  0.000  0.036  0.000  0.036  0.000  0.000  0.000  0.000  0.000  0.072
tot    0.000  0.204  0.000  0.204  0.000  0.000  0.000  0.000  0.000  0.409
 
band     8 # energy   17.17071135 # occ.  0.00000000
 
ion      s     py     pz     px    dxy    dyz    dz2    dxz  x2-y2    tot
    1  0.150  0.000  0.030  0.000  0.000  0.000  0.000  0.000  0.000  0.180
    2  0.016  0.065  0.181  0.065  0.000  0.000  0.000  0.000  0.000  0.326
tot    0.166  0.065  0.211  0.065  0.000  0.000  0.000  0.000  0.000  0.507
 

 k-point    50 :    0.19736842 0.19736842 0.39473684     weight = 0.00416667

band     1 # energy   -5.41345620 # occ.  2.00000000
 
ion      s     py     pz     px    dxy    dyz    dz2    dxz  x2-y2    tot
    1  0.195  0.017  0.001  0.017  0.000  0.000  0.000  0.000  0.000  0.231
    2  0.274  0.006  0.000  0.006  0.000  0.000  0.000  0.000  0.000  0.286
tot    0.469  0.023  0.002  0.023  0.000  0.000  0.000  0.000  0.000  0.517
 
band     2 # energy    3.23094060 # occ.  2.00000000
 
ion      s     py     pz     px    dxy    dyz    dz2    dxz  x2-y2    tot
    1  0.082  0.007  0.097  0.007  0.000  0.000  0.000  0.000  0.000  0.192
    2  0.125  0.097  0.010  0.097  0.000  0.000  0.000  0.000  0.000  0.330
tot    0.206  0.104  0.107  0.104  0.000  0.000  0.000  0.000  0.000  0.521
 
band     3 # energy    4.81434635 # occ.  2.00000000
 
ion      s     py     pz     px    dxy    dyz    dz2    dxz  x2-y2    tot
    1  0.055  0.065  0.031  0.065  0.000  0.000  0.000  0.000  0.000  0.216
    2  0.001  0.007  0.271  0.007  0.000  0.000  0.000  0.000  0.000  0.286
tot    0.056  0.072  0.303  0.072  0.000  0.000  0.000  0.000  0.000  0.502
 
band     4 # energy    7.31842543 # occ.  2.00000000
 
ion      s     py     pz     px    dxy    dyz    dz2    dxz  x2-y2    tot
    1  0.000  0.066  0.000  0.066  0.000  0.000  0.000  0.000  0.000  0.132
    2  0.000  0.216  0.000  0.216  0.000  0.000  0.000  0.000  0.000  0.431
tot    0.000  0.281  0.000  0.281  0.000  0.000  0.000  0.000  0.000  0.563
 
band     5 # energy   14.47328052 # occ.  0.00000000
 
ion      s     py     pz     px    dxy    dyz    dz2    dxz  x2-y2    tot
    1  0.115  0.038  0.053  0.038  0.000  0.000  0.000  0.000  0.000  0.245
    2  0.018  0.015  0.077  0.015  0.000  0.000  0.000  0.000  0.000  0.125
tot    0.133  0.054  0.130  0.054  0.000  0.000  0.000  0.000  0.000  0.370
 
band     6 # energy   15.78588123 # occ.  0.00000000
 
ion      s     py     pz     px    dxy    dyz    dz2    dxz  x2-y2    tot
    1  0.013  0.018  0.165  0.018  0.000  0.000  0.000  0.000  0.000  0.215
    2  0.183  0.036  0.014  0.036  0.000  0.000  0.000  0.000  0.000  0.267
tot    0.196  0.054  0.179  0.054  0.000  0.000  0.000  0.000  0.000  0.483
 
band     7 # energy   16.19571792 # occ.  0.00000000
 
ion      s     py     pz     px    dxy    dyz    dz2    dxz  x2-y2    tot
    1  0.000  0.185  0.000  0.185  0.000  0.000  0.000  0.000  0.000  0.370
    2  0.000  0.029  0.000  0.029  0.000  0.000  0.000  0.000  0.000  0.057
tot    0.000  0.214  0.000  0.214  0.000  0.000  0.000  0.000  0.000  0.427
 
band     8 # energy   16.95428813 # occ.  0.00000000
 
ion      s     py     pz     px    dxy    dyz    dz2    dxz  x2-y2    tot
    1  0.131  0.000  0.042  0.000  0.000  0.000  0.000  0.000  0.000  0.174
    2  0.019  0.073  0.141  0.074  0.000  0.000  0.000  0.000  0.000  0.306
tot    0.150  0.074  0.183  0.074  0.000  0.000  0.000  0.000  0.000  0.480
 

 k-point    51 :    0.17763158 0.17763158 0.35526316     weight = 0.00416667

band     1 # energy   -5.76588864 # occ.  2.00000000
 
ion      s     py     pz     px    dxy    dyz    dz2    dxz  x2-y2    tot
    1  0.205  0.014  0.001  0.014  0.000  0.000  0.000  0.000  0.000  0.234
    2  0.268  0.005  0.000  0.005  0.000  0.000  0.000  0.000  0.000  0.279
tot    0.472  0.020  0.001  0.020  0.000  0.000  0.000  0.000  0.000  0.513
 
band     2 # energy    3.75047922 # occ.  2.00000000
 
ion      s     py     pz     px    dxy    dyz    dz2    dxz  x2-y2    tot
    1  0.070  0.008  0.092  0.008  0.000  0.000  0.000  0.000  0.000  0.178
    2  0.121  0.106  0.008  0.106  0.000  0.000  0.000  0.000  0.000  0.343
tot    0.191  0.115  0.100  0.115  0.000  0.000  0.000  0.000  0.000  0.521
 
band     3 # energy    5.27428553 # occ.  2.00000000
 
ion      s     py     pz     px    dxy    dyz    dz2    dxz  x2-y2    tot
    1  0.045  0.063  0.033  0.063  0.000  0.000  0.000  0.000  0.000  0.205
    2  0.001  0.006  0.291  0.006  0.000  0.000  0.000  0.000  0.000  0.303
tot    0.046  0.069  0.323  0.069  0.000  0.000  0.000  0.000  0.000  0.508
 
band     4 # energy    7.48340618 # occ.  2.00000000
 
ion      s     py     pz     px    dxy    dyz    dz2    dxz  x2-y2    tot
    1  0.000  0.060  0.000  0.060  0.000  0.000  0.000  0.000  0.000  0.119
    2  0.000  0.221  0.000  0.221  0.000  0.000  0.000  0.000  0.000  0.442
tot    0.000  0.281  0.000  0.281  0.000  0.000  0.000  0.000  0.000  0.561
 
band     5 # energy   14.76506021 # occ.  0.00000000
 
ion      s     py     pz     px    dxy    dyz    dz2    dxz  x2-y2    tot
    1  0.129  0.053  0.038  0.053  0.000  0.000  0.000  0.000  0.000  0.274
    2  0.012  0.011  0.103  0.011  0.000  0.000  0.000  0.000  0.000  0.136
tot    0.141  0.064  0.142  0.064  0.000  0.000  0.000  0.000  0.000  0.410
 
band     6 # energy   15.52430841 # occ.  0.00000000
 
ion      s     py     pz     px    dxy    dyz    dz2    dxz  x2-y2    tot
    1  0.020  0.017  0.178  0.017  0.000  0.000  0.000  0.000  0.000  0.232
    2  0.202  0.029  0.008  0.029  0.000  0.000  0.000  0.000  0.000  0.267
tot    0.223  0.046  0.185  0.046  0.000  0.000  0.000  0.000  0.000  0.499
 
band     7 # energy   16.00623687 # occ.  0.00000000
 
ion      s     py     pz     px    dxy    dyz    dz2    dxz  x2-y2    tot
    1  0.000  0.201  0.000  0.201  0.000  0.000  0.000  0.000  0.000  0.403
    2  0.000  0.022  0.000  0.022  0.000  0.000  0.000  0.000  0.000  0.045
tot    0.000  0.224  0.000  0.224  0.000  0.000  0.000  0.000  0.000  0.447
 
band     8 # energy   16.81561918 # occ.  0.00000000
 
ion      s     py     pz     px    dxy    dyz    dz2    dxz  x2-y2    tot
    1  0.103  0.000  0.068  0.000  0.000  0.000  0.000  0.000  0.000  0.171
    2  0.019  0.083  0.096  0.083  0.000  0.000  0.000  0.000  0.000  0.282
tot    0.122  0.083  0.164  0.083  0.000  0.000  0.000  0.000  0.000  0.453
 

 k-point    52 :    0.15789474 0.15789474 0.31578947     weight = 0.00416667

band     1 # energy   -6.08800375 # occ.  2.00000000
 
ion      s     py     pz     px    dxy    dyz    dz2    dxz  x2-y2    tot
    1  0.213  0.012  0.000  0.012  0.000  0.000  0.000  0.000  0.000  0.237
    2  0.263  0.004  0.000  0.004  0.000  0.000  0.000  0.000  0.000  0.272
tot    0.476  0.016  0.001  0.016  0.000  0.000  0.000  0.000  0.000  0.509
 
band     2 # energy    4.29884980 # occ.  2.00000000
 
ion      s     py     pz     px    dxy    dyz    dz2    dxz  x2-y2    tot
    1  0.060  0.010  0.085  0.010  0.000  0.000  0.000  0.000  0.000  0.165
    2  0.115  0.117  0.007  0.117  0.000  0.000  0.000  0.000  0.000  0.355
tot    0.175  0.127  0.092  0.127  0.000  0.000  0.000  0.000  0.000  0.521
 
band     3 # energy    5.73176092 # occ.  2.00000000
 
ion      s     py     pz     px    dxy    dyz    dz2    dxz  x2-y2    tot
    1  0.035  0.061  0.035  0.061  0.000  0.000  0.000  0.000  0.000  0.190
    2  0.001  0.005  0.312  0.005  0.000  0.000  0.000  0.000  0.000  0.323
tot    0.035  0.065  0.347  0.065  0.000  0.000  0.000  0.000  0.000  0.513
 
band     4 # energy    7.61952952 # occ.  2.00000000
 
ion      s     py     pz     px    dxy    dyz    dz2    dxz  x2-y2    tot
    1  0.000  0.053  0.000  0.053  0.000  0.000  0.000  0.000  0.000  0.107
    2  0.000  0.226  0.000  0.226  0.000  0.000  0.000  0.000  0.000  0.452
tot    0.000  0.279  0.000  0.279  0.000  0.000  0.000  0.000  0.000  0.559
 
band     5 # energy   14.94605440 # occ.  0.00000000
 
ion      s     py     pz     px    dxy    dyz    dz2    dxz  x2-y2    tot
    1  0.129  0.077  0.013  0.077  0.000  0.000  0.000  0.000  0.000  0.295
    2  0.002  0.007  0.128  0.007  0.000  0.000  0.000  0.000  0.000  0.144
tot    0.131  0.084  0.140  0.084  0.000  0.000  0.000  0.000  0.000  0.439
 
band     6 # energy   15.29473056 # occ.  0.00000000
 
ion      s     py     pz     px    dxy    dyz    dz2    dxz  x2-y2    tot
    1  0.043  0.010  0.189  0.010  0.000  0.000  0.000  0.000  0.000  0.252
    2  0.228  0.023  0.000  0.023  0.000  0.000  0.000  0.000  0.000  0.275
tot    0.272  0.033  0.189  0.033  0.000  0.000  0.000  0.000  0.000  0.527
 
band     7 # energy   15.84199276 # occ.  0.00000000
 
ion      s     py     pz     px    dxy    dyz    dz2    dxz  x2-y2    tot
    1  0.000  0.216  0.000  0.216  0.000  0.000  0.000  0.000  0.000  0.432
    2  0.000  0.017  0.000  0.017  0.000  0.000  0.000  0.000  0.000  0.034
tot    0.000  0.233  0.000  0.233  0.000  0.000  0.000  0.000  0.000  0.467
 
band     8 # energy   16.75385743 # occ.  0.00000000
 
ion      s     py     pz     px    dxy    dyz    dz2    dxz  x2-y2    tot
    1  0.071  0.000  0.111  0.000  0.000  0.000  0.000  0.000  0.000  0.182
    2  0.020  0.092  0.053  0.092  0.000  0.000  0.000  0.000  0.000  0.256
tot    0.091  0.092  0.164  0.092  0.000  0.000  0.000  0.000  0.000  0.438
 

 k-point    53 :    0.13815789 0.13815789 0.27631579     weight = 0.00416667

band     1 # energy   -6.37687605 # occ.  2.00000000
 
ion      s     py     pz     px    dxy    dyz    dz2    dxz  x2-y2    tot
    1  0.220  0.009  0.000  0.009  0.000  0.000  0.000  0.000  0.000  0.239
    2  0.260  0.004  0.000  0.004  0.000  0.000  0.000  0.000  0.000  0.267
tot    0.480  0.013  0.000  0.013  0.000  0.000  0.000  0.000  0.000  0.506
 
band     2 # energy    4.86884693 # occ.  2.00000000
 
ion      s     py     pz     px    dxy    dyz    dz2    dxz  x2-y2    tot
    1  0.051  0.012  0.077  0.012  0.000  0.000  0.000  0.000  0.000  0.152
    2  0.106  0.129  0.006  0.129  0.000  0.000  0.000  0.000  0.000  0.369
tot    0.157  0.141  0.082  0.141  0.000  0.000  0.000  0.000  0.000  0.521
 
band     3 # energy    6.17605949 # occ.  2.00000000
 
ion      s     py     pz     px    dxy    dyz    dz2    dxz  x2-y2    tot
    1  0.025  0.055  0.037  0.055  0.000  0.000  0.000  0.000  0.000  0.173
    2  0.000  0.004  0.336  0.004  0.000  0.000  0.000  0.000  0.000  0.345
tot    0.025  0.060  0.373  0.060  0.000  0.000  0.000  0.000  0.000  0.518
 
band     4 # energy    7.72637717 # occ.  2.00000000
 
ion      s     py     pz     px    dxy    dyz    dz2    dxz  x2-y2    tot
    1  0.000  0.048  0.000  0.048  0.000  0.000  0.000  0.000  0.000  0.096
    2  0.000  0.229  0.000  0.229  0.000  0.000  0.000  0.000  0.000  0.459
tot    0.000  0.277  0.000  0.277  0.000  0.000  0.000  0.000  0.000  0.554
 
band     5 # energy   14.98978359 # occ.  0.00000000
 
ion      s     py     pz     px    dxy    dyz    dz2    dxz  x2-y2    tot
    1  0.042  0.102  0.019  0.102  0.000  0.000  0.000  0.000  0.000  0.264
    2  0.044  0.013  0.100  0.013  0.000  0.000  0.000  0.000  0.000  0.170
tot    0.086  0.114  0.119  0.114  0.000  0.000  0.000  0.000  0.000  0.434
 
band     6 # energy   15.12486879 # occ.  0.00000000
 
ion      s     py     pz     px    dxy    dyz    dz2    dxz  x2-y2    tot
    1  0.144  0.005  0.160  0.005  0.000  0.000  0.000  0.000  0.000  0.313
    2  0.204  0.012  0.032  0.012  0.000  0.000  0.000  0.000  0.000  0.261
tot    0.348  0.017  0.192  0.017  0.000  0.000  0.000  0.000  0.000  0.574
 
band     7 # energy   15.69577696 # occ.  0.00000000
 
ion      s     py     pz     px    dxy    dyz    dz2    dxz  x2-y2    tot
    1  0.000  0.228  0.000  0.228  0.000  0.000  0.000  0.000  0.000  0.456
    2  0.000  0.013  0.000  0.013  0.000  0.000  0.000  0.000  0.000  0.026
tot    0.000  0.241  0.000  0.241  0.000  0.000  0.000  0.000  0.000  0.482
 
band     8 # energy   16.71992883 # occ.  0.00000000
 
ion      s     py     pz     px    dxy    dyz    dz2    dxz  x2-y2    tot
    1  0.046  0.000  0.168  0.000  0.000  0.000  0.000  0.000  0.000  0.215
    2  0.022  0.095  0.021  0.095  0.000  0.000  0.000  0.000  0.000  0.234
tot    0.068  0.096  0.189  0.096  0.000  0.000  0.000  0.000  0.000  0.449
 

 k-point    54 :    0.11842105 0.11842105 0.23684211     weight = 0.00416667

band     1 # energy   -6.63043298 # occ.  2.00000000
 
ion      s     py     pz     px    dxy    dyz    dz2    dxz  x2-y2    tot
    1  0.226  0.007  0.000  0.007  0.000  0.000  0.000  0.000  0.000  0.240
    2  0.257  0.003  0.000  0.003  0.000  0.000  0.000  0.000  0.000  0.263
tot    0.484  0.009  0.000  0.009  0.000  0.000  0.000  0.000  0.000  0.503
 
band     2 # energy    5.45121525 # occ.  2.00000000
 
ion      s     py     pz     px    dxy    dyz    dz2    dxz  x2-y2    tot
    1  0.042  0.015  0.067  0.015  0.000  0.000  0.000  0.000  0.000  0.138
    2  0.094  0.142  0.005  0.142  0.000  0.000  0.000  0.000  0.000  0.383
tot    0.136  0.157  0.072  0.157  0.000  0.000  0.000  0.000  0.000  0.521
 
band     3 # energy    6.59535998 # occ.  2.00000000
 
ion      s     py     pz     px    dxy    dyz    dz2    dxz  x2-y2    tot
    1  0.016  0.048  0.040  0.048  0.000  0.000  0.000  0.000  0.000  0.153
    2  0.000  0.003  0.362  0.003  0.000  0.000  0.000  0.000  0.000  0.368
tot    0.016  0.051  0.402  0.051  0.000  0.000  0.000  0.000  0.000  0.521
 
band     4 # energy    7.80584427 # occ.  2.00000000
 
ion      s     py     pz     px    dxy    dyz    dz2    dxz  x2-y2    tot
    1  0.000  0.043  0.000  0.043  0.000  0.000  0.000  0.000  0.000  0.085
    2  0.000  0.232  0.000  0.232  0.000  0.000  0.000  0.000  0.000  0.464
tot    0.000  0.275  0.000  0.275  0.000  0.000  0.000  0.000  0.000  0.549
 
band     5 # energy   14.86344211 # occ.  0.00000000
 
ion      s     py     pz     px    dxy    dyz    dz2    dxz  x2-y2    tot
    1  0.006  0.054  0.111  0.054  0.000  0.000  0.000  0.000  0.000  0.225
    2  0.206  0.020  0.018  0.020  0.000  0.000  0.000  0.000  0.000  0.264
tot    0.212  0.074  0.129  0.074  0.000  0.000  0.000  0.000  0.000  0.489
 
band     6 # energy   15.08316723 # occ.  0.00000000
 
ion      s     py     pz     px    dxy    dyz    dz2    dxz  x2-y2    tot
    1  0.180  0.074  0.044  0.074  0.000  0.000  0.000  0.000  0.000  0.371
    2  0.064  0.003  0.102  0.003  0.000  0.000  0.000  0.000  0.000  0.171
tot    0.244  0.077  0.145  0.077  0.000  0.000  0.000  0.000  0.000  0.543
 
band     7 # energy   15.56370896 # occ.  0.00000000
 
ion      s     py     pz     px    dxy    dyz    dz2    dxz  x2-y2    tot
    1  0.000  0.237  0.000  0.237  0.000  0.000  0.000  0.000  0.000  0.473
    2  0.000  0.010  0.000  0.010  0.000  0.000  0.000  0.000  0.000  0.021
tot    0.000  0.247  0.000  0.247  0.000  0.000  0.000  0.000  0.000  0.494
 
band     8 # energy   16.62199724 # occ.  0.00000000
 
ion      s     py     pz     px    dxy    dyz    dz2    dxz  x2-y2    tot
    1  0.031  0.001  0.232  0.001  0.000  0.000  0.000  0.000  0.000  0.265
    2  0.027  0.091  0.005  0.091  0.000  0.000  0.000  0.000  0.000  0.214
tot    0.058  0.092  0.237  0.092  0.000  0.000  0.000  0.000  0.000  0.479
 

 k-point    55 :    0.09868421 0.09868421 0.19736842     weight = 0.00416667

band     1 # energy   -6.84709028 # occ.  2.00000000
 
ion      s     py     pz     px    dxy    dyz    dz2    dxz  x2-y2    tot
    1  0.232  0.005  0.000  0.005  0.000  0.000  0.000  0.000  0.000  0.241
    2  0.256  0.002  0.000  0.002  0.000  0.000  0.000  0.000  0.000  0.259
tot    0.487  0.007  0.000  0.007  0.000  0.000  0.000  0.000  0.000  0.501
 
band     2 # energy    6.03318969 # occ.  2.00000000
 
ion      s     py     pz     px    dxy    dyz    dz2    dxz  x2-y2    tot
    1  0.033  0.017  0.056  0.017  0.000  0.000  0.000  0.000  0.000  0.124
    2  0.080  0.158  0.004  0.158  0.000  0.000  0.000  0.000  0.000  0.399
tot    0.113  0.175  0.059  0.175  0.000  0.000  0.000  0.000  0.000  0.522
 
band     3 # energy    6.97710065 # occ.  2.00000000
 
ion      s     py     pz     px    dxy    dyz    dz2    dxz  x2-y2    tot
    1  0.009  0.039  0.044  0.039  0.000  0.000  0.000  0.000  0.000  0.131
    2  0.000  0.002  0.388  0.002  0.000  0.000  0.000  0.000  0.000  0.393
tot    0.009  0.041  0.432  0.041  0.000  0.000  0.000  0.000  0.000  0.524
 
band     4 # energy    7.86160225 # occ.  2.00000000
 
ion      s     py     pz     px    dxy    dyz    dz2    dxz  x2-y2    tot
    1  0.000  0.038  0.000  0.038  0.000  0.000  0.000  0.000  0.000  0.077
    2  0.000  0.234  0.000  0.234  0.000  0.000  0.000  0.000  0.000  0.467
tot    0.000  0.272  0.000  0.272  0.000  0.000  0.000  0.000  0.000  0.544
 
band     5 # energy   14.70312916 # occ.  0.00000000
 
ion      s     py     pz     px    dxy    dyz    dz2    dxz  x2-y2    tot
    1  0.032  0.034  0.112  0.034  0.000  0.000  0.000  0.000  0.000  0.212
    2  0.268  0.020  0.003  0.020  0.000  0.000  0.000  0.000  0.000  0.311
tot    0.300  0.054  0.115  0.054  0.000  0.000  0.000  0.000  0.000  0.523
 
band     6 # energy   15.07119763 # occ.  0.00000000
 
ion      s     py     pz     px    dxy    dyz    dz2    dxz  x2-y2    tot
    1  0.145  0.119  0.013  0.119  0.000  0.000  0.000  0.000  0.000  0.397
    2  0.028  0.003  0.094  0.003  0.000  0.000  0.000  0.000  0.000  0.128
tot    0.172  0.122  0.107  0.122  0.000  0.000  0.000  0.000  0.000  0.524
 
band     7 # energy   15.44546190 # occ.  0.00000000
 
ion      s     py     pz     px    dxy    dyz    dz2    dxz  x2-y2    tot
    1  0.000  0.242  0.000  0.242  0.000  0.000  0.000  0.000  0.000  0.484
    2  0.000  0.008  0.000  0.008  0.000  0.000  0.000  0.000  0.000  0.017
tot    0.000  0.251  0.000  0.251  0.000  0.000  0.000  0.000  0.000  0.501
 
band     8 # energy   16.39593717 # occ.  0.00000000
 
ion      s     py     pz     px    dxy    dyz    dz2    dxz  x2-y2    tot
    1  0.023  0.001  0.297  0.001  0.000  0.000  0.000  0.000  0.000  0.322
    2  0.032  0.077  0.000  0.077  0.000  0.000  0.000  0.000  0.000  0.185
tot    0.054  0.078  0.297  0.078  0.000  0.000  0.000  0.000  0.000  0.507
 

 k-point    56 :    0.07894737 0.07894737 0.15789474     weight = 0.00416667

band     1 # energy   -7.02571674 # occ.  2.00000000
 
ion      s     py     pz     px    dxy    dyz    dz2    dxz  x2-y2    tot
    1  0.236  0.003  0.000  0.003  0.000  0.000  0.000  0.000  0.000  0.242
    2  0.254  0.001  0.000  0.001  0.000  0.000  0.000  0.000  0.000  0.257
tot    0.490  0.004  0.000  0.004  0.000  0.000  0.000  0.000  0.000  0.499
 
band     2 # energy    6.59623325 # occ.  2.00000000
 
ion      s     py     pz     px    dxy    dyz    dz2    dxz  x2-y2    tot
    1  0.025  0.020  0.043  0.020  0.000  0.000  0.000  0.000  0.000  0.108
    2  0.062  0.175  0.003  0.175  0.000  0.000  0.000  0.000  0.000  0.416
tot    0.087  0.195  0.046  0.195  0.000  0.000  0.000  0.000  0.000  0.523
 
band     3 # energy    7.30875679 # occ.  2.00000000
 
ion      s     py     pz     px    dxy    dyz    dz2    dxz  x2-y2    tot
    1  0.004  0.028  0.048  0.028  0.000  0.000  0.000  0.000  0.000  0.109
    2  0.000  0.002  0.414  0.002  0.000  0.000  0.000  0.000  0.000  0.417
tot    0.004  0.030  0.461  0.030  0.000  0.000  0.000  0.000  0.000  0.526
 
band     4 # energy    7.89831823 # occ.  2.00000000
 
ion      s     py     pz     px    dxy    dyz    dz2    dxz  x2-y2    tot
    1  0.000  0.035  0.000  0.035  0.000  0.000  0.000  0.000  0.000  0.069
    2  0.000  0.235  0.000  0.235  0.000  0.000  0.000  0.000  0.000  0.469
tot    0.000  0.269  0.000  0.269  0.000  0.000  0.000  0.000  0.000  0.539
 
band     5 # energy   14.54396177 # occ.  0.00000000
 
ion      s     py     pz     px    dxy    dyz    dz2    dxz  x2-y2    tot
    1  0.059  0.022  0.085  0.022  0.000  0.000  0.000  0.000  0.000  0.189
    2  0.316  0.019  0.000  0.019  0.000  0.000  0.000  0.000  0.000  0.355
tot    0.375  0.042  0.086  0.042  0.000  0.000  0.000  0.000  0.000  0.544
 
band     6 # energy   15.07130372 # occ.  0.00000000
 
ion      s     py     pz     px    dxy    dyz    dz2    dxz  x2-y2    tot
    1  0.105  0.158  0.004  0.158  0.000  0.000  0.000  0.000  0.000  0.425
    2  0.013  0.003  0.070  0.003  0.000  0.000  0.000  0.000  0.000  0.090
tot    0.118  0.162  0.074  0.162  0.000  0.000  0.000  0.000  0.000  0.515
 
band     7 # energy   15.34308814 # occ.  0.00000000
 
ion      s     py     pz     px    dxy    dyz    dz2    dxz  x2-y2    tot
    1  0.000  0.246  0.000  0.246  0.000  0.000  0.000  0.000  0.000  0.491
    2  0.000  0.007  0.000  0.007  0.000  0.000  0.000  0.000  0.000  0.014
tot    0.000  0.253  0.000  0.253  0.000  0.000  0.000  0.000  0.000  0.505
 
band     8 # energy   16.05987551 # occ.  0.00000000
 
ion      s     py     pz     px    dxy    dyz    dz2    dxz  x2-y2    tot
    1  0.016  0.001  0.360  0.001  0.000  0.000  0.000  0.000  0.000  0.377
    2  0.030  0.055  0.001  0.055  0.000  0.000  0.000  0.000  0.000  0.141
tot    0.046  0.056  0.361  0.056  0.000  0.000  0.000  0.000  0.000  0.518
 

 k-point    57 :    0.05921053 0.05921053 0.11842105     weight = 0.00416667

band     1 # energy   -7.16541674 # occ.  2.00000000
 
ion      s     py     pz     px    dxy    dyz    dz2    dxz  x2-y2    tot
    1  0.239  0.002  0.000  0.002  0.000  0.000  0.000  0.000  0.000  0.243
    2  0.253  0.001  0.000  0.001  0.000  0.000  0.000  0.000  0.000  0.255
tot    0.493  0.002  0.000  0.002  0.000  0.000  0.000  0.000  0.000  0.498
 
band     2 # energy    7.11290936 # occ.  2.00000000
 
ion      s     py     pz     px    dxy    dyz    dz2    dxz  x2-y2    tot
    1  0.016  0.023  0.029  0.023  0.000  0.000  0.000  0.000  0.000  0.091
    2  0.043  0.195  0.002  0.195  0.000  0.000  0.000  0.000  0.000  0.434
tot    0.059  0.217  0.031  0.217  0.000  0.000  0.000  0.000  0.000  0.525
 
band     3 # energy    7.57892524 # occ.  2.00000000
 
ion      s     py     pz     px    dxy    dyz    dz2    dxz  x2-y2    tot
    1  0.002  0.018  0.051  0.018  0.000  0.000  0.000  0.000  0.000  0.088
    2  0.000  0.001  0.437  0.001  0.000  0.000  0.000  0.000  0.000  0.439
tot    0.002  0.019  0.488  0.019  0.000  0.000  0.000  0.000  0.000  0.527
 
band     4 # energy    7.92083914 # occ.  2.00000000
 
ion      s     py     pz     px    dxy    dyz    dz2    dxz  x2-y2    tot
    1  0.000  0.032  0.000  0.032  0.000  0.000  0.000  0.000  0.000  0.064
    2  0.000  0.235  0.000  0.235  0.000  0.000  0.000  0.000  0.000  0.470
tot    0.000  0.267  0.000  0.267  0.000  0.000  0.000  0.000  0.000  0.534
 
band     5 # energy   14.37937509 # occ.  0.00000000
 
ion      s     py     pz     px    dxy    dyz    dz2    dxz  x2-y2    tot
    1  0.086  0.013  0.047  0.013  0.000  0.000  0.000  0.000  0.000  0.159
    2  0.364  0.018  0.000  0.018  0.000  0.000  0.000  0.000  0.000  0.400
tot    0.450  0.031  0.047  0.031  0.000  0.000  0.000  0.000  0.000  0.559
 
band     6 # energy   15.08743186 # occ.  0.00000000
 
ion      s     py     pz     px    dxy    dyz    dz2    dxz  x2-y2    tot
    1  0.065  0.193  0.001  0.193  0.000  0.000  0.000  0.000  0.000  0.453
    2  0.006  0.004  0.044  0.004  0.000  0.000  0.000  0.000  0.000  0.058
tot    0.071  0.197  0.045  0.197  0.000  0.000  0.000  0.000  0.000  0.510
 
band     7 # energy   15.25956309 # occ.  0.00000000
 
ion      s     py     pz     px    dxy    dyz    dz2    dxz  x2-y2    tot
    1  0.000  0.248  0.000  0.248  0.000  0.000  0.000  0.000  0.000  0.495
    2  0.000  0.006  0.000  0.006  0.000  0.000  0.000  0.000  0.000  0.012
tot    0.000  0.254  0.000  0.254  0.000  0.000  0.000  0.000  0.000  0.507
 
band     8 # energy   15.69496333 # occ.  0.00000000
 
ion      s     py     pz     px    dxy    dyz    dz2    dxz  x2-y2    tot
    1  0.009  0.000  0.421  0.000  0.000  0.000  0.000  0.000  0.000  0.430
    2  0.019  0.032  0.003  0.032  0.000  0.000  0.000  0.000  0.000  0.086
tot    0.028  0.032  0.424  0.032  0.000  0.000  0.000  0.000  0.000  0.517
 

 k-point    58 :    0.03947368 0.03947368 0.07894737     weight = 0.00416667

band     1 # energy   -7.26555409 # occ.  2.00000000
 
ion      s     py     pz     px    dxy    dyz    dz2    dxz  x2-y2    tot
    1  0.242  0.001  0.000  0.001  0.000  0.000  0.000  0.000  0.000  0.243
    2  0.253  0.000  0.000  0.000  0.000  0.000  0.000  0.000  0.000  0.253
tot    0.495  0.001  0.000  0.001  0.000  0.000  0.000  0.000  0.000  0.497
 
band     2 # energy    7.54349122 # occ.  2.00000000
 
ion      s     py     pz     px    dxy    dyz    dz2    dxz  x2-y2    tot
    1  0.008  0.026  0.015  0.026  0.000  0.000  0.000  0.000  0.000  0.075
    2  0.023  0.214  0.001  0.214  0.000  0.000  0.000  0.000  0.000  0.451
tot    0.031  0.239  0.016  0.239  0.000  0.000  0.000  0.000  0.000  0.526
 
band     3 # energy    7.77832532 # occ.  2.00000000
 
ion      s     py     pz     px    dxy    dyz    dz2    dxz  x2-y2    tot
    1  0.000  0.009  0.054  0.009  0.000  0.000  0.000  0.000  0.000  0.072
    2  0.000  0.000  0.455  0.000  0.000  0.000  0.000  0.000  0.000  0.456
tot    0.000  0.009  0.509  0.009  0.000  0.000  0.000  0.000  0.000  0.528
 
band     4 # energy    7.93351179 # occ.  2.00000000
 
ion      s     py     pz     px    dxy    dyz    dz2    dxz  x2-y2    tot
    1  0.000  0.030  0.000  0.030  0.000  0.000  0.000  0.000  0.000  0.060
    2  0.000  0.235  0.000  0.235  0.000  0.000  0.000  0.000  0.000  0.471
tot    0.000  0.265  0.000  0.265  0.000  0.000  0.000  0.000  0.000  0.531
 
band     5 # energy   14.20821671 # occ.  0.00000000
 
ion      s     py     pz     px    dxy    dyz    dz2    dxz  x2-y2    tot
    1  0.108  0.006  0.014  0.006  0.000  0.000  0.000  0.000  0.000  0.135
    2  0.409  0.012  0.000  0.012  0.000  0.000  0.000  0.000  0.000  0.433
tot    0.516  0.019  0.014  0.019  0.000  0.000  0.000  0.000  0.000  0.568
 
band     6 # energy   15.11360998 # occ.  0.00000000
 
ion      s     py     pz     px    dxy    dyz    dz2    dxz  x2-y2    tot
    1  0.031  0.223  0.000  0.223  0.000  0.000  0.000  0.000  0.000  0.477
    2  0.002  0.004  0.021  0.004  0.000  0.000  0.000  0.000  0.000  0.032
tot    0.033  0.227  0.021  0.227  0.000  0.000  0.000  0.000  0.000  0.509
 
band     7 # energy   15.19772561 # occ.  0.00000000
 
ion      s     py     pz     px    dxy    dyz    dz2    dxz  x2-y2    tot
    1  0.000  0.249  0.000  0.249  0.000  0.000  0.000  0.000  0.000  0.497
    2  0.000  0.005  0.000  0.005  0.000  0.000  0.000  0.000  0.000  0.011
tot    0.000  0.254  0.000  0.254  0.000  0.000  0.000  0.000  0.000  0.508
 
band     8 # energy   15.39231658 # occ.  0.00000000
 
ion      s     py     pz     px    dxy    dyz    dz2    dxz  x2-y2    tot
    1  0.003  0.000  0.470  0.000  0.000  0.000  0.000  0.000  0.000  0.473
    2  0.006  0.013  0.007  0.013  0.000  0.000  0.000  0.000  0.000  0.039
tot    0.009  0.013  0.476  0.013  0.000  0.000  0.000  0.000  0.000  0.512
 

 k-point    59 :    0.01973684 0.01973684 0.03947368     weight = 0.00416667

band     1 # energy   -7.32583042 # occ.  2.00000000
 
ion      s     py     pz     px    dxy    dyz    dz2    dxz  x2-y2    tot
    1  0.243  0.000  0.000  0.000  0.000  0.000  0.000  0.000  0.000  0.244
    2  0.252  0.000  0.000  0.000  0.000  0.000  0.000  0.000  0.000  0.253
tot    0.496  0.000  0.000  0.000  0.000  0.000  0.000  0.000  0.000  0.496
 
band     2 # energy    7.83646715 # occ.  2.00000000
 
ion      s     py     pz     px    dxy    dyz    dz2    dxz  x2-y2    tot
    1  0.002  0.028  0.004  0.028  0.000  0.000  0.000  0.000  0.000  0.062
    2  0.007  0.229  0.000  0.229  0.000  0.000  0.000  0.000  0.000  0.465
tot    0.009  0.257  0.005  0.257  0.000  0.000  0.000  0.000  0.000  0.527
 
band     3 # energy    7.90042660 # occ.  2.00000000
 
ion      s     py     pz     px    dxy    dyz    dz2    dxz  x2-y2    tot
    1  0.000  0.002  0.056  0.002  0.000  0.000  0.000  0.000  0.000  0.061
    2  0.000  0.000  0.467  0.000  0.000  0.000  0.000  0.000  0.000  0.467
tot    0.000  0.002  0.523  0.002  0.000  0.000  0.000  0.000  0.000  0.528
 
band     4 # energy    7.93969850 # occ.  2.00000000
 
ion      s     py     pz     px    dxy    dyz    dz2    dxz  x2-y2    tot
    1  0.000  0.029  0.000  0.029  0.000  0.000  0.000  0.000  0.000  0.058
    2  0.000  0.235  0.000  0.235  0.000  0.000  0.000  0.000  0.000  0.471
tot    0.000  0.264  0.000  0.264  0.000  0.000  0.000  0.000  0.000  0.529
 
band     5 # energy   14.06193543 # occ.  0.00000000
 
ion      s     py     pz     px    dxy    dyz    dz2    dxz  x2-y2    tot
    1  0.122  0.002  0.001  0.002  0.000  0.000  0.000  0.000  0.000  0.126
    2  0.437  0.004  0.000  0.004  0.000  0.000  0.000  0.000  0.000  0.445
tot    0.558  0.006  0.001  0.006  0.000  0.000  0.000  0.000  0.000  0.571
 
band     6 # energy   15.13736358 # occ.  0.00000000
 
ion      s     py     pz     px    dxy    dyz    dz2    dxz  x2-y2    tot
    1  0.008  0.242  0.000  0.242  0.000  0.000  0.000  0.000  0.000  0.493
    2  0.000  0.005  0.005  0.005  0.000  0.000  0.000  0.000  0.000  0.016
tot    0.009  0.247  0.005  0.247  0.000  0.000  0.000  0.000  0.000  0.509
 
band     7 # energy   15.15971493 # occ.  0.00000000
 
ion      s     py     pz     px    dxy    dyz    dz2    dxz  x2-y2    tot
    1  0.000  0.249  0.000  0.249  0.000  0.000  0.000  0.000  0.000  0.498
    2  0.000  0.005  0.000  0.005  0.000  0.000  0.000  0.000  0.000  0.010
tot    0.000  0.254  0.000  0.254  0.000  0.000  0.000  0.000  0.000  0.509
 
band     8 # energy   15.20701709 # occ.  0.00000000
 
ion      s     py     pz     px    dxy    dyz    dz2    dxz  x2-y2    tot
    1  0.000  0.000  0.494  0.000  0.000  0.000  0.000  0.000  0.000  0.494
    2  0.001  0.003  0.009  0.003  0.000  0.000  0.000  0.000  0.000  0.015
tot    0.001  0.003  0.503  0.003  0.000  0.000  0.000  0.000  0.000  0.509
 

 k-point    60 :    0.00000000 0.00000000 0.00000000     weight = 0.00416667

band     1 # energy   -7.34592252 # occ.  2.00000000
 
ion      s     py     pz     px    dxy    dyz    dz2    dxz  x2-y2    tot
    1  0.244  0.000  0.000  0.000  0.000  0.000  0.000  0.000  0.000  0.244
    2  0.252  0.000  0.000  0.000  0.000  0.000  0.000  0.000  0.000  0.252
tot    0.496  0.000  0.000  0.000  0.000  0.000  0.000  0.000  0.000  0.496
 
band     2 # energy    7.94152032 # occ.  2.00000000
 
ion      s     py     pz     px    dxy    dyz    dz2    dxz  x2-y2    tot
    1  0.000  0.035  0.007  0.015  0.000  0.000  0.000  0.000  0.000  0.057
    2  0.000  0.288  0.061  0.122  0.000  0.000  0.000  0.000  0.000  0.471
tot    0.000  0.323  0.068  0.137  0.000  0.000  0.000  0.000  0.000  0.528
 
band     3 # energy    7.94152032 # occ.  2.00000000
 
ion      s     py     pz     px    dxy    dyz    dz2    dxz  x2-y2    tot
    1  0.000  0.003  0.031  0.023  0.000  0.000  0.000  0.000  0.000  0.057
    2  0.000  0.026  0.253  0.192  0.000  0.000  0.000  0.000  0.000  0.471
tot    0.000  0.029  0.283  0.215  0.000  0.000  0.000  0.000  0.000  0.528
 
band     4 # energy    7.94152090 # occ.  2.00000000
 
ion      s     py     pz     px    dxy    dyz    dz2    dxz  x2-y2    tot
    1  0.000  0.019  0.019  0.019  0.000  0.000  0.000  0.000  0.000  0.057
    2  0.000  0.157  0.157  0.157  0.000  0.000  0.000  0.000  0.000  0.471
tot    0.000  0.176  0.176  0.176  0.000  0.000  0.000  0.000  0.000  0.528
 
band     5 # energy   14.00215207 # occ.  0.00000000
 
ion      s     py     pz     px    dxy    dyz    dz2    dxz  x2-y2    tot
    1  0.126  0.000  0.000  0.000  0.000  0.000  0.000  0.000  0.000  0.126
    2  0.446  0.000  0.000  0.000  0.000  0.000  0.000  0.000  0.000  0.446
tot    0.572  0.000  0.000  0.000  0.000  0.000  0.000  0.000  0.000  0.572
 
band     6 # energy   15.14689591 # occ.  0.00000000
 
ion      s     py     pz     px    dxy    dyz    dz2    dxz  x2-y2    tot
    1  0.000  0.139  0.169  0.191  0.000  0.000  0.000  0.000  0.000  0.499
    2  0.000  0.003  0.003  0.004  0.000  0.000  0.000  0.000  0.000  0.010
tot    0.000  0.142  0.172  0.195  0.000  0.000  0.000  0.000  0.000  0.509
 
band     7 # energy   15.14689594 # occ.  0.00000000
 
ion      s     py     pz     px    dxy    dyz    dz2    dxz  x2-y2    tot
    1  0.000  0.019  0.313  0.167  0.000  0.000  0.000  0.000  0.000  0.499
    2  0.000  0.000  0.006  0.003  0.000  0.000  0.000  0.000  0.000  0.010
tot    0.000  0.019  0.319  0.170  0.000  0.000  0.000  0.000  0.000  0.509
 
band     8 # energy   15.14689595 # occ.  0.00000000
 
ion      s     py     pz     px    dxy    dyz    dz2    dxz  x2-y2    tot
    1  0.000  0.341  0.017  0.141  0.000  0.000  0.000  0.000  0.000  0.499
    2  0.000  0.007  0.000  0.003  0.000  0.000  0.000  0.000  0.000  0.010
tot    0.000  0.348  0.017  0.144  0.000  0.000  0.000  0.000  0.000  0.509
 

 k-point    61 :    0.00000000 0.00000000 0.00000000     weight = 0.00416667

band     1 # energy   -7.34592252 # occ.  2.00000000
 
ion      s     py     pz     px    dxy    dyz    dz2    dxz  x2-y2    tot
    1  0.244  0.000  0.000  0.000  0.000  0.000  0.000  0.000  0.000  0.244
    2  0.252  0.000  0.000  0.000  0.000  0.000  0.000  0.000  0.000  0.252
tot    0.496  0.000  0.000  0.000  0.000  0.000  0.000  0.000  0.000  0.496
 
band     2 # energy    7.94152032 # occ.  2.00000000
 
ion      s     py     pz     px    dxy    dyz    dz2    dxz  x2-y2    tot
    1  0.000  0.030  0.000  0.027  0.000  0.000  0.000  0.000  0.000  0.057
    2  0.000  0.245  0.001  0.225  0.000  0.000  0.000  0.000  0.000  0.471
tot    0.000  0.275  0.001  0.252  0.000  0.000  0.000  0.000  0.000  0.528
 
band     3 # energy    7.94152032 # occ.  2.00000000
 
ion      s     py     pz     px    dxy    dyz    dz2    dxz  x2-y2    tot
    1  0.000  0.008  0.038  0.011  0.000  0.000  0.000  0.000  0.000  0.057
    2  0.000  0.069  0.313  0.089  0.000  0.000  0.000  0.000  0.000  0.471
tot    0.000  0.077  0.351  0.100  0.000  0.000  0.000  0.000  0.000  0.528
 
band     4 # energy    7.94152090 # occ.  2.00000000
 
ion      s     py     pz     px    dxy    dyz    dz2    dxz  x2-y2    tot
    1  0.000  0.019  0.019  0.019  0.000  0.000  0.000  0.000  0.000  0.057
    2  0.000  0.157  0.157  0.157  0.000  0.000  0.000  0.000  0.000  0.471
tot    0.000  0.176  0.176  0.176  0.000  0.000  0.000  0.000  0.000  0.528
 
band     5 # energy   14.00215207 # occ.  0.00000000
 
ion      s     py     pz     px    dxy    dyz    dz2    dxz  x2-y2    tot
    1  0.126  0.000  0.000  0.000  0.000  0.000  0.000  0.000  0.000  0.126
    2  0.446  0.000  0.000  0.000  0.000  0.000  0.000  0.000  0.000  0.446
tot    0.572  0.000  0.000  0.000  0.000  0.000  0.000  0.000  0.000  0.572
 
band     6 # energy   15.14689593 # occ.  0.00000000
 
ion      s     py     pz     px    dxy    dyz    dz2    dxz  x2-y2    tot
    1  0.000  0.312  0.170  0.017  0.000  0.000  0.000  0.000  0.000  0.499
    2  0.000  0.006  0.003  0.000  0.000  0.000  0.000  0.000  0.000  0.010
tot    0.000  0.318  0.173  0.018  0.000  0.000  0.000  0.000  0.000  0.509
 
band     7 # energy   15.14689595 # occ.  0.00000000
 
ion      s     py     pz     px    dxy    dyz    dz2    dxz  x2-y2    tot
    1  0.000  0.184  0.307  0.008  0.000  0.000  0.000  0.000  0.000  0.499
    2  0.000  0.004  0.006  0.000  0.000  0.000  0.000  0.000  0.000  0.010
tot    0.000  0.188  0.313  0.008  0.000  0.000  0.000  0.000  0.000  0.509
 
band     8 # energy   15.14689605 # occ.  0.00000000
 
ion      s     py     pz     px    dxy    dyz    dz2    dxz  x2-y2    tot
    1  0.000  0.003  0.022  0.474  0.000  0.000  0.000  0.000  0.000  0.499
    2  0.000  0.000  0.000  0.009  0.000  0.000  0.000  0.000  0.000  0.010
tot    0.000  0.003  0.023  0.483  0.000  0.000  0.000  0.000  0.000  0.509
 

 k-point    62 :    0.02631579 0.02631579 0.02631579     weight = 0.00416667

band     1 # energy   -7.33252162 # occ.  2.00000000
 
ion      s     py     pz     px    dxy    dyz    dz2    dxz  x2-y2    tot
    1  0.243  0.000  0.000  0.000  0.000  0.000  0.000  0.000  0.000  0.244
    2  0.252  0.000  0.000  0.000  0.000  0.000  0.000  0.000  0.000  0.252
tot    0.496  0.000  0.000  0.000  0.000  0.000  0.000  0.000  0.000  0.496
 
band     2 # energy    7.86225366 # occ.  2.00000000
 
ion      s     py     pz     px    dxy    dyz    dz2    dxz  x2-y2    tot
    1  0.002  0.020  0.020  0.020  0.000  0.000  0.000  0.000  0.000  0.061
    2  0.004  0.154  0.154  0.154  0.000  0.000  0.000  0.000  0.000  0.466
tot    0.006  0.174  0.174  0.174  0.000  0.000  0.000  0.000  0.000  0.527
 
band     3 # energy    7.93163657 # occ.  2.00000000
 
ion      s     py     pz     px    dxy    dyz    dz2    dxz  x2-y2    tot
    1  0.000  0.030  0.000  0.028  0.000  0.000  0.000  0.000  0.000  0.058
    2  0.000  0.242  0.000  0.227  0.000  0.000  0.000  0.000  0.000  0.470
tot    0.000  0.272  0.001  0.256  0.000  0.000  0.000  0.000  0.000  0.528
 
band     4 # energy    7.93163657 # occ.  2.00000000
 
ion      s     py     pz     px    dxy    dyz    dz2    dxz  x2-y2    tot
    1  0.000  0.009  0.039  0.011  0.000  0.000  0.000  0.000  0.000  0.058
    2  0.000  0.071  0.313  0.086  0.000  0.000  0.000  0.000  0.000  0.470
tot    0.000  0.080  0.352  0.097  0.000  0.000  0.000  0.000  0.000  0.528
 
band     5 # energy   14.04240511 # occ.  0.00000000
 
ion      s     py     pz     px    dxy    dyz    dz2    dxz  x2-y2    tot
    1  0.123  0.001  0.001  0.001  0.000  0.000  0.000  0.000  0.000  0.126
    2  0.440  0.002  0.002  0.002  0.000  0.000  0.000  0.000  0.000  0.445
tot    0.563  0.003  0.003  0.003  0.000  0.000  0.000  0.000  0.000  0.571
 
band     6 # energy   15.15161886 # occ.  0.00000000
 
ion      s     py     pz     px    dxy    dyz    dz2    dxz  x2-y2    tot
    1  0.006  0.163  0.163  0.163  0.000  0.000  0.000  0.000  0.000  0.494
    2  0.001  0.005  0.005  0.005  0.000  0.000  0.000  0.000  0.000  0.015
tot    0.006  0.168  0.168  0.168  0.000  0.000  0.000  0.000  0.000  0.509
 
band     7 # energy   15.16565942 # occ.  0.00000000
 
ion      s     py     pz     px    dxy    dyz    dz2    dxz  x2-y2    tot
    1  0.000  0.138  0.162  0.198  0.000  0.000  0.000  0.000  0.000  0.498
    2  0.000  0.003  0.004  0.004  0.000  0.000  0.000  0.000  0.000  0.011
tot    0.000  0.141  0.165  0.202  0.000  0.000  0.000  0.000  0.000  0.509
 
band     8 # energy   15.16565946 # occ.  0.00000000
 
ion      s     py     pz     px    dxy    dyz    dz2    dxz  x2-y2    tot
    1  0.000  0.194  0.170  0.134  0.000  0.000  0.000  0.000  0.000  0.498
    2  0.000  0.004  0.004  0.003  0.000  0.000  0.000  0.000  0.000  0.011
tot    0.000  0.198  0.174  0.137  0.000  0.000  0.000  0.000  0.000  0.509
 

 k-point    63 :    0.05263158 0.05263158 0.05263158     weight = 0.00416667

band     1 # energy   -7.29234663 # occ.  2.00000000
 
ion      s     py     pz     px    dxy    dyz    dz2    dxz  x2-y2    tot
    1  0.242  0.000  0.000  0.000  0.000  0.000  0.000  0.000  0.000  0.244
    2  0.253  0.000  0.000  0.000  0.000  0.000  0.000  0.000  0.000  0.253
tot    0.495  0.000  0.000  0.000  0.000  0.000  0.000  0.000  0.000  0.496
 
band     2 # energy    7.63465671 # occ.  2.00000000
 
ion      s     py     pz     px    dxy    dyz    dz2    dxz  x2-y2    tot
    1  0.006  0.022  0.022  0.022  0.000  0.000  0.000  0.000  0.000  0.072
    2  0.016  0.146  0.146  0.146  0.000  0.000  0.000  0.000  0.000  0.454
tot    0.022  0.168  0.168  0.168  0.000  0.000  0.000  0.000  0.000  0.526
 
band     3 # energy    7.90259961 # occ.  2.00000000
 
ion      s     py     pz     px    dxy    dyz    dz2    dxz  x2-y2    tot
    1  0.000  0.032  0.000  0.030  0.000  0.000  0.000  0.000  0.000  0.062
    2  0.000  0.239  0.000  0.228  0.000  0.000  0.000  0.000  0.000  0.468
tot    0.000  0.270  0.000  0.259  0.000  0.000  0.000  0.000  0.000  0.529
 
band     4 # energy    7.90259961 # occ.  2.00000000
 
ion      s     py     pz     px    dxy    dyz    dz2    dxz  x2-y2    tot
    1  0.000  0.010  0.041  0.011  0.000  0.000  0.000  0.000  0.000  0.062
    2  0.000  0.073  0.311  0.083  0.000  0.000  0.000  0.000  0.000  0.468
tot    0.000  0.082  0.352  0.094  0.000  0.000  0.000  0.000  0.000  0.529
 
band     5 # energy   14.14209092 # occ.  0.00000000
 
ion      s     py     pz     px    dxy    dyz    dz2    dxz  x2-y2    tot
    1  0.114  0.006  0.006  0.006  0.000  0.000  0.000  0.000  0.000  0.133
    2  0.419  0.006  0.006  0.006  0.000  0.000  0.000  0.000  0.000  0.436
tot    0.534  0.012  0.012  0.012  0.000  0.000  0.000  0.000  0.000  0.569
 
band     6 # energy   15.17840325 # occ.  0.00000000
 
ion      s     py     pz     px    dxy    dyz    dz2    dxz  x2-y2    tot
    1  0.022  0.150  0.150  0.150  0.000  0.000  0.000  0.000  0.000  0.472
    2  0.007  0.010  0.010  0.010  0.000  0.000  0.000  0.000  0.000  0.038
tot    0.029  0.160  0.160  0.160  0.000  0.000  0.000  0.000  0.000  0.510
 
band     7 # energy   15.22009786 # occ.  0.00000000
 
ion      s     py     pz     px    dxy    dyz    dz2    dxz  x2-y2    tot
    1  0.000  0.294  0.186  0.015  0.000  0.000  0.000  0.000  0.000  0.494
    2  0.000  0.008  0.005  0.000  0.000  0.000  0.000  0.000  0.000  0.014
tot    0.000  0.302  0.191  0.015  0.000  0.000  0.000  0.000  0.000  0.509
 
band     8 # energy   15.22009787 # occ.  0.00000000
 
ion      s     py     pz     px    dxy    dyz    dz2    dxz  x2-y2    tot
    1  0.000  0.036  0.144  0.315  0.000  0.000  0.000  0.000  0.000  0.494
    2  0.000  0.001  0.004  0.009  0.000  0.000  0.000  0.000  0.000  0.014
tot    0.000  0.037  0.148  0.324  0.000  0.000  0.000  0.000  0.000  0.509
 

 k-point    64 :    0.07894737 0.07894737 0.07894737     weight = 0.00416667

band     1 # energy   -7.22546706 # occ.  2.00000000
 
ion      s     py     pz     px    dxy    dyz    dz2    dxz  x2-y2    tot
    1  0.241  0.001  0.001  0.001  0.000  0.000  0.000  0.000  0.000  0.243
    2  0.253  0.000  0.000  0.000  0.000  0.000  0.000  0.000  0.000  0.254
tot    0.494  0.001  0.001  0.001  0.000  0.000  0.000  0.000  0.000  0.497
 
band     2 # energy    7.28397804 # occ.  2.00000000
 
ion      s     py     pz     px    dxy    dyz    dz2    dxz  x2-y2    tot
    1  0.012  0.025  0.025  0.025  0.000  0.000  0.000  0.000  0.000  0.088
    2  0.031  0.135  0.135  0.135  0.000  0.000  0.000  0.000  0.000  0.436
tot    0.043  0.160  0.160  0.160  0.000  0.000  0.000  0.000  0.000  0.524
 
band     3 # energy    7.85615934 # occ.  2.00000000
 
ion      s     py     pz     px    dxy    dyz    dz2    dxz  x2-y2    tot
    1  0.000  0.034  0.000  0.034  0.000  0.000  0.000  0.000  0.000  0.067
    2  0.000  0.232  0.000  0.232  0.000  0.000  0.000  0.000  0.000  0.464
tot    0.000  0.265  0.000  0.265  0.000  0.000  0.000  0.000  0.000  0.531
 
band     4 # energy    7.85615934 # occ.  2.00000000
 
ion      s     py     pz     px    dxy    dyz    dz2    dxz  x2-y2    tot
    1  0.000  0.011  0.045  0.011  0.000  0.000  0.000  0.000  0.000  0.067
    2  0.000  0.077  0.309  0.077  0.000  0.000  0.000  0.000  0.000  0.464
tot    0.000  0.088  0.354  0.089  0.000  0.000  0.000  0.000  0.000  0.531
 
band     5 # energy   14.24386691 # occ.  0.00000000
 
ion      s     py     pz     px    dxy    dyz    dz2    dxz  x2-y2    tot
    1  0.101  0.021  0.021  0.021  0.000  0.000  0.000  0.000  0.000  0.164
    2  0.376  0.007  0.007  0.007  0.000  0.000  0.000  0.000  0.000  0.398
tot    0.478  0.028  0.028  0.028  0.000  0.000  0.000  0.000  0.000  0.562
 
band     6 # energy   15.26425321 # occ.  0.00000000
 
ion      s     py     pz     px    dxy    dyz    dz2    dxz  x2-y2    tot
    1  0.048  0.124  0.124  0.124  0.000  0.000  0.000  0.000  0.000  0.421
    2  0.030  0.022  0.022  0.022  0.000  0.000  0.000  0.000  0.000  0.096
tot    0.078  0.146  0.146  0.146  0.000  0.000  0.000  0.000  0.000  0.517
 
band     7 # energy   15.30468749 # occ.  0.00000000
 
ion      s     py     pz     px    dxy    dyz    dz2    dxz  x2-y2    tot
    1  0.000  0.038  0.250  0.202  0.000  0.000  0.000  0.000  0.000  0.489
    2  0.000  0.001  0.010  0.008  0.000  0.000  0.000  0.000  0.000  0.019
tot    0.000  0.039  0.259  0.210  0.000  0.000  0.000  0.000  0.000  0.508
 
band     8 # energy   15.30468749 # occ.  0.00000000
 
ion      s     py     pz     px    dxy    dyz    dz2    dxz  x2-y2    tot
    1  0.000  0.289  0.076  0.124  0.000  0.000  0.000  0.000  0.000  0.489
    2  0.000  0.011  0.003  0.005  0.000  0.000  0.000  0.000  0.000  0.019
tot    0.000  0.300  0.079  0.129  0.000  0.000  0.000  0.000  0.000  0.508
 

 k-point    65 :    0.10526316 0.10526316 0.10526316     weight = 0.00416667

band     1 # energy   -7.13213922 # occ.  2.00000000
 
ion      s     py     pz     px    dxy    dyz    dz2    dxz  x2-y2    tot
    1  0.239  0.001  0.001  0.001  0.000  0.000  0.000  0.000  0.000  0.243
    2  0.254  0.001  0.001  0.001  0.000  0.000  0.000  0.000  0.000  0.255
tot    0.492  0.002  0.002  0.002  0.000  0.000  0.000  0.000  0.000  0.498
 
band     2 # energy    6.83994343 # occ.  2.00000000
 
ion      s     py     pz     px    dxy    dyz    dz2    dxz  x2-y2    tot
    1  0.020  0.028  0.028  0.028  0.000  0.000  0.000  0.000  0.000  0.105
    2  0.046  0.124  0.124  0.124  0.000  0.000  0.000  0.000  0.000  0.417
tot    0.066  0.152  0.152  0.152  0.000  0.000  0.000  0.000  0.000  0.521
 
band     3 # energy    7.79494223 # occ.  2.00000000
 
ion      s     py     pz     px    dxy    dyz    dz2    dxz  x2-y2    tot
    1  0.000  0.036  0.000  0.037  0.000  0.000  0.000  0.000  0.000  0.074
    2  0.000  0.227  0.000  0.232  0.000  0.000  0.000  0.000  0.000  0.459
tot    0.000  0.263  0.000  0.270  0.000  0.000  0.000  0.000  0.000  0.533
 
band     4 # energy    7.79494223 # occ.  2.00000000
 
ion      s     py     pz     px    dxy    dyz    dz2    dxz  x2-y2    tot
    1  0.000  0.013  0.049  0.012  0.000  0.000  0.000  0.000  0.000  0.074
    2  0.000  0.079  0.306  0.074  0.000  0.000  0.000  0.000  0.000  0.459
tot    0.000  0.092  0.355  0.085  0.000  0.000  0.000  0.000  0.000  0.533
 
band     5 # energy   14.28715682 # occ.  0.00000000
 
ion      s     py     pz     px    dxy    dyz    dz2    dxz  x2-y2    tot
    1  0.093  0.041  0.041  0.041  0.000  0.000  0.000  0.000  0.000  0.217
    2  0.316  0.005  0.005  0.005  0.000  0.000  0.000  0.000  0.000  0.331
tot    0.409  0.047  0.047  0.047  0.000  0.000  0.000  0.000  0.000  0.548
 
band     6 # energy   15.41025929 # occ.  0.00000000
 
ion      s     py     pz     px    dxy    dyz    dz2    dxz  x2-y2    tot
    1  0.000  0.042  0.203  0.237  0.000  0.000  0.000  0.000  0.000  0.482
    2  0.000  0.002  0.011  0.012  0.000  0.000  0.000  0.000  0.000  0.025
tot    0.000  0.044  0.213  0.249  0.000  0.000  0.000  0.000  0.000  0.507
 
band     7 # energy   15.41025930 # occ.  0.00000000
 
ion      s     py     pz     px    dxy    dyz    dz2    dxz  x2-y2    tot
    1  0.000  0.279  0.118  0.084  0.000  0.000  0.000  0.000  0.000  0.482
    2  0.000  0.015  0.006  0.004  0.000  0.000  0.000  0.000  0.000  0.025
tot    0.000  0.294  0.124  0.089  0.000  0.000  0.000  0.000  0.000  0.507
 
band     8 # energy   15.44683492 # occ.  0.00000000
 
ion      s     py     pz     px    dxy    dyz    dz2    dxz  x2-y2    tot
    1  0.072  0.091  0.091  0.091  0.000  0.000  0.000  0.000  0.000  0.345
    2  0.069  0.038  0.038  0.038  0.000  0.000  0.000  0.000  0.000  0.184
tot    0.142  0.129  0.129  0.129  0.000  0.000  0.000  0.000  0.000  0.529
 

 k-point    66 :    0.13157895 0.13157895 0.13157895     weight = 0.00416667

band     1 # energy   -7.01258445 # occ.  2.00000000
 
ion      s     py     pz     px    dxy    dyz    dz2    dxz  x2-y2    tot
    1  0.236  0.002  0.002  0.002  0.000  0.000  0.000  0.000  0.000  0.242
    2  0.254  0.001  0.001  0.001  0.000  0.000  0.000  0.000  0.000  0.257
tot    0.490  0.003  0.003  0.003  0.000  0.000  0.000  0.000  0.000  0.499
 
band     2 # energy    6.32934063 # occ.  2.00000000
 
ion      s     py     pz     px    dxy    dyz    dz2    dxz  x2-y2    tot
    1  0.028  0.031  0.031  0.031  0.000  0.000  0.000  0.000  0.000  0.122
    2  0.059  0.112  0.112  0.112  0.000  0.000  0.000  0.000  0.000  0.397
tot    0.087  0.144  0.144  0.144  0.000  0.000  0.000  0.000  0.000  0.519
 
band     3 # energy    7.72212287 # occ.  2.00000000
 
ion      s     py     pz     px    dxy    dyz    dz2    dxz  x2-y2    tot
    1  0.000  0.041  0.000  0.041  0.000  0.000  0.000  0.000  0.000  0.082
    2  0.000  0.227  0.000  0.227  0.000  0.000  0.000  0.000  0.000  0.453
tot    0.000  0.267  0.000  0.268  0.000  0.000  0.000  0.000  0.000  0.535
 
band     4 # energy    7.72212287 # occ.  2.00000000
 
ion      s     py     pz     px    dxy    dyz    dz2    dxz  x2-y2    tot
    1  0.000  0.014  0.054  0.014  0.000  0.000  0.000  0.000  0.000  0.082
    2  0.000  0.076  0.302  0.075  0.000  0.000  0.000  0.000  0.000  0.453
tot    0.000  0.089  0.357  0.089  0.000  0.000  0.000  0.000  0.000  0.535
 
band     5 # energy   14.25882511 # occ.  0.00000000
 
ion      s     py     pz     px    dxy    dyz    dz2    dxz  x2-y2    tot
    1  0.096  0.055  0.055  0.055  0.000  0.000  0.000  0.000  0.000  0.262
    2  0.264  0.003  0.003  0.003  0.000  0.000  0.000  0.000  0.000  0.272
tot    0.360  0.058  0.058  0.058  0.000  0.000  0.000  0.000  0.000  0.534
 
band     6 # energy   15.52428334 # occ.  0.00000000
 
ion      s     py     pz     px    dxy    dyz    dz2    dxz  x2-y2    tot
    1  0.000  0.221  0.222  0.028  0.000  0.000  0.000  0.000  0.000  0.472
    2  0.000  0.015  0.015  0.002  0.000  0.000  0.000  0.000  0.000  0.032
tot    0.000  0.236  0.237  0.030  0.000  0.000  0.000  0.000  0.000  0.503
 
band     7 # energy   15.52428334 # occ.  0.00000000
 
ion      s     py     pz     px    dxy    dyz    dz2    dxz  x2-y2    tot
    1  0.000  0.093  0.092  0.286  0.000  0.000  0.000  0.000  0.000  0.472
    2  0.000  0.006  0.006  0.019  0.000  0.000  0.000  0.000  0.000  0.032
tot    0.000  0.100  0.099  0.305  0.000  0.000  0.000  0.000  0.000  0.503
 
band     8 # energy   15.71971913 # occ.  0.00000000
 
ion      s     py     pz     px    dxy    dyz    dz2    dxz  x2-y2    tot
    1  0.086  0.063  0.063  0.063  0.000  0.000  0.000  0.000  0.000  0.276
    2  0.099  0.055  0.055  0.055  0.000  0.000  0.000  0.000  0.000  0.265
tot    0.185  0.118  0.118  0.118  0.000  0.000  0.000  0.000  0.000  0.541
 

 k-point    67 :    0.15789474 0.15789474 0.15789474     weight = 0.00416667

band     1 # energy   -6.86727533 # occ.  2.00000000
 
ion      s     py     pz     px    dxy    dyz    dz2    dxz  x2-y2    tot
    1  0.232  0.003  0.003  0.003  0.000  0.000  0.000  0.000  0.000  0.242
    2  0.255  0.001  0.001  0.001  0.000  0.000  0.000  0.000  0.000  0.259
tot    0.488  0.004  0.004  0.004  0.000  0.000  0.000  0.000  0.000  0.501
 
band     2 # energy    5.77354430 # occ.  2.00000000
 
ion      s     py     pz     px    dxy    dyz    dz2    dxz  x2-y2    tot
    1  0.036  0.034  0.034  0.034  0.000  0.000  0.000  0.000  0.000  0.139
    2  0.070  0.102  0.102  0.102  0.000  0.000  0.000  0.000  0.000  0.377
tot    0.107  0.136  0.136  0.136  0.000  0.000  0.000  0.000  0.000  0.516
 
band     3 # energy    7.64107429 # occ.  2.00000000
 
ion      s     py     pz     px    dxy    dyz    dz2    dxz  x2-y2    tot
    1  0.000  0.045  0.000  0.045  0.000  0.000  0.000  0.000  0.000  0.090
    2  0.000  0.224  0.000  0.224  0.000  0.000  0.000  0.000  0.000  0.448
tot    0.000  0.269  0.000  0.269  0.000  0.000  0.000  0.000  0.000  0.538
 
band     4 # energy    7.64107429 # occ.  2.00000000
 
ion      s     py     pz     px    dxy    dyz    dz2    dxz  x2-y2    tot
    1  0.000  0.015  0.060  0.015  0.000  0.000  0.000  0.000  0.000  0.090
    2  0.000  0.075  0.299  0.075  0.000  0.000  0.000  0.000  0.000  0.448
tot    0.000  0.090  0.359  0.090  0.000  0.000  0.000  0.000  0.000  0.538
 
band     5 # energy   14.18232956 # occ.  0.00000000
 
ion      s     py     pz     px    dxy    dyz    dz2    dxz  x2-y2    tot
    1  0.109  0.060  0.060  0.060  0.000  0.000  0.000  0.000  0.000  0.289
    2  0.231  0.001  0.001  0.001  0.000  0.000  0.000  0.000  0.000  0.235
tot    0.341  0.061  0.061  0.061  0.000  0.000  0.000  0.000  0.000  0.524
 
band     6 # energy   15.63157194 # occ.  0.00000000
 
ion      s     py     pz     px    dxy    dyz    dz2    dxz  x2-y2    tot
    1  0.000  0.133  0.161  0.164  0.000  0.000  0.000  0.000  0.000  0.458
    2  0.000  0.011  0.013  0.014  0.000  0.000  0.000  0.000  0.000  0.038
tot    0.000  0.144  0.174  0.178  0.000  0.000  0.000  0.000  0.000  0.496
 
band     7 # energy   15.63157194 # occ.  0.00000000
 
ion      s     py     pz     px    dxy    dyz    dz2    dxz  x2-y2    tot
    1  0.000  0.172  0.145  0.141  0.000  0.000  0.000  0.000  0.000  0.458
    2  0.000  0.014  0.012  0.012  0.000  0.000  0.000  0.000  0.000  0.038
tot    0.000  0.186  0.157  0.153  0.000  0.000  0.000  0.000  0.000  0.496
 
band     8 # energy   16.04430001 # occ.  0.00000000
 
ion      s     py     pz     px    dxy    dyz    dz2    dxz  x2-y2    tot
    1  0.090  0.045  0.045  0.045  0.000  0.000  0.000  0.000  0.000  0.225
    2  0.110  0.071  0.071  0.071  0.000  0.000  0.000  0.000  0.000  0.322
tot    0.200  0.116  0.116  0.116  0.000  0.000  0.000  0.000  0.000  0.547
 

 k-point    68 :    0.18421053 0.18421053 0.18421053     weight = 0.00416667

band     1 # energy   -6.69667409 # occ.  2.00000000
 
ion      s     py     pz     px    dxy    dyz    dz2    dxz  x2-y2    tot
    1  0.228  0.004  0.004  0.004  0.000  0.000  0.000  0.000  0.000  0.241
    2  0.257  0.002  0.002  0.002  0.000  0.000  0.000  0.000  0.000  0.262
tot    0.485  0.006  0.006  0.006  0.000  0.000  0.000  0.000  0.000  0.502
 
band     2 # energy    5.18889012 # occ.  2.00000000
 
ion      s     py     pz     px    dxy    dyz    dz2    dxz  x2-y2    tot
    1  0.045  0.036  0.036  0.036  0.000  0.000  0.000  0.000  0.000  0.154
    2  0.079  0.093  0.093  0.093  0.000  0.000  0.000  0.000  0.000  0.358
tot    0.124  0.129  0.129  0.129  0.000  0.000  0.000  0.000  0.000  0.513
 
band     3 # energy    7.55510110 # occ.  2.00000000
 
ion      s     py     pz     px    dxy    dyz    dz2    dxz  x2-y2    tot
    1  0.000  0.049  0.000  0.049  0.000  0.000  0.000  0.000  0.000  0.099
    2  0.000  0.221  0.000  0.221  0.000  0.000  0.000  0.000  0.000  0.442
tot    0.000  0.270  0.000  0.270  0.000  0.000  0.000  0.000  0.000  0.541
 
band     4 # energy    7.55510110 # occ.  2.00000000
 
ion      s     py     pz     px    dxy    dyz    dz2    dxz  x2-y2    tot
    1  0.000  0.016  0.066  0.016  0.000  0.000  0.000  0.000  0.000  0.099
    2  0.000  0.074  0.295  0.074  0.000  0.000  0.000  0.000  0.000  0.442
tot    0.000  0.090  0.361  0.090  0.000  0.000  0.000  0.000  0.000  0.541
 
band     5 # energy   14.08089143 # occ.  0.00000000
 
ion      s     py     pz     px    dxy    dyz    dz2    dxz  x2-y2    tot
    1  0.127  0.058  0.058  0.058  0.000  0.000  0.000  0.000  0.000  0.301
    2  0.213  0.001  0.001  0.001  0.000  0.000  0.000  0.000  0.000  0.215
tot    0.340  0.059  0.059  0.059  0.000  0.000  0.000  0.000  0.000  0.516
 
band     6 # energy   15.71626104 # occ.  0.00000000
 
ion      s     py     pz     px    dxy    dyz    dz2    dxz  x2-y2    tot
    1  0.000  0.050  0.275  0.117  0.000  0.000  0.000  0.000  0.000  0.441
    2  0.000  0.005  0.027  0.011  0.000  0.000  0.000  0.000  0.000  0.043
tot    0.000  0.054  0.301  0.128  0.000  0.000  0.000  0.000  0.000  0.484
 
band     7 # energy   15.71626105 # occ.  0.00000000
 
ion      s     py     pz     px    dxy    dyz    dz2    dxz  x2-y2    tot
    1  0.000  0.244  0.019  0.177  0.000  0.000  0.000  0.000  0.000  0.441
    2  0.000  0.024  0.002  0.017  0.000  0.000  0.000  0.000  0.000  0.043
tot    0.000  0.268  0.021  0.194  0.000  0.000  0.000  0.000  0.000  0.484
 
band     8 # energy   16.38544728 # occ.  0.00000000
 
ion      s     py     pz     px    dxy    dyz    dz2    dxz  x2-y2    tot
    1  0.088  0.034  0.034  0.034  0.000  0.000  0.000  0.000  0.000  0.189
    2  0.108  0.084  0.084  0.084  0.000  0.000  0.000  0.000  0.000  0.360
tot    0.196  0.118  0.118  0.118  0.000  0.000  0.000  0.000  0.000  0.549
 

 k-point    69 :    0.21052632 0.21052632 0.21052632     weight = 0.00416667

band     1 # energy   -6.50152803 # occ.  2.00000000
 
ion      s     py     pz     px    dxy    dyz    dz2    dxz  x2-y2    tot
    1  0.223  0.005  0.005  0.005  0.000  0.000  0.000  0.000  0.000  0.239
    2  0.259  0.002  0.002  0.002  0.000  0.000  0.000  0.000  0.000  0.265
tot    0.482  0.007  0.007  0.007  0.000  0.000  0.000  0.000  0.000  0.504
 
band     2 # energy    4.58781470 # occ.  2.00000000
 
ion      s     py     pz     px    dxy    dyz    dz2    dxz  x2-y2    tot
    1  0.054  0.038  0.038  0.038  0.000  0.000  0.000  0.000  0.000  0.169
    2  0.085  0.085  0.085  0.085  0.000  0.000  0.000  0.000  0.000  0.340
tot    0.140  0.123  0.123  0.123  0.000  0.000  0.000  0.000  0.000  0.509
 
band     3 # energy    7.46725314 # occ.  2.00000000
 
ion      s     py     pz     px    dxy    dyz    dz2    dxz  x2-y2    tot
    1  0.000  0.053  0.000  0.054  0.000  0.000  0.000  0.000  0.000  0.107
    2  0.000  0.218  0.000  0.219  0.000  0.000  0.000  0.000  0.000  0.437
tot    0.000  0.272  0.000  0.272  0.000  0.000  0.000  0.000  0.000  0.544
 
band     4 # energy    7.46725314 # occ.  2.00000000
 
ion      s     py     pz     px    dxy    dyz    dz2    dxz  x2-y2    tot
    1  0.000  0.018  0.071  0.018  0.000  0.000  0.000  0.000  0.000  0.107
    2  0.000  0.073  0.291  0.073  0.000  0.000  0.000  0.000  0.000  0.437
tot    0.000  0.091  0.363  0.090  0.000  0.000  0.000  0.000  0.000  0.544
 
band     5 # energy   13.96912380 # occ.  0.00000000
 
ion      s     py     pz     px    dxy    dyz    dz2    dxz  x2-y2    tot
    1  0.145  0.053  0.053  0.053  0.000  0.000  0.000  0.000  0.000  0.305
    2  0.203  0.000  0.000  0.000  0.000  0.000  0.000  0.000  0.000  0.204
tot    0.348  0.054  0.054  0.054  0.000  0.000  0.000  0.000  0.000  0.510
 
band     6 # energy   15.76501074 # occ.  0.00000000
 
ion      s     py     pz     px    dxy    dyz    dz2    dxz  x2-y2    tot
    1  0.000  0.213  0.200  0.006  0.000  0.000  0.000  0.000  0.000  0.420
    2  0.000  0.023  0.022  0.001  0.000  0.000  0.000  0.000  0.000  0.046
tot    0.000  0.236  0.222  0.007  0.000  0.000  0.000  0.000  0.000  0.465
 
band     7 # energy   15.76501074 # occ.  0.00000000
 
ion      s     py     pz     px    dxy    dyz    dz2    dxz  x2-y2    tot
    1  0.000  0.067  0.080  0.273  0.000  0.000  0.000  0.000  0.000  0.420
    2  0.000  0.007  0.009  0.030  0.000  0.000  0.000  0.000  0.000  0.046
tot    0.000  0.074  0.088  0.303  0.000  0.000  0.000  0.000  0.000  0.465
 
band     8 # energy   16.71829015 # occ.  0.00000000
 
ion      s     py     pz     px    dxy    dyz    dz2    dxz  x2-y2    tot
    1  0.082  0.026  0.026  0.026  0.000  0.000  0.000  0.000  0.000  0.161
    2  0.098  0.095  0.095  0.095  0.000  0.000  0.000  0.000  0.000  0.384
tot    0.180  0.122  0.122  0.122  0.000  0.000  0.000  0.000  0.000  0.545
 

 k-point    70 :    0.23684211 0.23684211 0.23684211     weight = 0.00416667

band     1 # energy   -6.28279900 # occ.  2.00000000
 
ion      s     py     pz     px    dxy    dyz    dz2    dxz  x2-y2    tot
    1  0.218  0.007  0.007  0.007  0.000  0.000  0.000  0.000  0.000  0.238
    2  0.261  0.003  0.003  0.003  0.000  0.000  0.000  0.000  0.000  0.269
tot    0.479  0.009  0.009  0.009  0.000  0.000  0.000  0.000  0.000  0.507
 
band     2 # energy    3.98002927 # occ.  2.00000000
 
ion      s     py     pz     px    dxy    dyz    dz2    dxz  x2-y2    tot
    1  0.064  0.039  0.039  0.039  0.000  0.000  0.000  0.000  0.000  0.182
    2  0.090  0.078  0.078  0.078  0.000  0.000  0.000  0.000  0.000  0.324
tot    0.154  0.117  0.117  0.117  0.000  0.000  0.000  0.000  0.000  0.506
 
band     3 # energy    7.38021956 # occ.  2.00000000
 
ion      s     py     pz     px    dxy    dyz    dz2    dxz  x2-y2    tot
    1  0.000  0.056  0.000  0.059  0.000  0.000  0.000  0.000  0.000  0.115
    2  0.000  0.211  0.000  0.221  0.000  0.000  0.000  0.000  0.000  0.432
tot    0.000  0.267  0.000  0.280  0.000  0.000  0.000  0.000  0.000  0.547
 
band     4 # energy    7.38021956 # occ.  2.00000000
 
ion      s     py     pz     px    dxy    dyz    dz2    dxz  x2-y2    tot
    1  0.000  0.021  0.077  0.018  0.000  0.000  0.000  0.000  0.000  0.115
    2  0.000  0.077  0.288  0.067  0.000  0.000  0.000  0.000  0.000  0.432
tot    0.000  0.098  0.365  0.085  0.000  0.000  0.000  0.000  0.000  0.547
 
band     5 # energy   13.85579842 # occ.  0.00000000
 
ion      s     py     pz     px    dxy    dyz    dz2    dxz  x2-y2    tot
    1  0.163  0.047  0.047  0.047  0.000  0.000  0.000  0.000  0.000  0.306
    2  0.198  0.000  0.000  0.000  0.000  0.000  0.000  0.000  0.000  0.199
tot    0.362  0.048  0.048  0.048  0.000  0.000  0.000  0.000  0.000  0.505
 
band     6 # energy   15.77088490 # occ.  0.00000000
 
ion      s     py     pz     px    dxy    dyz    dz2    dxz  x2-y2    tot
    1  0.000  0.193  0.062  0.141  0.000  0.000  0.000  0.000  0.000  0.396
    2  0.000  0.023  0.007  0.017  0.000  0.000  0.000  0.000  0.000  0.047
tot    0.000  0.215  0.069  0.158  0.000  0.000  0.000  0.000  0.000  0.442
 
band     7 # energy   15.77088494 # occ.  0.00000000
 
ion      s     py     pz     px    dxy    dyz    dz2    dxz  x2-y2    tot
    1  0.000  0.071  0.202  0.123  0.000  0.000  0.000  0.000  0.000  0.396
    2  0.000  0.008  0.024  0.014  0.000  0.000  0.000  0.000  0.000  0.047
tot    0.000  0.079  0.226  0.137  0.000  0.000  0.000  0.000  0.000  0.442
 
band     8 # energy   17.02464410 # occ.  0.00000000
 
ion      s     py     pz     px    dxy    dyz    dz2    dxz  x2-y2    tot
    1  0.073  0.022  0.022  0.022  0.000  0.000  0.000  0.000  0.000  0.137
    2  0.084  0.104  0.104  0.104  0.000  0.000  0.000  0.000  0.000  0.398
tot    0.157  0.126  0.126  0.126  0.000  0.000  0.000  0.000  0.000  0.535
 

 k-point    71 :    0.26315789 0.26315789 0.26315789     weight = 0.00416667

band     1 # energy   -6.04183346 # occ.  2.00000000
 
ion      s     py     pz     px    dxy    dyz    dz2    dxz  x2-y2    tot
    1  0.212  0.008  0.008  0.008  0.000  0.000  0.000  0.000  0.000  0.236
    2  0.265  0.003  0.003  0.003  0.000  0.000  0.000  0.000  0.000  0.274
tot    0.477  0.011  0.011  0.011  0.000  0.000  0.000  0.000  0.000  0.510
 
band     2 # energy    3.37345781 # occ.  2.00000000
 
ion      s     py     pz     px    dxy    dyz    dz2    dxz  x2-y2    tot
    1  0.074  0.040  0.040  0.040  0.000  0.000  0.000  0.000  0.000  0.195
    2  0.092  0.072  0.072  0.072  0.000  0.000  0.000  0.000  0.000  0.308
tot    0.166  0.112  0.112  0.112  0.000  0.000  0.000  0.000  0.000  0.502
 
band     3 # energy    7.29628740 # occ.  2.00000000
 
ion      s     py     pz     px    dxy    dyz    dz2    dxz  x2-y2    tot
    1  0.000  0.061  0.000  0.061  0.000  0.000  0.000  0.000  0.000  0.122
    2  0.000  0.214  0.000  0.214  0.000  0.000  0.000  0.000  0.000  0.428
tot    0.000  0.275  0.000  0.275  0.000  0.000  0.000  0.000  0.000  0.550
 
band     4 # energy    7.29628740 # occ.  2.00000000
 
ion      s     py     pz     px    dxy    dyz    dz2    dxz  x2-y2    tot
    1  0.000  0.020  0.082  0.020  0.000  0.000  0.000  0.000  0.000  0.122
    2  0.000  0.071  0.285  0.071  0.000  0.000  0.000  0.000  0.000  0.428
tot    0.000  0.092  0.367  0.092  0.000  0.000  0.000  0.000  0.000  0.550
 
band     5 # energy   13.74634631 # occ.  0.00000000
 
ion      s     py     pz     px    dxy    dyz    dz2    dxz  x2-y2    tot
    1  0.181  0.041  0.041  0.041  0.000  0.000  0.000  0.000  0.000  0.304
    2  0.196  0.000  0.000  0.000  0.000  0.000  0.000  0.000  0.000  0.197
tot    0.377  0.041  0.041  0.041  0.000  0.000  0.000  0.000  0.000  0.501
 
band     6 # energy   15.73527192 # occ.  0.00000000
 
ion      s     py     pz     px    dxy    dyz    dz2    dxz  x2-y2    tot
    1  0.000  0.039  0.182  0.149  0.000  0.000  0.000  0.000  0.000  0.371
    2  0.000  0.005  0.023  0.018  0.000  0.000  0.000  0.000  0.000  0.046
tot    0.000  0.044  0.205  0.167  0.000  0.000  0.000  0.000  0.000  0.416
 
band     7 # energy   15.73527192 # occ.  0.00000000
 
ion      s     py     pz     px    dxy    dyz    dz2    dxz  x2-y2    tot
    1  0.000  0.208  0.065  0.098  0.000  0.000  0.000  0.000  0.000  0.371
    2  0.000  0.026  0.008  0.012  0.000  0.000  0.000  0.000  0.000  0.046
tot    0.000  0.233  0.073  0.110  0.000  0.000  0.000  0.000  0.000  0.416
 
band     8 # energy   17.29068018 # occ.  0.00000000
 
ion      s     py     pz     px    dxy    dyz    dz2    dxz  x2-y2    tot
    1  0.062  0.018  0.018  0.018  0.000  0.000  0.000  0.000  0.000  0.116
    2  0.069  0.111  0.111  0.111  0.000  0.000  0.000  0.000  0.000  0.402
tot    0.131  0.129  0.129  0.129  0.000  0.000  0.000  0.000  0.000  0.519
 

 k-point    72 :    0.28947368 0.28947368 0.28947368     weight = 0.00416667

band     1 # energy   -5.78037142 # occ.  2.00000000
 
ion      s     py     pz     px    dxy    dyz    dz2    dxz  x2-y2    tot
    1  0.206  0.009  0.009  0.009  0.000  0.000  0.000  0.000  0.000  0.234
    2  0.269  0.003  0.003  0.003  0.000  0.000  0.000  0.000  0.000  0.279
tot    0.474  0.013  0.013  0.013  0.000  0.000  0.000  0.000  0.000  0.513
 
band     2 # energy    2.77500096 # occ.  2.00000000
 
ion      s     py     pz     px    dxy    dyz    dz2    dxz  x2-y2    tot
    1  0.084  0.041  0.041  0.041  0.000  0.000  0.000  0.000  0.000  0.206
    2  0.092  0.067  0.067  0.067  0.000  0.000  0.000  0.000  0.000  0.293
tot    0.176  0.107  0.107  0.107  0.000  0.000  0.000  0.000  0.000  0.498
 
band     3 # energy    7.21735776 # occ.  2.00000000
 
ion      s     py     pz     px    dxy    dyz    dz2    dxz  x2-y2    tot
    1  0.000  0.064  0.000  0.065  0.000  0.000  0.000  0.000  0.000  0.129
    2  0.000  0.210  0.000  0.214  0.000  0.000  0.000  0.000  0.000  0.424
tot    0.000  0.274  0.000  0.279  0.000  0.000  0.000  0.000  0.000  0.553
 
band     4 # energy    7.21735776 # occ.  2.00000000
 
ion      s     py     pz     px    dxy    dyz    dz2    dxz  x2-y2    tot
    1  0.000  0.022  0.086  0.021  0.000  0.000  0.000  0.000  0.000  0.129
    2  0.000  0.072  0.283  0.069  0.000  0.000  0.000  0.000  0.000  0.424
tot    0.000  0.095  0.369  0.090  0.000  0.000  0.000  0.000  0.000  0.553
 
band     5 # energy   13.64428435 # occ.  0.00000000
 
ion      s     py     pz     px    dxy    dyz    dz2    dxz  x2-y2    tot
    1  0.196  0.035  0.035  0.035  0.000  0.000  0.000  0.000  0.000  0.301
    2  0.196  0.000  0.000  0.000  0.000  0.000  0.000  0.000  0.000  0.197
tot    0.392  0.035  0.035  0.035  0.000  0.000  0.000  0.000  0.000  0.498
 
band     6 # energy   15.66652359 # occ.  0.00000000
 
ion      s     py     pz     px    dxy    dyz    dz2    dxz  x2-y2    tot
    1  0.000  0.018  0.198  0.131  0.000  0.000  0.000  0.000  0.000  0.347
    2  0.000  0.002  0.025  0.016  0.000  0.000  0.000  0.000  0.000  0.044
tot    0.000  0.021  0.223  0.147  0.000  0.000  0.000  0.000  0.000  0.391
 
band     7 # energy   15.66652370 # occ.  0.00000000
 
ion      s     py     pz     px    dxy    dyz    dz2    dxz  x2-y2    tot
    1  0.000  0.213  0.033  0.101  0.000  0.000  0.000  0.000  0.000  0.347
    2  0.000  0.027  0.004  0.013  0.000  0.000  0.000  0.000  0.000  0.044
tot    0.000  0.240  0.037  0.113  0.000  0.000  0.000  0.000  0.000  0.391
 
band     8 # energy   17.50739255 # occ.  0.00000000
 
ion      s     py     pz     px    dxy    dyz    dz2    dxz  x2-y2    tot
    1  0.050  0.015  0.015  0.015  0.000  0.000  0.000  0.000  0.000  0.096
    2  0.055  0.115  0.115  0.115  0.000  0.000  0.000  0.000  0.000  0.399
tot    0.105  0.130  0.130  0.130  0.000  0.000  0.000  0.000  0.000  0.496
 

 k-point    73 :    0.31578947 0.31578947 0.31578947     weight = 0.00416667

band     1 # energy   -5.50102047 # occ.  2.00000000
 
ion      s     py     pz     px    dxy    dyz    dz2    dxz  x2-y2    tot
    1  0.198  0.011  0.011  0.011  0.000  0.000  0.000  0.000  0.000  0.231
    2  0.274  0.004  0.004  0.004  0.000  0.000  0.000  0.000  0.000  0.286
tot    0.472  0.015  0.015  0.015  0.000  0.000  0.000  0.000  0.000  0.517
 
band     2 # energy    2.19110961 # occ.  2.00000000
 
ion      s     py     pz     px    dxy    dyz    dz2    dxz  x2-y2    tot
    1  0.095  0.041  0.041  0.041  0.000  0.000  0.000  0.000  0.000  0.217
    2  0.090  0.062  0.062  0.062  0.000  0.000  0.000  0.000  0.000  0.278
tot    0.185  0.103  0.103  0.103  0.000  0.000  0.000  0.000  0.000  0.494
 
band     3 # energy    7.14495677 # occ.  2.00000000
 
ion      s     py     pz     px    dxy    dyz    dz2    dxz  x2-y2    tot
    1  0.000  0.068  0.000  0.068  0.000  0.000  0.000  0.000  0.000  0.135
    2  0.000  0.210  0.000  0.210  0.000  0.000  0.000  0.000  0.000  0.421
tot    0.000  0.278  0.000  0.278  0.000  0.000  0.000  0.000  0.000  0.556
 
band     4 # energy    7.14495677 # occ.  2.00000000
 
ion      s     py     pz     px    dxy    dyz    dz2    dxz  x2-y2    tot
    1  0.000  0.023  0.090  0.023  0.000  0.000  0.000  0.000  0.000  0.135
    2  0.000  0.070  0.281  0.070  0.000  0.000  0.000  0.000  0.000  0.421
tot    0.000  0.093  0.371  0.093  0.000  0.000  0.000  0.000  0.000  0.556
 
band     5 # energy   13.55183162 # occ.  0.00000000
 
ion      s     py     pz     px    dxy    dyz    dz2    dxz  x2-y2    tot
    1  0.210  0.029  0.029  0.029  0.000  0.000  0.000  0.000  0.000  0.298
    2  0.197  0.000  0.000  0.000  0.000  0.000  0.000  0.000  0.000  0.197
tot    0.407  0.029  0.029  0.029  0.000  0.000  0.000  0.000  0.000  0.495
 
band     6 # energy   15.57639273 # occ.  0.00000000
 
ion      s     py     pz     px    dxy    dyz    dz2    dxz  x2-y2    tot
    1  0.000  0.163  0.008  0.156  0.000  0.000  0.000  0.000  0.000  0.327
    2  0.000  0.020  0.001  0.020  0.000  0.000  0.000  0.000  0.000  0.041
tot    0.000  0.183  0.009  0.175  0.000  0.000  0.000  0.000  0.000  0.368
 
band     7 # energy   15.57639274 # occ.  0.00000000
 
ion      s     py     pz     px    dxy    dyz    dz2    dxz  x2-y2    tot
    1  0.000  0.055  0.210  0.062  0.000  0.000  0.000  0.000  0.000  0.327
    2  0.000  0.007  0.026  0.008  0.000  0.000  0.000  0.000  0.000  0.041
tot    0.000  0.062  0.236  0.070  0.000  0.000  0.000  0.000  0.000  0.368
 
band     8 # energy   17.67091582 # occ.  0.00000000
 
ion      s     py     pz     px    dxy    dyz    dz2    dxz  x2-y2    tot
    1  0.039  0.013  0.013  0.013  0.000  0.000  0.000  0.000  0.000  0.078
    2  0.042  0.116  0.116  0.116  0.000  0.000  0.000  0.000  0.000  0.390
tot    0.081  0.129  0.129  0.129  0.000  0.000  0.000  0.000  0.000  0.468
 

 k-point    74 :    0.34210526 0.34210526 0.34210526     weight = 0.00416667

band     1 # energy   -5.20756271 # occ.  2.00000000
 
ion      s     py     pz     px    dxy    dyz    dz2    dxz  x2-y2    tot
    1  0.190  0.012  0.012  0.012  0.000  0.000  0.000  0.000  0.000  0.228
    2  0.281  0.004  0.004  0.004  0.000  0.000  0.000  0.000  0.000  0.294
tot    0.472  0.017  0.017  0.017  0.000  0.000  0.000  0.000  0.000  0.521
 
band     2 # energy    1.62866620 # occ.  2.00000000
 
ion      s     py     pz     px    dxy    dyz    dz2    dxz  x2-y2    tot
    1  0.105  0.040  0.040  0.040  0.000  0.000  0.000  0.000  0.000  0.227
    2  0.086  0.059  0.059  0.059  0.000  0.000  0.000  0.000  0.000  0.263
tot    0.191  0.099  0.099  0.099  0.000  0.000  0.000  0.000  0.000  0.489
 
band     3 # energy    7.08029270 # occ.  2.00000000
 
ion      s     py     pz     px    dxy    dyz    dz2    dxz  x2-y2    tot
    1  0.000  0.070  0.000  0.070  0.000  0.000  0.000  0.000  0.000  0.140
    2  0.000  0.209  0.000  0.209  0.000  0.000  0.000  0.000  0.000  0.418
tot    0.000  0.279  0.000  0.280  0.000  0.000  0.000  0.000  0.000  0.559
 
band     4 # energy    7.08029270 # occ.  2.00000000
 
ion      s     py     pz     px    dxy    dyz    dz2    dxz  x2-y2    tot
    1  0.000  0.023  0.094  0.023  0.000  0.000  0.000  0.000  0.000  0.140
    2  0.000  0.070  0.279  0.070  0.000  0.000  0.000  0.000  0.000  0.418
tot    0.000  0.093  0.372  0.093  0.000  0.000  0.000  0.000  0.000  0.559
 
band     5 # energy   13.47042898 # occ.  0.00000000
 
ion      s     py     pz     px    dxy    dyz    dz2    dxz  x2-y2    tot
    1  0.223  0.024  0.024  0.024  0.000  0.000  0.000  0.000  0.000  0.295
    2  0.198  0.000  0.000  0.000  0.000  0.000  0.000  0.000  0.000  0.199
tot    0.421  0.024  0.024  0.024  0.000  0.000  0.000  0.000  0.000  0.494
 
band     6 # energy   15.47677836 # occ.  0.00000000
 
ion      s     py     pz     px    dxy    dyz    dz2    dxz  x2-y2    tot
    1  0.000  0.106  0.191  0.013  0.000  0.000  0.000  0.000  0.000  0.310
    2  0.000  0.013  0.023  0.002  0.000  0.000  0.000  0.000  0.000  0.038
tot    0.000  0.119  0.214  0.015  0.000  0.000  0.000  0.000  0.000  0.348
 
band     7 # energy   15.47677836 # occ.  0.00000000
 
ion      s     py     pz     px    dxy    dyz    dz2    dxz  x2-y2    tot
    1  0.000  0.101  0.016  0.193  0.000  0.000  0.000  0.000  0.000  0.310
    2  0.000  0.012  0.002  0.024  0.000  0.000  0.000  0.000  0.000  0.038
tot    0.000  0.113  0.018  0.217  0.000  0.000  0.000  0.000  0.000  0.348
 
band     8 # energy   17.78402141 # occ.  0.00000000
 
ion      s     py     pz     px    dxy    dyz    dz2    dxz  x2-y2    tot
    1  0.029  0.011  0.011  0.011  0.000  0.000  0.000  0.000  0.000  0.062
    2  0.032  0.115  0.115  0.115  0.000  0.000  0.000  0.000  0.000  0.377
tot    0.061  0.126  0.126  0.126  0.000  0.000  0.000  0.000  0.000  0.439
 

 k-point    75 :    0.36842105 0.36842105 0.36842105     weight = 0.00416667

band     1 # energy   -4.90581081 # occ.  2.00000000
 
ion      s     py     pz     px    dxy    dyz    dz2    dxz  x2-y2    tot
    1  0.182  0.014  0.014  0.014  0.000  0.000  0.000  0.000  0.000  0.224
    2  0.290  0.004  0.004  0.004  0.000  0.000  0.000  0.000  0.000  0.303
tot    0.472  0.018  0.018  0.018  0.000  0.000  0.000  0.000  0.000  0.527
 
band     2 # energy    1.09576549 # occ.  2.00000000
 
ion      s     py     pz     px    dxy    dyz    dz2    dxz  x2-y2    tot
    1  0.116  0.040  0.040  0.040  0.000  0.000  0.000  0.000  0.000  0.237
    2  0.079  0.056  0.056  0.056  0.000  0.000  0.000  0.000  0.000  0.247
tot    0.195  0.096  0.096  0.096  0.000  0.000  0.000  0.000  0.000  0.484
 
band     3 # energy    7.02429709 # occ.  2.00000000
 
ion      s     py     pz     px    dxy    dyz    dz2    dxz  x2-y2    tot
    1  0.000  0.072  0.000  0.072  0.000  0.000  0.000  0.000  0.000  0.145
    2  0.000  0.208  0.000  0.208  0.000  0.000  0.000  0.000  0.000  0.416
tot    0.000  0.280  0.000  0.281  0.000  0.000  0.000  0.000  0.000  0.561
 
band     4 # energy    7.02429709 # occ.  2.00000000
 
ion      s     py     pz     px    dxy    dyz    dz2    dxz  x2-y2    tot
    1  0.000  0.024  0.097  0.024  0.000  0.000  0.000  0.000  0.000  0.145
    2  0.000  0.069  0.277  0.069  0.000  0.000  0.000  0.000  0.000  0.416
tot    0.000  0.094  0.374  0.093  0.000  0.000  0.000  0.000  0.000  0.561
 
band     5 # energy   13.40090337 # occ.  0.00000000
 
ion      s     py     pz     px    dxy    dyz    dz2    dxz  x2-y2    tot
    1  0.233  0.020  0.020  0.020  0.000  0.000  0.000  0.000  0.000  0.292
    2  0.200  0.000  0.000  0.000  0.000  0.000  0.000  0.000  0.000  0.200
tot    0.433  0.020  0.020  0.020  0.000  0.000  0.000  0.000  0.000  0.492
 
band     6 # energy   15.37787677 # occ.  0.00000000
 
ion      s     py     pz     px    dxy    dyz    dz2    dxz  x2-y2    tot
    1  0.000  0.049  0.058  0.190  0.000  0.000  0.000  0.000  0.000  0.297
    2  0.000  0.006  0.007  0.023  0.000  0.000  0.000  0.000  0.000  0.035
tot    0.000  0.055  0.065  0.213  0.000  0.000  0.000  0.000  0.000  0.332
 
band     7 # energy   15.37787677 # occ.  0.00000000
 
ion      s     py     pz     px    dxy    dyz    dz2    dxz  x2-y2    tot
    1  0.000  0.149  0.140  0.008  0.000  0.000  0.000  0.000  0.000  0.297
    2  0.000  0.018  0.017  0.001  0.000  0.000  0.000  0.000  0.000  0.035
tot    0.000  0.167  0.157  0.009  0.000  0.000  0.000  0.000  0.000  0.332
 
band     8 # energy   17.85404089 # occ.  0.00000000
 
ion      s     py     pz     px    dxy    dyz    dz2    dxz  x2-y2    tot
    1  0.021  0.010  0.010  0.010  0.000  0.000  0.000  0.000  0.000  0.049
    2  0.025  0.112  0.112  0.112  0.000  0.000  0.000  0.000  0.000  0.361
tot    0.046  0.122  0.122  0.122  0.000  0.000  0.000  0.000  0.000  0.411
 

 k-point    76 :    0.39473684 0.39473684 0.39473684     weight = 0.00416667

band     1 # energy   -4.60473337 # occ.  2.00000000
 
ion      s     py     pz     px    dxy    dyz    dz2    dxz  x2-y2    tot
    1  0.173  0.015  0.015  0.015  0.000  0.000  0.000  0.000  0.000  0.219
    2  0.302  0.004  0.004  0.004  0.000  0.000  0.000  0.000  0.000  0.314
tot    0.475  0.019  0.019  0.019  0.000  0.000  0.000  0.000  0.000  0.533
 
band     2 # energy    0.60337740 # occ.  2.00000000
 
ion      s     py     pz     px    dxy    dyz    dz2    dxz  x2-y2    tot
    1  0.128  0.040  0.040  0.040  0.000  0.000  0.000  0.000  0.000  0.246
    2  0.069  0.054  0.054  0.054  0.000  0.000  0.000  0.000  0.000  0.231
tot    0.196  0.094  0.094  0.094  0.000  0.000  0.000  0.000  0.000  0.477
 
band     3 # energy    6.97767875 # occ.  2.00000000
 
ion      s     py     pz     px    dxy    dyz    dz2    dxz  x2-y2    tot
    1  0.000  0.074  0.000  0.074  0.000  0.000  0.000  0.000  0.000  0.148
    2  0.000  0.208  0.000  0.207  0.000  0.000  0.000  0.000  0.000  0.414
tot    0.000  0.282  0.000  0.281  0.000  0.000  0.000  0.000  0.000  0.563
 
band     4 # energy    6.97767875 # occ.  2.00000000
 
ion      s     py     pz     px    dxy    dyz    dz2    dxz  x2-y2    tot
    1  0.000  0.025  0.099  0.025  0.000  0.000  0.000  0.000  0.000  0.148
    2  0.000  0.069  0.276  0.069  0.000  0.000  0.000  0.000  0.000  0.414
tot    0.000  0.093  0.375  0.094  0.000  0.000  0.000  0.000  0.000  0.563
 
band     5 # energy   13.34376369 # occ.  0.00000000
 
ion      s     py     pz     px    dxy    dyz    dz2    dxz  x2-y2    tot
    1  0.242  0.016  0.016  0.016  0.000  0.000  0.000  0.000  0.000  0.290
    2  0.201  0.000  0.000  0.000  0.000  0.000  0.000  0.000  0.000  0.201
tot    0.443  0.016  0.016  0.016  0.000  0.000  0.000  0.000  0.000  0.491
 
band     6 # energy   15.28773046 # occ.  0.00000000
 
ion      s     py     pz     px    dxy    dyz    dz2    dxz  x2-y2    tot
    1  0.000  0.136  0.059  0.092  0.000  0.000  0.000  0.000  0.000  0.287
    2  0.000  0.016  0.007  0.011  0.000  0.000  0.000  0.000  0.000  0.033
tot    0.000  0.152  0.065  0.102  0.000  0.000  0.000  0.000  0.000  0.320
 
band     7 # energy   15.28773046 # occ.  0.00000000
 
ion      s     py     pz     px    dxy    dyz    dz2    dxz  x2-y2    tot
    1  0.000  0.055  0.132  0.099  0.000  0.000  0.000  0.000  0.000  0.287
    2  0.000  0.006  0.015  0.011  0.000  0.000  0.000  0.000  0.000  0.033
tot    0.000  0.061  0.148  0.111  0.000  0.000  0.000  0.000  0.000  0.320
 
band     8 # energy   17.89211961 # occ.  0.00000000
 
ion      s     py     pz     px    dxy    dyz    dz2    dxz  x2-y2    tot
    1  0.014  0.008  0.008  0.008  0.000  0.000  0.000  0.000  0.000  0.039
    2  0.020  0.109  0.109  0.109  0.000  0.000  0.000  0.000  0.000  0.347
tot    0.035  0.117  0.117  0.117  0.000  0.000  0.000  0.000  0.000  0.386
 

 k-point    77 :    0.42105263 0.42105263 0.42105263     weight = 0.00416667

band     1 # energy   -4.31908587 # occ.  2.00000000
 
ion      s     py     pz     px    dxy    dyz    dz2    dxz  x2-y2    tot
    1  0.164  0.016  0.016  0.016  0.000  0.000  0.000  0.000  0.000  0.213
    2  0.317  0.003  0.003  0.003  0.000  0.000  0.000  0.000  0.000  0.328
tot    0.481  0.020  0.020  0.020  0.000  0.000  0.000  0.000  0.000  0.540
 
band     2 # energy    0.16756573 # occ.  2.00000000
 
ion      s     py     pz     px    dxy    dyz    dz2    dxz  x2-y2    tot
    1  0.139  0.039  0.039  0.039  0.000  0.000  0.000  0.000  0.000  0.256
    2  0.055  0.053  0.053  0.053  0.000  0.000  0.000  0.000  0.000  0.214
tot    0.194  0.092  0.092  0.092  0.000  0.000  0.000  0.000  0.000  0.470
 
band     3 # energy    6.94095210 # occ.  2.00000000
 
ion      s     py     pz     px    dxy    dyz    dz2    dxz  x2-y2    tot
    1  0.000  0.076  0.000  0.076  0.000  0.000  0.000  0.000  0.000  0.151
    2  0.000  0.206  0.000  0.207  0.000  0.000  0.000  0.000  0.000  0.413
tot    0.000  0.282  0.000  0.282  0.000  0.000  0.000  0.000  0.000  0.564
 
band     4 # energy    6.94095210 # occ.  2.00000000
 
ion      s     py     pz     px    dxy    dyz    dz2    dxz  x2-y2    tot
    1  0.000  0.025  0.101  0.025  0.000  0.000  0.000  0.000  0.000  0.151
    2  0.000  0.069  0.275  0.069  0.000  0.000  0.000  0.000  0.000  0.413
tot    0.000  0.094  0.376  0.094  0.000  0.000  0.000  0.000  0.000  0.564
 
band     5 # energy   13.29924362 # occ.  0.00000000
 
ion      s     py     pz     px    dxy    dyz    dz2    dxz  x2-y2    tot
    1  0.248  0.013  0.013  0.013  0.000  0.000  0.000  0.000  0.000  0.288
    2  0.202  0.000  0.000  0.000  0.000  0.000  0.000  0.000  0.000  0.203
tot    0.451  0.013  0.013  0.013  0.000  0.000  0.000  0.000  0.000  0.491
 
band     6 # energy   15.21226559 # occ.  0.00000000
 
ion      s     py     pz     px    dxy    dyz    dz2    dxz  x2-y2    tot
    1  0.000  0.113  0.007  0.159  0.000  0.000  0.000  0.000  0.000  0.279
    2  0.000  0.013  0.001  0.018  0.000  0.000  0.000  0.000  0.000  0.031
tot    0.000  0.126  0.008  0.177  0.000  0.000  0.000  0.000  0.000  0.311
 
band     7 # energy   15.21226559 # occ.  0.00000000
 
ion      s     py     pz     px    dxy    dyz    dz2    dxz  x2-y2    tot
    1  0.000  0.073  0.179  0.027  0.000  0.000  0.000  0.000  0.000  0.279
    2  0.000  0.008  0.020  0.003  0.000  0.000  0.000  0.000  0.000  0.031
tot    0.000  0.081  0.200  0.030  0.000  0.000  0.000  0.000  0.000  0.311
 
band     8 # energy   17.90898847 # occ.  0.00000000
 
ion      s     py     pz     px    dxy    dyz    dz2    dxz  x2-y2    tot
    1  0.010  0.007  0.007  0.007  0.000  0.000  0.000  0.000  0.000  0.031
    2  0.017  0.106  0.106  0.106  0.000  0.000  0.000  0.000  0.000  0.335
tot    0.027  0.113  0.113  0.113  0.000  0.000  0.000  0.000  0.000  0.366
 

 k-point    78 :    0.44736842 0.44736842 0.44736842     weight = 0.00416667

band     1 # energy   -4.07225786 # occ.  2.00000000
 
ion      s     py     pz     px    dxy    dyz    dz2    dxz  x2-y2    tot
    1  0.154  0.017  0.017  0.017  0.000  0.000  0.000  0.000  0.000  0.206
    2  0.334  0.003  0.003  0.003  0.000  0.000  0.000  0.000  0.000  0.342
tot    0.489  0.020  0.020  0.020  0.000  0.000  0.000  0.000  0.000  0.548
 
band     2 # energy   -0.18721332 # occ.  2.00000000
 
ion      s     py     pz     px    dxy    dyz    dz2    dxz  x2-y2    tot
    1  0.149  0.039  0.039  0.039  0.000  0.000  0.000  0.000  0.000  0.265
    2  0.039  0.053  0.053  0.053  0.000  0.000  0.000  0.000  0.000  0.197
tot    0.188  0.091  0.091  0.091  0.000  0.000  0.000  0.000  0.000  0.462
 
band     3 # energy    6.91448431 # occ.  2.00000000
 
ion      s     py     pz     px    dxy    dyz    dz2    dxz  x2-y2    tot
    1  0.000  0.076  0.000  0.077  0.000  0.000  0.000  0.000  0.000  0.153
    2  0.000  0.206  0.000  0.207  0.000  0.000  0.000  0.000  0.000  0.412
tot    0.000  0.282  0.000  0.284  0.000  0.000  0.000  0.000  0.000  0.566
 
band     4 # energy    6.91448431 # occ.  2.00000000
 
ion      s     py     pz     px    dxy    dyz    dz2    dxz  x2-y2    tot
    1  0.000  0.026  0.102  0.025  0.000  0.000  0.000  0.000  0.000  0.153
    2  0.000  0.069  0.275  0.068  0.000  0.000  0.000  0.000  0.000  0.412
tot    0.000  0.095  0.377  0.093  0.000  0.000  0.000  0.000  0.000  0.566
 
band     5 # energy   13.26744354 # occ.  0.00000000
 
ion      s     py     pz     px    dxy    dyz    dz2    dxz  x2-y2    tot
    1  0.253  0.011  0.011  0.011  0.000  0.000  0.000  0.000  0.000  0.287
    2  0.203  0.000  0.000  0.000  0.000  0.000  0.000  0.000  0.000  0.204
tot    0.456  0.011  0.011  0.011  0.000  0.000  0.000  0.000  0.000  0.490
 
band     6 # energy   15.15566239 # occ.  0.00000000
 
ion      s     py     pz     px    dxy    dyz    dz2    dxz  x2-y2    tot
    1  0.000  0.165  0.079  0.030  0.000  0.000  0.000  0.000  0.000  0.274
    2  0.000  0.018  0.009  0.003  0.000  0.000  0.000  0.000  0.000  0.030
tot    0.000  0.183  0.088  0.034  0.000  0.000  0.000  0.000  0.000  0.304
 
band     7 # energy   15.15566239 # occ.  0.00000000
 
ion      s     py     pz     px    dxy    dyz    dz2    dxz  x2-y2    tot
    1  0.000  0.018  0.104  0.153  0.000  0.000  0.000  0.000  0.000  0.274
    2  0.000  0.002  0.011  0.017  0.000  0.000  0.000  0.000  0.000  0.030
tot    0.000  0.020  0.115  0.169  0.000  0.000  0.000  0.000  0.000  0.304
 
band     8 # energy   17.91401324 # occ.  0.00000000
 
ion      s     py     pz     px    dxy    dyz    dz2    dxz  x2-y2    tot
    1  0.007  0.006  0.006  0.006  0.000  0.000  0.000  0.000  0.000  0.026
    2  0.016  0.103  0.103  0.103  0.000  0.000  0.000  0.000  0.000  0.326
tot    0.023  0.110  0.110  0.110  0.000  0.000  0.000  0.000  0.000  0.351
 

 k-point    79 :    0.47368421 0.47368421 0.47368421     weight = 0.00416667

band     1 # energy   -3.89833132 # occ.  2.00000000
 
ion      s     py     pz     px    dxy    dyz    dz2    dxz  x2-y2    tot
    1  0.147  0.018  0.018  0.018  0.000  0.000  0.000  0.000  0.000  0.200
    2  0.350  0.002  0.002  0.002  0.000  0.000  0.000  0.000  0.000  0.354
tot    0.497  0.019  0.019  0.019  0.000  0.000  0.000  0.000  0.000  0.554
 
band     2 # energy   -0.42618552 # occ.  2.00000000
 
ion      s     py     pz     px    dxy    dyz    dz2    dxz  x2-y2    tot
    1  0.157  0.038  0.038  0.038  0.000  0.000  0.000  0.000  0.000  0.272
    2  0.024  0.053  0.053  0.053  0.000  0.000  0.000  0.000  0.000  0.183
tot    0.181  0.092  0.092  0.092  0.000  0.000  0.000  0.000  0.000  0.455
 
band     3 # energy    6.89851420 # occ.  2.00000000
 
ion      s     py     pz     px    dxy    dyz    dz2    dxz  x2-y2    tot
    1  0.000  0.078  0.001  0.075  0.000  0.000  0.000  0.000  0.000  0.154
    2  0.000  0.209  0.001  0.201  0.000  0.000  0.000  0.000  0.000  0.412
tot    0.000  0.287  0.002  0.277  0.000  0.000  0.000  0.000  0.000  0.566
 
band     4 # energy    6.89851420 # occ.  2.00000000
 
ion      s     py     pz     px    dxy    dyz    dz2    dxz  x2-y2    tot
    1  0.000  0.025  0.102  0.027  0.000  0.000  0.000  0.000  0.000  0.154
    2  0.000  0.066  0.273  0.073  0.000  0.000  0.000  0.000  0.000  0.412
tot    0.000  0.090  0.375  0.101  0.000  0.000  0.000  0.000  0.000  0.566
 
band     5 # energy   13.24837144 # occ.  0.00000000
 
ion      s     py     pz     px    dxy    dyz    dz2    dxz  x2-y2    tot
    1  0.256  0.010  0.010  0.010  0.000  0.000  0.000  0.000  0.000  0.286
    2  0.204  0.000  0.000  0.000  0.000  0.000  0.000  0.000  0.000  0.204
tot    0.460  0.010  0.010  0.010  0.000  0.000  0.000  0.000  0.000  0.490
 
band     6 # energy   15.12066976 # occ.  0.00000000
 
ion      s     py     pz     px    dxy    dyz    dz2    dxz  x2-y2    tot
    1  0.000  0.064  0.135  0.072  0.000  0.000  0.000  0.000  0.000  0.271
    2  0.000  0.007  0.015  0.008  0.000  0.000  0.000  0.000  0.000  0.029
tot    0.000  0.071  0.150  0.080  0.000  0.000  0.000  0.000  0.000  0.301
 
band     7 # energy   15.12066981 # occ.  0.00000000
 
ion      s     py     pz     px    dxy    dyz    dz2    dxz  x2-y2    tot
    1  0.000  0.117  0.046  0.109  0.000  0.000  0.000  0.000  0.000  0.271
    2  0.000  0.013  0.005  0.012  0.000  0.000  0.000  0.000  0.000  0.029
tot    0.000  0.130  0.051  0.120  0.000  0.000  0.000  0.000  0.000  0.300
 
band     8 # energy   17.91423738 # occ.  0.00000000
 
ion      s     py     pz     px    dxy    dyz    dz2    dxz  x2-y2    tot
    1  0.005  0.006  0.006  0.006  0.000  0.000  0.000  0.000  0.000  0.023
    2  0.015  0.102  0.102  0.102  0.000  0.000  0.000  0.000  0.000  0.320
tot    0.020  0.108  0.108  0.108  0.000  0.000  0.000  0.000  0.000  0.343
 

 k-point    80 :    0.50000000 0.50000000 0.50000000     weight = 0.00416667

band     1 # energy   -3.83448245 # occ.  2.00000000
 
ion      s     py     pz     px    dxy    dyz    dz2    dxz  x2-y2    tot
    1  0.144  0.018  0.018  0.018  0.000  0.000  0.000  0.000  0.000  0.198
    2  0.356  0.001  0.001  0.001  0.000  0.000  0.000  0.000  0.000  0.359
tot    0.501  0.019  0.019  0.019  0.000  0.000  0.000  0.000  0.000  0.557
 
band     2 # energy   -0.51174913 # occ.  2.00000000
 
ion      s     py     pz     px    dxy    dyz    dz2    dxz  x2-y2    tot
    1  0.160  0.038  0.038  0.038  0.000  0.000  0.000  0.000  0.000  0.275
    2  0.017  0.053  0.053  0.053  0.000  0.000  0.000  0.000  0.000  0.178
tot    0.177  0.092  0.092  0.092  0.000  0.000  0.000  0.000  0.000  0.453
 
band     3 # energy    6.89317922 # occ.  2.00000000
 
ion      s     py     pz     px    dxy    dyz    dz2    dxz  x2-y2    tot
    1  0.000  0.077  0.000  0.077  0.000  0.000  0.000  0.000  0.000  0.155
    2  0.000  0.206  0.000  0.206  0.000  0.000  0.000  0.000  0.000  0.412
tot    0.000  0.283  0.000  0.283  0.000  0.000  0.000  0.000  0.000  0.566
 
band     4 # energy    6.89317922 # occ.  2.00000000
 
ion      s     py     pz     px    dxy    dyz    dz2    dxz  x2-y2    tot
    1  0.000  0.026  0.103  0.026  0.000  0.000  0.000  0.000  0.000  0.155
    2  0.000  0.069  0.274  0.069  0.000  0.000  0.000  0.000  0.000  0.412
tot    0.000  0.094  0.378  0.095  0.000  0.000  0.000  0.000  0.000  0.566
 
band     5 # energy   13.24201722 # occ.  0.00000000
 
ion      s     py     pz     px    dxy    dyz    dz2    dxz  x2-y2    tot
    1  0.257  0.009  0.009  0.009  0.000  0.000  0.000  0.000  0.000  0.286
    2  0.204  0.000  0.000  0.000  0.000  0.000  0.000  0.000  0.000  0.204
tot    0.461  0.010  0.010  0.010  0.000  0.000  0.000  0.000  0.000  0.490
 
band     6 # energy   15.10884409 # occ.  0.00000000
 
ion      s     py     pz     px    dxy    dyz    dz2    dxz  x2-y2    tot
    1  0.000  0.175  0.064  0.031  0.000  0.000  0.000  0.000  0.000  0.270
    2  0.000  0.019  0.007  0.003  0.000  0.000  0.000  0.000  0.000  0.029
tot    0.000  0.194  0.071  0.035  0.000  0.000  0.000  0.000  0.000  0.299
 
band     7 # energy   15.10884409 # occ.  0.00000000
 
ion      s     py     pz     px    dxy    dyz    dz2    dxz  x2-y2    tot
    1  0.000  0.005  0.116  0.149  0.000  0.000  0.000  0.000  0.000  0.270
    2  0.000  0.001  0.012  0.016  0.000  0.000  0.000  0.000  0.000  0.029
tot    0.000  0.006  0.129  0.165  0.000  0.000  0.000  0.000  0.000  0.299
 
band     8 # energy   17.91386176 # occ.  0.00000000
 
ion      s     py     pz     px    dxy    dyz    dz2    dxz  x2-y2    tot
    1  0.005  0.006  0.006  0.006  0.000  0.000  0.000  0.000  0.000  0.022
    2  0.014  0.101  0.101  0.101  0.000  0.000  0.000  0.000  0.000  0.318
tot    0.019  0.107  0.107  0.107  0.000  0.000  0.000  0.000  0.000  0.340
 

 k-point    81 :    0.50000000 0.50000000 0.50000000     weight = 0.00416667

band     1 # energy   -3.83448245 # occ.  2.00000000
 
ion      s     py     pz     px    dxy    dyz    dz2    dxz  x2-y2    tot
    1  0.144  0.018  0.018  0.018  0.000  0.000  0.000  0.000  0.000  0.198
    2  0.356  0.001  0.001  0.001  0.000  0.000  0.000  0.000  0.000  0.359
tot    0.501  0.019  0.019  0.019  0.000  0.000  0.000  0.000  0.000  0.557
 
band     2 # energy   -0.51174913 # occ.  2.00000000
 
ion      s     py     pz     px    dxy    dyz    dz2    dxz  x2-y2    tot
    1  0.160  0.038  0.038  0.038  0.000  0.000  0.000  0.000  0.000  0.275
    2  0.017  0.053  0.053  0.053  0.000  0.000  0.000  0.000  0.000  0.178
tot    0.177  0.092  0.092  0.092  0.000  0.000  0.000  0.000  0.000  0.453
 
band     3 # energy    6.89317922 # occ.  2.00000000
 
ion      s     py     pz     px    dxy    dyz    dz2    dxz  x2-y2    tot
    1  0.000  0.079  0.000  0.076  0.000  0.000  0.000  0.000  0.000  0.155
    2  0.000  0.210  0.000  0.202  0.000  0.000  0.000  0.000  0.000  0.412
tot    0.000  0.289  0.000  0.278  0.000  0.000  0.000  0.000  0.000  0.566
 
band     4 # energy    6.89317922 # occ.  2.00000000
 
ion      s     py     pz     px    dxy    dyz    dz2    dxz  x2-y2    tot
    1  0.000  0.024  0.103  0.027  0.000  0.000  0.000  0.000  0.000  0.155
    2  0.000  0.065  0.274  0.073  0.000  0.000  0.000  0.000  0.000  0.412
tot    0.000  0.089  0.378  0.100  0.000  0.000  0.000  0.000  0.000  0.566
 
band     5 # energy   13.24201722 # occ.  0.00000000
 
ion      s     py     pz     px    dxy    dyz    dz2    dxz  x2-y2    tot
    1  0.257  0.009  0.009  0.009  0.000  0.000  0.000  0.000  0.000  0.286
    2  0.204  0.000  0.000  0.000  0.000  0.000  0.000  0.000  0.000  0.204
tot    0.461  0.010  0.010  0.010  0.000  0.000  0.000  0.000  0.000  0.490
 
band     6 # energy   15.10884409 # occ.  0.00000000
 
ion      s     py     pz     px    dxy    dyz    dz2    dxz  x2-y2    tot
    1  0.000  0.144  0.030  0.096  0.000  0.000  0.000  0.000  0.000  0.270
    2  0.000  0.015  0.003  0.010  0.000  0.000  0.000  0.000  0.000  0.029
tot    0.000  0.160  0.033  0.106  0.000  0.000  0.000  0.000  0.000  0.299
 
band     7 # energy   15.10884410 # occ.  0.00000000
 
ion      s     py     pz     px    dxy    dyz    dz2    dxz  x2-y2    tot
    1  0.000  0.036  0.150  0.084  0.000  0.000  0.000  0.000  0.000  0.270
    2  0.000  0.004  0.016  0.009  0.000  0.000  0.000  0.000  0.000  0.029
tot    0.000  0.040  0.166  0.093  0.000  0.000  0.000  0.000  0.000  0.299
 
band     8 # energy   17.91386212 # occ.  0.00000000
 
ion      s     py     pz     px    dxy    dyz    dz2    dxz  x2-y2    tot
    1  0.005  0.006  0.006  0.006  0.000  0.000  0.000  0.000  0.000  0.022
    2  0.014  0.101  0.101  0.101  0.000  0.000  0.000  0.000  0.000  0.318
tot    0.019  0.107  0.107  0.107  0.000  0.000  0.000  0.000  0.000  0.340
 

 k-point    82 :    0.50000000 0.48684211 0.51315789     weight = 0.00416667

band     1 # energy   -3.82698175 # occ.  2.00000000
 
ion      s     py     pz     px    dxy    dyz    dz2    dxz  x2-y2    tot
    1  0.144  0.018  0.018  0.018  0.000  0.000  0.000  0.000  0.000  0.198
    2  0.356  0.001  0.001  0.001  0.000  0.000  0.000  0.000  0.000  0.360
tot    0.501  0.019  0.019  0.019  0.000  0.000  0.000  0.000  0.000  0.557
 
band     2 # energy   -0.50360008 # occ.  2.00000000
 
ion      s     py     pz     px    dxy    dyz    dz2    dxz  x2-y2    tot
    1  0.160  0.038  0.038  0.038  0.000  0.000  0.000  0.000  0.000  0.275
    2  0.017  0.054  0.054  0.053  0.000  0.000  0.000  0.000  0.000  0.178
tot    0.177  0.092  0.092  0.092  0.000  0.000  0.000  0.000  0.000  0.453
 
band     3 # energy    6.84450154 # occ.  2.00000000
 
ion      s     py     pz     px    dxy    dyz    dz2    dxz  x2-y2    tot
    1  0.002  0.077  0.077  0.001  0.000  0.000  0.000  0.000  0.000  0.157
    2  0.002  0.203  0.203  0.000  0.000  0.000  0.000  0.000  0.000  0.409
tot    0.004  0.280  0.280  0.001  0.000  0.000  0.000  0.000  0.000  0.565
 
band     4 # energy    6.88051092 # occ.  2.00000000
 
ion      s     py     pz     px    dxy    dyz    dz2    dxz  x2-y2    tot
    1  0.000  0.026  0.026  0.103  0.000  0.000  0.000  0.000  0.000  0.155
    2  0.000  0.069  0.069  0.273  0.000  0.000  0.000  0.000  0.000  0.411
tot    0.000  0.095  0.095  0.376  0.000  0.000  0.000  0.000  0.000  0.566
 
band     5 # energy   13.27551378 # occ.  0.00000000
 
ion      s     py     pz     px    dxy    dyz    dz2    dxz  x2-y2    tot
    1  0.255  0.010  0.010  0.008  0.000  0.000  0.000  0.000  0.000  0.283
    2  0.200  0.003  0.003  0.000  0.000  0.000  0.000  0.000  0.000  0.205
tot    0.455  0.013  0.013  0.008  0.000  0.000  0.000  0.000  0.000  0.489
 
band     6 # energy   15.06173203 # occ.  0.00000000
 
ion      s     py     pz     px    dxy    dyz    dz2    dxz  x2-y2    tot
    1  0.000  0.131  0.131  0.001  0.000  0.000  0.000  0.000  0.000  0.264
    2  0.003  0.014  0.014  0.003  0.000  0.000  0.000  0.000  0.000  0.034
tot    0.003  0.145  0.145  0.004  0.000  0.000  0.000  0.000  0.000  0.297
 
band     7 # energy   15.13793079 # occ.  0.00000000
 
ion      s     py     pz     px    dxy    dyz    dz2    dxz  x2-y2    tot
    1  0.000  0.045  0.045  0.180  0.000  0.000  0.000  0.000  0.000  0.270
    2  0.000  0.005  0.005  0.020  0.000  0.000  0.000  0.000  0.000  0.030
tot    0.000  0.050  0.050  0.200  0.000  0.000  0.000  0.000  0.000  0.300
 
band     8 # energy   17.96988202 # occ.  0.00000000
 
ion      s     py     pz     px    dxy    dyz    dz2    dxz  x2-y2    tot
    1  0.005  0.009  0.009  0.005  0.000  0.000  0.000  0.000  0.000  0.029
    2  0.013  0.103  0.103  0.099  0.000  0.000  0.000  0.000  0.000  0.318
tot    0.019  0.112  0.112  0.104  0.000  0.000  0.000  0.000  0.000  0.348
 

 k-point    83 :    0.50000000 0.47368421 0.52631579     weight = 0.00416667

band     1 # energy   -3.80451003 # occ.  2.00000000
 
ion      s     py     pz     px    dxy    dyz    dz2    dxz  x2-y2    tot
    1  0.143  0.018  0.018  0.018  0.000  0.000  0.000  0.000  0.000  0.197
    2  0.357  0.001  0.001  0.001  0.000  0.000  0.000  0.000  0.000  0.360
tot    0.500  0.020  0.020  0.019  0.000  0.000  0.000  0.000  0.000  0.557
 
band     2 # energy   -0.47920316 # occ.  2.00000000
 
ion      s     py     pz     px    dxy    dyz    dz2    dxz  x2-y2    tot
    1  0.161  0.038  0.038  0.038  0.000  0.000  0.000  0.000  0.000  0.275
    2  0.017  0.054  0.054  0.053  0.000  0.000  0.000  0.000  0.000  0.178
tot    0.178  0.092  0.092  0.092  0.000  0.000  0.000  0.000  0.000  0.454
 
band     3 # energy    6.70381118 # occ.  2.00000000
 
ion      s     py     pz     px    dxy    dyz    dz2    dxz  x2-y2    tot
    1  0.009  0.075  0.075  0.004  0.000  0.000  0.000  0.000  0.000  0.162
    2  0.006  0.197  0.197  0.001  0.000  0.000  0.000  0.000  0.000  0.400
tot    0.015  0.272  0.272  0.004  0.000  0.000  0.000  0.000  0.000  0.562
 
band     4 # energy    6.84230909 # occ.  2.00000000
 
ion      s     py     pz     px    dxy    dyz    dz2    dxz  x2-y2    tot
    1  0.000  0.027  0.027  0.102  0.000  0.000  0.000  0.000  0.000  0.157
    2  0.000  0.069  0.069  0.271  0.000  0.000  0.000  0.000  0.000  0.408
tot    0.000  0.096  0.096  0.373  0.000  0.000  0.000  0.000  0.000  0.565
 
band     5 # energy   13.36479617 # occ.  0.00000000
 
ion      s     py     pz     px    dxy    dyz    dz2    dxz  x2-y2    tot
    1  0.248  0.012  0.012  0.006  0.000  0.000  0.000  0.000  0.000  0.277
    2  0.187  0.010  0.010  0.000  0.000  0.000  0.000  0.000  0.000  0.207
tot    0.435  0.022  0.022  0.006  0.000  0.000  0.000  0.000  0.000  0.484
 
band     6 # energy   14.93938873 # occ.  0.00000000
 
ion      s     py     pz     px    dxy    dyz    dz2    dxz  x2-y2    tot
    1  0.001  0.122  0.122  0.002  0.000  0.000  0.000  0.000  0.000  0.248
    2  0.011  0.011  0.011  0.012  0.000  0.000  0.000  0.000  0.000  0.046
tot    0.013  0.133  0.133  0.014  0.000  0.000  0.000  0.000  0.000  0.293
 
band     7 # energy   15.22806892 # occ.  0.00000000
 
ion      s     py     pz     px    dxy    dyz    dz2    dxz  x2-y2    tot
    1  0.001  0.044  0.044  0.180  0.000  0.000  0.000  0.000  0.000  0.267
    2  0.001  0.007  0.007  0.021  0.000  0.000  0.000  0.000  0.000  0.035
tot    0.001  0.050  0.050  0.200  0.000  0.000  0.000  0.000  0.000  0.302
 
band     8 # energy   18.11966692 # occ.  0.00000000
 
ion      s     py     pz     px    dxy    dyz    dz2    dxz  x2-y2    tot
    1  0.008  0.018  0.018  0.005  0.000  0.000  0.000  0.000  0.000  0.047
    2  0.011  0.108  0.108  0.094  0.000  0.000  0.000  0.000  0.000  0.321
tot    0.018  0.126  0.126  0.099  0.000  0.000  0.000  0.000  0.000  0.369
 

 k-point    84 :    0.50000000 0.46052632 0.53947368     weight = 0.00416667

band     1 # energy   -3.76719771 # occ.  2.00000000
 
ion      s     py     pz     px    dxy    dyz    dz2    dxz  x2-y2    tot
    1  0.141  0.019  0.019  0.017  0.000  0.000  0.000  0.000  0.000  0.196
    2  0.358  0.001  0.001  0.001  0.000  0.000  0.000  0.000  0.000  0.362
tot    0.499  0.020  0.020  0.018  0.000  0.000  0.000  0.000  0.000  0.558
 
band     2 # energy   -0.43869904 # occ.  2.00000000
 
ion      s     py     pz     px    dxy    dyz    dz2    dxz  x2-y2    tot
    1  0.162  0.038  0.038  0.038  0.000  0.000  0.000  0.000  0.000  0.276
    2  0.017  0.054  0.054  0.053  0.000  0.000  0.000  0.000  0.000  0.179
tot    0.179  0.092  0.092  0.091  0.000  0.000  0.000  0.000  0.000  0.455
 
band     3 # energy    6.48496593 # occ.  2.00000000
 
ion      s     py     pz     px    dxy    dyz    dz2    dxz  x2-y2    tot
    1  0.018  0.072  0.072  0.007  0.000  0.000  0.000  0.000  0.000  0.169
    2  0.012  0.187  0.187  0.002  0.000  0.000  0.000  0.000  0.000  0.389
tot    0.030  0.259  0.259  0.009  0.000  0.000  0.000  0.000  0.000  0.558
 
band     4 # energy    6.77802351 # occ.  2.00000000
 
ion      s     py     pz     px    dxy    dyz    dz2    dxz  x2-y2    tot
    1  0.000  0.030  0.030  0.101  0.000  0.000  0.000  0.000  0.000  0.160
    2  0.000  0.069  0.069  0.266  0.000  0.000  0.000  0.000  0.000  0.403
tot    0.000  0.098  0.098  0.367  0.000  0.000  0.000  0.000  0.000  0.563
 
band     5 # energy   13.47775213 # occ.  0.00000000
 
ion      s     py     pz     px    dxy    dyz    dz2    dxz  x2-y2    tot
    1  0.233  0.015  0.015  0.003  0.000  0.000  0.000  0.000  0.000  0.265
    2  0.163  0.019  0.019  0.003  0.000  0.000  0.000  0.000  0.000  0.204
tot    0.396  0.034  0.034  0.005  0.000  0.000  0.000  0.000  0.000  0.469
 
band     6 # energy   14.78703851 # occ.  0.00000000
 
ion      s     py     pz     px    dxy    dyz    dz2    dxz  x2-y2    tot
    1  0.005  0.111  0.111  0.005  0.000  0.000  0.000  0.000  0.000  0.232
    2  0.028  0.007  0.007  0.021  0.000  0.000  0.000  0.000  0.000  0.064
tot    0.033  0.118  0.118  0.026  0.000  0.000  0.000  0.000  0.000  0.296
 
band     7 # energy   15.38684692 # occ.  0.00000000
 
ion      s     py     pz     px    dxy    dyz    dz2    dxz  x2-y2    tot
    1  0.003  0.042  0.042  0.177  0.000  0.000  0.000  0.000  0.000  0.263
    2  0.003  0.010  0.010  0.022  0.000  0.000  0.000  0.000  0.000  0.045
tot    0.005  0.052  0.052  0.199  0.000  0.000  0.000  0.000  0.000  0.308
 
band     8 # energy   18.32191653 # occ.  0.00000000
 
ion      s     py     pz     px    dxy    dyz    dz2    dxz  x2-y2    tot
    1  0.012  0.027  0.027  0.004  0.000  0.000  0.000  0.000  0.000  0.069
    2  0.008  0.116  0.116  0.089  0.000  0.000  0.000  0.000  0.000  0.329
tot    0.019  0.143  0.143  0.093  0.000  0.000  0.000  0.000  0.000  0.398
 

 k-point    85 :    0.50000000 0.44736842 0.55263158     weight = 0.00416667

band     1 # energy   -3.71530532 # occ.  2.00000000
 
ion      s     py     pz     px    dxy    dyz    dz2    dxz  x2-y2    tot
    1  0.138  0.020  0.020  0.017  0.000  0.000  0.000  0.000  0.000  0.195
    2  0.359  0.002  0.002  0.001  0.000  0.000  0.000  0.000  0.000  0.363
tot    0.497  0.022  0.022  0.018  0.000  0.000  0.000  0.000  0.000  0.558
 
band     2 # energy   -0.38235076 # occ.  2.00000000
 
ion      s     py     pz     px    dxy    dyz    dz2    dxz  x2-y2    tot
    1  0.164  0.038  0.038  0.037  0.000  0.000  0.000  0.000  0.000  0.277
    2  0.017  0.054  0.054  0.053  0.000  0.000  0.000  0.000  0.000  0.179
tot    0.181  0.092  0.092  0.091  0.000  0.000  0.000  0.000  0.000  0.456
 
band     3 # energy    6.20571808 # occ.  2.00000000
 
ion      s     py     pz     px    dxy    dyz    dz2    dxz  x2-y2    tot
    1  0.029  0.069  0.069  0.012  0.000  0.000  0.000  0.000  0.000  0.178
    2  0.019  0.177  0.177  0.003  0.000  0.000  0.000  0.000  0.000  0.375
tot    0.048  0.245  0.245  0.015  0.000  0.000  0.000  0.000  0.000  0.553
 
band     4 # energy    6.68692212 # occ.  2.00000000
 
ion      s     py     pz     px    dxy    dyz    dz2    dxz  x2-y2    tot
    1  0.000  0.032  0.032  0.099  0.000  0.000  0.000  0.000  0.000  0.164
    2  0.000  0.068  0.068  0.259  0.000  0.000  0.000  0.000  0.000  0.396
tot    0.000  0.101  0.101  0.359  0.000  0.000  0.000  0.000  0.000  0.560
 
band     5 # energy   13.56611003 # occ.  0.00000000
 
ion      s     py     pz     px    dxy    dyz    dz2    dxz  x2-y2    tot
    1  0.207  0.019  0.019  0.001  0.000  0.000  0.000  0.000  0.000  0.246
    2  0.124  0.027  0.027  0.011  0.000  0.000  0.000  0.000  0.000  0.189
tot    0.331  0.046  0.046  0.012  0.000  0.000  0.000  0.000  0.000  0.435
 
band     6 # energy   14.65960792 # occ.  0.00000000
 
ion      s     py     pz     px    dxy    dyz    dz2    dxz  x2-y2    tot
    1  0.018  0.099  0.099  0.010  0.000  0.000  0.000  0.000  0.000  0.225
    2  0.055  0.004  0.004  0.026  0.000  0.000  0.000  0.000  0.000  0.089
tot    0.072  0.103  0.103  0.036  0.000  0.000  0.000  0.000  0.000  0.314
 
band     7 # energy   15.62276282 # occ.  0.00000000
 
ion      s     py     pz     px    dxy    dyz    dz2    dxz  x2-y2    tot
    1  0.007  0.039  0.039  0.171  0.000  0.000  0.000  0.000  0.000  0.256
    2  0.007  0.017  0.017  0.023  0.000  0.000  0.000  0.000  0.000  0.063
tot    0.014  0.056  0.056  0.194  0.000  0.000  0.000  0.000  0.000  0.319
 
band     8 # energy   18.53311276 # occ.  0.00000000
 
ion      s     py     pz     px    dxy    dyz    dz2    dxz  x2-y2    tot
    1  0.018  0.035  0.035  0.003  0.000  0.000  0.000  0.000  0.000  0.091
    2  0.005  0.125  0.125  0.085  0.000  0.000  0.000  0.000  0.000  0.341
tot    0.023  0.160  0.160  0.088  0.000  0.000  0.000  0.000  0.000  0.431
 

 k-point    86 :    0.50000000 0.43421053 0.56578947     weight = 0.00416667

band     1 # energy   -3.64919509 # occ.  2.00000000
 
ion      s     py     pz     px    dxy    dyz    dz2    dxz  x2-y2    tot
    1  0.134  0.021  0.021  0.017  0.000  0.000  0.000  0.000  0.000  0.193
    2  0.361  0.002  0.002  0.001  0.000  0.000  0.000  0.000  0.000  0.366
tot    0.495  0.023  0.023  0.017  0.000  0.000  0.000  0.000  0.000  0.559
 
band     2 # energy   -0.31056095 # occ.  2.00000000
 
ion      s     py     pz     px    dxy    dyz    dz2    dxz  x2-y2    tot
    1  0.166  0.038  0.038  0.037  0.000  0.000  0.000  0.000  0.000  0.279
    2  0.017  0.055  0.055  0.053  0.000  0.000  0.000  0.000  0.000  0.180
tot    0.184  0.093  0.093  0.090  0.000  0.000  0.000  0.000  0.000  0.459
 
band     3 # energy    5.88363676 # occ.  2.00000000
 
ion      s     py     pz     px    dxy    dyz    dz2    dxz  x2-y2    tot
    1  0.040  0.065  0.065  0.017  0.000  0.000  0.000  0.000  0.000  0.186
    2  0.025  0.166  0.166  0.004  0.000  0.000  0.000  0.000  0.000  0.361
tot    0.065  0.231  0.231  0.021  0.000  0.000  0.000  0.000  0.000  0.547
 
band     4 # energy    6.56833947 # occ.  2.00000000
 
ion      s     py     pz     px    dxy    dyz    dz2    dxz  x2-y2    tot
    1  0.001  0.036  0.036  0.097  0.000  0.000  0.000  0.000  0.000  0.169
    2  0.000  0.068  0.068  0.251  0.000  0.000  0.000  0.000  0.000  0.388
tot    0.001  0.104  0.104  0.348  0.000  0.000  0.000  0.000  0.000  0.556
 
band     5 # energy   13.58222380 # occ.  0.00000000
 
ion      s     py     pz     px    dxy    dyz    dz2    dxz  x2-y2    tot
    1  0.166  0.025  0.025  0.001  0.000  0.000  0.000  0.000  0.000  0.216
    2  0.076  0.030  0.030  0.030  0.000  0.000  0.000  0.000  0.000  0.165
tot    0.242  0.054  0.054  0.031  0.000  0.000  0.000  0.000  0.000  0.381
 
band     6 # energy   14.60750682 # occ.  0.00000000
 
ion      s     py     pz     px    dxy    dyz    dz2    dxz  x2-y2    tot
    1  0.042  0.086  0.086  0.017  0.000  0.000  0.000  0.000  0.000  0.231
    2  0.088  0.004  0.004  0.023  0.000  0.000  0.000  0.000  0.000  0.118
tot    0.130  0.090  0.090  0.040  0.000  0.000  0.000  0.000  0.000  0.349
 
band     7 # energy   15.93877993 # occ.  0.00000000
 
ion      s     py     pz     px    dxy    dyz    dz2    dxz  x2-y2    tot
    1  0.014  0.036  0.036  0.161  0.000  0.000  0.000  0.000  0.000  0.248
    2  0.012  0.026  0.026  0.024  0.000  0.000  0.000  0.000  0.000  0.088
tot    0.027  0.062  0.062  0.185  0.000  0.000  0.000  0.000  0.000  0.336
 
band     8 # energy   18.71723594 # occ.  0.00000000
 
ion      s     py     pz     px    dxy    dyz    dz2    dxz  x2-y2    tot
    1  0.027  0.041  0.041  0.002  0.000  0.000  0.000  0.000  0.000  0.110
    2  0.003  0.134  0.134  0.083  0.000  0.000  0.000  0.000  0.000  0.354
tot    0.030  0.175  0.175  0.084  0.000  0.000  0.000  0.000  0.000  0.464
 

 k-point    87 :    0.50000000 0.42105263 0.57894737     weight = 0.00416667

band     1 # energy   -3.56936820 # occ.  2.00000000
 
ion      s     py     pz     px    dxy    dyz    dz2    dxz  x2-y2    tot
    1  0.129  0.023  0.023  0.016  0.000  0.000  0.000  0.000  0.000  0.191
    2  0.364  0.002  0.002  0.001  0.000  0.000  0.000  0.000  0.000  0.369
tot    0.493  0.025  0.025  0.017  0.000  0.000  0.000  0.000  0.000  0.559
 
band     2 # energy   -0.22392101 # occ.  2.00000000
 
ion      s     py     pz     px    dxy    dyz    dz2    dxz  x2-y2    tot
    1  0.170  0.038  0.038  0.036  0.000  0.000  0.000  0.000  0.000  0.281
    2  0.017  0.055  0.055  0.053  0.000  0.000  0.000  0.000  0.000  0.181
tot    0.187  0.093  0.093  0.089  0.000  0.000  0.000  0.000  0.000  0.462
 
band     3 # energy    5.53405325 # occ.  2.00000000
 
ion      s     py     pz     px    dxy    dyz    dz2    dxz  x2-y2    tot
    1  0.050  0.062  0.062  0.021  0.000  0.000  0.000  0.000  0.000  0.195
    2  0.030  0.155  0.155  0.005  0.000  0.000  0.000  0.000  0.000  0.347
tot    0.081  0.217  0.217  0.027  0.000  0.000  0.000  0.000  0.000  0.541
 
band     4 # energy    6.42199013 # occ.  2.00000000
 
ion      s     py     pz     px    dxy    dyz    dz2    dxz  x2-y2    tot
    1  0.001  0.039  0.039  0.095  0.000  0.000  0.000  0.000  0.000  0.174
    2  0.000  0.068  0.068  0.241  0.000  0.000  0.000  0.000  0.000  0.377
tot    0.001  0.107  0.107  0.336  0.000  0.000  0.000  0.000  0.000  0.551
 
band     5 # energy   13.51822871 # occ.  0.00000000
 
ion      s     py     pz     px    dxy    dyz    dz2    dxz  x2-y2    tot
    1  0.124  0.029  0.029  0.002  0.000  0.000  0.000  0.000  0.000  0.183
    2  0.039  0.027  0.027  0.054  0.000  0.000  0.000  0.000  0.000  0.147
tot    0.163  0.056  0.056  0.056  0.000  0.000  0.000  0.000  0.000  0.330
 
band     6 # energy   14.64442781 # occ.  0.00000000
 
ion      s     py     pz     px    dxy    dyz    dz2    dxz  x2-y2    tot
    1  0.066  0.076  0.076  0.025  0.000  0.000  0.000  0.000  0.000  0.242
    2  0.110  0.007  0.007  0.015  0.000  0.000  0.000  0.000  0.000  0.140
tot    0.176  0.083  0.083  0.040  0.000  0.000  0.000  0.000  0.000  0.382
 
band     7 # energy   16.32770186 # occ.  0.00000000
 
ion      s     py     pz     px    dxy    dyz    dz2    dxz  x2-y2    tot
    1  0.022  0.033  0.033  0.149  0.000  0.000  0.000  0.000  0.000  0.237
    2  0.017  0.038  0.038  0.025  0.000  0.000  0.000  0.000  0.000  0.117
tot    0.040  0.071  0.071  0.173  0.000  0.000  0.000  0.000  0.000  0.355
 
band     8 # energy   18.84822969 # occ.  0.00000000
 
ion      s     py     pz     px    dxy    dyz    dz2    dxz  x2-y2    tot
    1  0.038  0.043  0.043  0.001  0.000  0.000  0.000  0.000  0.000  0.126
    2  0.001  0.142  0.142  0.080  0.000  0.000  0.000  0.000  0.000  0.365
tot    0.039  0.185  0.185  0.081  0.000  0.000  0.000  0.000  0.000  0.491
 

 k-point    88 :    0.50000000 0.40789474 0.59210526     weight = 0.00416667

band     1 # energy   -3.47646479 # occ.  2.00000000
 
ion      s     py     pz     px    dxy    dyz    dz2    dxz  x2-y2    tot
    1  0.123  0.025  0.025  0.015  0.000  0.000  0.000  0.000  0.000  0.188
    2  0.367  0.002  0.002  0.001  0.000  0.000  0.000  0.000  0.000  0.372
tot    0.490  0.027  0.027  0.016  0.000  0.000  0.000  0.000  0.000  0.560
 
band     2 # energy   -0.12320303 # occ.  2.00000000
 
ion      s     py     pz     px    dxy    dyz    dz2    dxz  x2-y2    tot
    1  0.174  0.037  0.037  0.035  0.000  0.000  0.000  0.000  0.000  0.284
    2  0.018  0.056  0.056  0.053  0.000  0.000  0.000  0.000  0.000  0.182
tot    0.192  0.093  0.093  0.088  0.000  0.000  0.000  0.000  0.000  0.466
 
band     3 # energy    5.16961581 # occ.  2.00000000
 
ion      s     py     pz     px    dxy    dyz    dz2    dxz  x2-y2    tot
    1  0.060  0.058  0.058  0.026  0.000  0.000  0.000  0.000  0.000  0.203
    2  0.035  0.146  0.146  0.007  0.000  0.000  0.000  0.000  0.000  0.333
tot    0.094  0.204  0.204  0.033  0.000  0.000  0.000  0.000  0.000  0.536
 
band     4 # energy    6.24826796 # occ.  2.00000000
 
ion      s     py     pz     px    dxy    dyz    dz2    dxz  x2-y2    tot
    1  0.002  0.043  0.043  0.092  0.000  0.000  0.000  0.000  0.000  0.180
    2  0.000  0.067  0.067  0.230  0.000  0.000  0.000  0.000  0.000  0.365
tot    0.002  0.110  0.110  0.322  0.000  0.000  0.000  0.000  0.000  0.544
 
band     5 # energy   13.41108775 # occ.  0.00000000
 
ion      s     py     pz     px    dxy    dyz    dz2    dxz  x2-y2    tot
    1  0.094  0.029  0.029  0.003  0.000  0.000  0.000  0.000  0.000  0.155
    2  0.019  0.023  0.023  0.079  0.000  0.000  0.000  0.000  0.000  0.142
tot    0.113  0.052  0.052  0.081  0.000  0.000  0.000  0.000  0.000  0.298
 
band     6 # energy   14.74315663 # occ.  0.00000000
 
ion      s     py     pz     px    dxy    dyz    dz2    dxz  x2-y2    tot
    1  0.079  0.069  0.069  0.032  0.000  0.000  0.000  0.000  0.000  0.250
    2  0.117  0.011  0.011  0.009  0.000  0.000  0.000  0.000  0.000  0.148
tot    0.196  0.080  0.080  0.041  0.000  0.000  0.000  0.000  0.000  0.398
 
band     7 # energy   16.77344079 # occ.  0.00000000
 
ion      s     py     pz     px    dxy    dyz    dz2    dxz  x2-y2    tot
    1  0.030  0.030  0.030  0.136  0.000  0.000  0.000  0.000  0.000  0.226
    2  0.020  0.052  0.052  0.025  0.000  0.000  0.000  0.000  0.000  0.148
tot    0.050  0.082  0.082  0.161  0.000  0.000  0.000  0.000  0.000  0.375
 
band     8 # energy   18.91212248 # occ.  0.00000000
 
ion      s     py     pz     px    dxy    dyz    dz2    dxz  x2-y2    tot
    1  0.050  0.043  0.043  0.000  0.000  0.000  0.000  0.000  0.000  0.137
    2  0.000  0.145  0.145  0.077  0.000  0.000  0.000  0.000  0.000  0.368
tot    0.050  0.189  0.189  0.078  0.000  0.000  0.000  0.000  0.000  0.506
 

 k-point    89 :    0.50000000 0.39473684 0.60526316     weight = 0.00416667

band     1 # energy   -3.37139256 # occ.  2.00000000
 
ion      s     py     pz     px    dxy    dyz    dz2    dxz  x2-y2    tot
    1  0.117  0.027  0.027  0.015  0.000  0.000  0.000  0.000  0.000  0.185
    2  0.370  0.003  0.003  0.001  0.000  0.000  0.000  0.000  0.000  0.376
tot    0.487  0.030  0.030  0.015  0.000  0.000  0.000  0.000  0.000  0.561
 
band     2 # energy   -0.00953572 # occ.  2.00000000
 
ion      s     py     pz     px    dxy    dyz    dz2    dxz  x2-y2    tot
    1  0.180  0.037  0.037  0.034  0.000  0.000  0.000  0.000  0.000  0.287
    2  0.018  0.057  0.057  0.052  0.000  0.000  0.000  0.000  0.000  0.183
tot    0.198  0.094  0.094  0.086  0.000  0.000  0.000  0.000  0.000  0.470
 
band     3 # energy    4.80067095 # occ.  2.00000000
 
ion      s     py     pz     px    dxy    dyz    dz2    dxz  x2-y2    tot
    1  0.068  0.055  0.055  0.032  0.000  0.000  0.000  0.000  0.000  0.209
    2  0.037  0.137  0.137  0.009  0.000  0.000  0.000  0.000  0.000  0.320
tot    0.105  0.192  0.192  0.040  0.000  0.000  0.000  0.000  0.000  0.529
 
band     4 # energy    6.04843983 # occ.  2.00000000
 
ion      s     py     pz     px    dxy    dyz    dz2    dxz  x2-y2    tot
    1  0.003  0.047  0.047  0.088  0.000  0.000  0.000  0.000  0.000  0.185
    2  0.000  0.066  0.066  0.219  0.000  0.000  0.000  0.000  0.000  0.351
tot    0.003  0.113  0.113  0.307  0.000  0.000  0.000  0.000  0.000  0.537
 
band     5 # energy   13.29805585 # occ.  0.00000000
 
ion      s     py     pz     px    dxy    dyz    dz2    dxz  x2-y2    tot
    1  0.075  0.026  0.026  0.004  0.000  0.000  0.000  0.000  0.000  0.132
    2  0.009  0.018  0.018  0.102  0.000  0.000  0.000  0.000  0.000  0.148
tot    0.085  0.045  0.045  0.106  0.000  0.000  0.000  0.000  0.000  0.280
 
band     6 # energy   14.87627784 # occ.  0.00000000
 
ion      s     py     pz     px    dxy    dyz    dz2    dxz  x2-y2    tot
    1  0.084  0.066  0.066  0.038  0.000  0.000  0.000  0.000  0.000  0.255
    2  0.115  0.014  0.014  0.005  0.000  0.000  0.000  0.000  0.000  0.149
tot    0.199  0.081  0.081  0.044  0.000  0.000  0.000  0.000  0.000  0.404
 
band     7 # energy   17.25408300 # occ.  0.00000000
 
ion      s     py     pz     px    dxy    dyz    dz2    dxz  x2-y2    tot
    1  0.038  0.027  0.027  0.123  0.000  0.000  0.000  0.000  0.000  0.216
    2  0.020  0.067  0.067  0.026  0.000  0.000  0.000  0.000  0.000  0.181
tot    0.058  0.095  0.095  0.150  0.000  0.000  0.000  0.000  0.000  0.397
 
band     8 # energy   18.90819895 # occ.  0.00000000
 
ion      s     py     pz     px    dxy    dyz    dz2    dxz  x2-y2    tot
    1  0.060  0.041  0.041  0.000  0.000  0.000  0.000  0.000  0.000  0.143
    2  0.000  0.145  0.145  0.072  0.000  0.000  0.000  0.000  0.000  0.361
tot    0.060  0.186  0.186  0.072  0.000  0.000  0.000  0.000  0.000  0.504
 

 k-point    90 :    0.50000000 0.38157895 0.61842105     weight = 0.00416667

band     1 # energy   -3.25529136 # occ.  2.00000000
 
ion      s     py     pz     px    dxy    dyz    dz2    dxz  x2-y2    tot
    1  0.109  0.029  0.029  0.014  0.000  0.000  0.000  0.000  0.000  0.181
    2  0.375  0.003  0.003  0.001  0.000  0.000  0.000  0.000  0.000  0.381
tot    0.483  0.032  0.032  0.014  0.000  0.000  0.000  0.000  0.000  0.562
 
band     2 # energy    0.11549248 # occ.  2.00000000
 
ion      s     py     pz     px    dxy    dyz    dz2    dxz  x2-y2    tot
    1  0.188  0.036  0.036  0.032  0.000  0.000  0.000  0.000  0.000  0.291
    2  0.018  0.058  0.058  0.051  0.000  0.000  0.000  0.000  0.000  0.185
tot    0.205  0.094  0.094  0.083  0.000  0.000  0.000  0.000  0.000  0.476
 
band     3 # energy    4.43603677 # occ.  2.00000000
 
ion      s     py     pz     px    dxy    dyz    dz2    dxz  x2-y2    tot
    1  0.075  0.052  0.052  0.037  0.000  0.000  0.000  0.000  0.000  0.215
    2  0.038  0.129  0.129  0.011  0.000  0.000  0.000  0.000  0.000  0.307
tot    0.113  0.181  0.181  0.048  0.000  0.000  0.000  0.000  0.000  0.523
 
band     4 # energy    5.82473162 # occ.  2.00000000
 
ion      s     py     pz     px    dxy    dyz    dz2    dxz  x2-y2    tot
    1  0.004  0.051  0.051  0.085  0.000  0.000  0.000  0.000  0.000  0.190
    2  0.000  0.065  0.065  0.207  0.000  0.000  0.000  0.000  0.000  0.337
tot    0.004  0.116  0.116  0.292  0.000  0.000  0.000  0.000  0.000  0.528
 
band     5 # energy   13.19941729 # occ.  0.00000000
 
ion      s     py     pz     px    dxy    dyz    dz2    dxz  x2-y2    tot
    1  0.062  0.023  0.023  0.005  0.000  0.000  0.000  0.000  0.000  0.113
    2  0.005  0.015  0.015  0.124  0.000  0.000  0.000  0.000  0.000  0.158
tot    0.067  0.038  0.038  0.129  0.000  0.000  0.000  0.000  0.000  0.271
 
band     6 # energy   15.03062376 # occ.  0.00000000
 
ion      s     py     pz     px    dxy    dyz    dz2    dxz  x2-y2    tot
    1  0.084  0.065  0.065  0.043  0.000  0.000  0.000  0.000  0.000  0.257
    2  0.111  0.017  0.017  0.003  0.000  0.000  0.000  0.000  0.000  0.148
tot    0.195  0.082  0.082  0.047  0.000  0.000  0.000  0.000  0.000  0.405
 
band     7 # energy   17.73945817 # occ.  0.00000000
 
ion      s     py     pz     px    dxy    dyz    dz2    dxz  x2-y2    tot
    1  0.051  0.024  0.024  0.110  0.000  0.000  0.000  0.000  0.000  0.209
    2  0.017  0.086  0.086  0.031  0.000  0.000  0.000  0.000  0.000  0.220
tot    0.068  0.110  0.110  0.141  0.000  0.000  0.000  0.000  0.000  0.429
 
band     8 # energy   18.85201639 # occ.  0.00000000
 
ion      s     py     pz     px    dxy    dyz    dz2    dxz  x2-y2    tot
    1  0.063  0.038  0.038  0.000  0.000  0.000  0.000  0.000  0.000  0.139
    2  0.001  0.138  0.138  0.061  0.000  0.000  0.000  0.000  0.000  0.338
tot    0.064  0.176  0.176  0.061  0.000  0.000  0.000  0.000  0.000  0.477
 

 k-point    91 :    0.50000000 0.36842105 0.63157895     weight = 0.00416667

band     1 # energy   -3.12966949 # occ.  2.00000000
 
ion      s     py     pz     px    dxy    dyz    dz2    dxz  x2-y2    tot
    1  0.100  0.032  0.032  0.012  0.000  0.000  0.000  0.000  0.000  0.176
    2  0.380  0.003  0.003  0.000  0.000  0.000  0.000  0.000  0.000  0.387
tot    0.480  0.035  0.035  0.013  0.000  0.000  0.000  0.000  0.000  0.564
 
band     2 # energy    0.24959792 # occ.  2.00000000
 
ion      s     py     pz     px    dxy    dyz    dz2    dxz  x2-y2    tot
    1  0.198  0.035  0.035  0.030  0.000  0.000  0.000  0.000  0.000  0.297
    2  0.018  0.060  0.060  0.050  0.000  0.000  0.000  0.000  0.000  0.187
tot    0.216  0.094  0.094  0.080  0.000  0.000  0.000  0.000  0.000  0.484
 
band     3 # energy    4.08378193 # occ.  2.00000000
 
ion      s     py     pz     px    dxy    dyz    dz2    dxz  x2-y2    tot
    1  0.080  0.049  0.049  0.043  0.000  0.000  0.000  0.000  0.000  0.220
    2  0.037  0.122  0.122  0.013  0.000  0.000  0.000  0.000  0.000  0.295
tot    0.117  0.171  0.171  0.056  0.000  0.000  0.000  0.000  0.000  0.515
 
band     4 # energy    5.58024545 # occ.  2.00000000
 
ion      s     py     pz     px    dxy    dyz    dz2    dxz  x2-y2    tot
    1  0.005  0.054  0.054  0.082  0.000  0.000  0.000  0.000  0.000  0.195
    2  0.000  0.064  0.064  0.195  0.000  0.000  0.000  0.000  0.000  0.323
tot    0.005  0.118  0.118  0.277  0.000  0.000  0.000  0.000  0.000  0.518
 
band     5 # energy   13.12365165 # occ.  0.00000000
 
ion      s     py     pz     px    dxy    dyz    dz2    dxz  x2-y2    tot
    1  0.052  0.019  0.019  0.006  0.000  0.000  0.000  0.000  0.000  0.095
    2  0.003  0.012  0.012  0.145  0.000  0.000  0.000  0.000  0.000  0.172
tot    0.054  0.031  0.031  0.151  0.000  0.000  0.000  0.000  0.000  0.267
 
band     6 # energy   15.20130069 # occ.  0.00000000
 
ion      s     py     pz     px    dxy    dyz    dz2    dxz  x2-y2    tot
    1  0.083  0.065  0.065  0.046  0.000  0.000  0.000  0.000  0.000  0.259
    2  0.106  0.019  0.019  0.002  0.000  0.000  0.000  0.000  0.000  0.146
tot    0.188  0.084  0.084  0.049  0.000  0.000  0.000  0.000  0.000  0.404
 
band     7 # energy   18.16201156 # occ.  0.00000000
 
ion      s     py     pz     px    dxy    dyz    dz2    dxz  x2-y2    tot
    1  0.086  0.022  0.022  0.091  0.000  0.000  0.000  0.000  0.000  0.220
    2  0.009  0.113  0.113  0.047  0.000  0.000  0.000  0.000  0.000  0.283
tot    0.095  0.135  0.135  0.138  0.000  0.000  0.000  0.000  0.000  0.504
 
band     8 # energy   18.79670848 # occ.  0.00000000
 
ion      s     py     pz     px    dxy    dyz    dz2    dxz  x2-y2    tot
    1  0.042  0.031  0.031  0.003  0.000  0.000  0.000  0.000  0.000  0.108
    2  0.002  0.122  0.122  0.036  0.000  0.000  0.000  0.000  0.000  0.283
tot    0.045  0.154  0.153  0.039  0.000  0.000  0.000  0.000  0.000  0.391
 

 k-point    92 :    0.50000000 0.35526316 0.64473684     weight = 0.00416667

band     1 # energy   -2.99648896 # occ.  2.00000000
 
ion      s     py     pz     px    dxy    dyz    dz2    dxz  x2-y2    tot
    1  0.090  0.035  0.035  0.011  0.000  0.000  0.000  0.000  0.000  0.171
    2  0.387  0.003  0.003  0.000  0.000  0.000  0.000  0.000  0.000  0.394
tot    0.476  0.039  0.039  0.012  0.000  0.000  0.000  0.000  0.000  0.565
 
band     2 # energy    0.38944908 # occ.  2.00000000
 
ion      s     py     pz     px    dxy    dyz    dz2    dxz  x2-y2    tot
    1  0.212  0.033  0.033  0.027  0.000  0.000  0.000  0.000  0.000  0.305
    2  0.018  0.062  0.062  0.047  0.000  0.000  0.000  0.000  0.000  0.189
tot    0.230  0.094  0.094  0.075  0.000  0.000  0.000  0.000  0.000  0.494
 
band     3 # energy    3.75216167 # occ.  2.00000000
 
ion      s     py     pz     px    dxy    dyz    dz2    dxz  x2-y2    tot
    1  0.082  0.046  0.046  0.049  0.000  0.000  0.000  0.000  0.000  0.223
    2  0.035  0.116  0.116  0.017  0.000  0.000  0.000  0.000  0.000  0.283
tot    0.117  0.162  0.162  0.066  0.000  0.000  0.000  0.000  0.000  0.506
 
band     4 # energy    5.31881619 # occ.  2.00000000
 
ion      s     py     pz     px    dxy    dyz    dz2    dxz  x2-y2    tot
    1  0.006  0.057  0.057  0.079  0.000  0.000  0.000  0.000  0.000  0.200
    2  0.000  0.062  0.062  0.184  0.000  0.000  0.000  0.000  0.000  0.308
tot    0.006  0.120  0.120  0.262  0.000  0.000  0.000  0.000  0.000  0.508
 
band     5 # energy   13.07289050 # occ.  0.00000000
 
ion      s     py     pz     px    dxy    dyz    dz2    dxz  x2-y2    tot
    1  0.043  0.015  0.015  0.006  0.000  0.000  0.000  0.000  0.000  0.079
    2  0.001  0.010  0.010  0.165  0.000  0.000  0.000  0.000  0.000  0.186
tot    0.044  0.025  0.025  0.172  0.000  0.000  0.000  0.000  0.000  0.266
 
band     6 # energy   15.38668442 # occ.  0.00000000
 
ion      s     py     pz     px    dxy    dyz    dz2    dxz  x2-y2    tot
    1  0.081  0.065  0.065  0.048  0.000  0.000  0.000  0.000  0.000  0.259
    2  0.101  0.021  0.021  0.001  0.000  0.000  0.000  0.000  0.000  0.144
tot    0.181  0.086  0.086  0.050  0.000  0.000  0.000  0.000  0.000  0.403
 
band     7 # energy   18.32055693 # occ.  0.00000000
 
ion      s     py     pz     px    dxy    dyz    dz2    dxz  x2-y2    tot
    1  0.138  0.024  0.024  0.052  0.000  0.000  0.000  0.000  0.000  0.239
    2  0.001  0.140  0.140  0.069  0.000  0.000  0.000  0.000  0.000  0.350
tot    0.140  0.164  0.164  0.121  0.000  0.000  0.000  0.000  0.000  0.589
 
band     8 # energy   18.91184203 # occ.  0.00000000
 
ion      s     py     pz     px    dxy    dyz    dz2    dxz  x2-y2    tot
    1  0.001  0.021  0.021  0.017  0.000  0.000  0.000  0.000  0.000  0.060
    2  0.003  0.104  0.104  0.004  0.000  0.000  0.000  0.000  0.000  0.215
tot    0.005  0.125  0.125  0.021  0.000  0.000  0.000  0.000  0.000  0.275
 

 k-point    93 :    0.50000000 0.34210526 0.65789474     weight = 0.00416667

band     1 # energy   -2.85834821 # occ.  2.00000000
 
ion      s     py     pz     px    dxy    dyz    dz2    dxz  x2-y2    tot
    1  0.078  0.038  0.038  0.010  0.000  0.000  0.000  0.000  0.000  0.165
    2  0.394  0.003  0.003  0.000  0.000  0.000  0.000  0.000  0.000  0.401
tot    0.472  0.042  0.042  0.010  0.000  0.000  0.000  0.000  0.000  0.566
 
band     2 # energy    0.53007277 # occ.  2.00000000
 
ion      s     py     pz     px    dxy    dyz    dz2    dxz  x2-y2    tot
    1  0.231  0.030  0.030  0.024  0.000  0.000  0.000  0.000  0.000  0.315
    2  0.018  0.064  0.064  0.044  0.000  0.000  0.000  0.000  0.000  0.190
tot    0.249  0.094  0.094  0.068  0.000  0.000  0.000  0.000  0.000  0.506
 
band     3 # energy    3.45052166 # occ.  2.00000000
 
ion      s     py     pz     px    dxy    dyz    dz2    dxz  x2-y2    tot
    1  0.079  0.044  0.044  0.056  0.000  0.000  0.000  0.000  0.000  0.223
    2  0.031  0.110  0.110  0.021  0.000  0.000  0.000  0.000  0.000  0.272
tot    0.110  0.154  0.154  0.077  0.000  0.000  0.000  0.000  0.000  0.495
 
band     4 # energy    5.04476863 # occ.  2.00000000
 
ion      s     py     pz     px    dxy    dyz    dz2    dxz  x2-y2    tot
    1  0.007  0.060  0.060  0.075  0.000  0.000  0.000  0.000  0.000  0.203
    2  0.000  0.060  0.060  0.174  0.000  0.000  0.000  0.000  0.000  0.295
tot    0.007  0.121  0.121  0.249  0.000  0.000  0.000  0.000  0.000  0.498
 
band     5 # energy   13.04573389 # occ.  0.00000000
 
ion      s     py     pz     px    dxy    dyz    dz2    dxz  x2-y2    tot
    1  0.035  0.012  0.012  0.006  0.000  0.000  0.000  0.000  0.000  0.065
    2  0.001  0.008  0.008  0.185  0.000  0.000  0.000  0.000  0.000  0.202
tot    0.036  0.020  0.020  0.191  0.000  0.000  0.000  0.000  0.000  0.267
 
band     6 # energy   15.58619946 # occ.  0.00000000
 
ion      s     py     pz     px    dxy    dyz    dz2    dxz  x2-y2    tot
    1  0.078  0.065  0.065  0.049  0.000  0.000  0.000  0.000  0.000  0.258
    2  0.096  0.023  0.023  0.001  0.000  0.000  0.000  0.000  0.000  0.143
tot    0.174  0.089  0.089  0.050  0.000  0.000  0.000  0.000  0.000  0.402
 
band     7 # energy   18.21623907 # occ.  0.00000000
 
ion      s     py     pz     px    dxy    dyz    dz2    dxz  x2-y2    tot
    1  0.147  0.023  0.023  0.036  0.000  0.000  0.000  0.000  0.000  0.229
    2  0.000  0.138  0.138  0.060  0.000  0.000  0.000  0.000  0.000  0.337
tot    0.147  0.161  0.161  0.096  0.000  0.000  0.000  0.000  0.000  0.566
 
band     8 # energy   19.11609274 # occ.  0.00000000
 
ion      s     py     pz     px    dxy    dyz    dz2    dxz  x2-y2    tot
    1  0.003  0.020  0.020  0.004  0.000  0.000  0.000  0.000  0.000  0.048
    2  0.000  0.102  0.102  0.000  0.000  0.000  0.000  0.000  0.000  0.204
tot    0.004  0.122  0.122  0.004  0.000  0.000  0.000  0.000  0.000  0.252
 

 k-point    94 :    0.50000000 0.32894737 0.67105263     weight = 0.00416667

band     1 # energy   -2.71867168 # occ.  2.00000000
 
ion      s     py     pz     px    dxy    dyz    dz2    dxz  x2-y2    tot
    1  0.065  0.042  0.042  0.008  0.000  0.000  0.000  0.000  0.000  0.158
    2  0.403  0.003  0.003  0.000  0.000  0.000  0.000  0.000  0.000  0.410
tot    0.469  0.045  0.045  0.008  0.000  0.000  0.000  0.000  0.000  0.568
 
band     2 # energy    0.66417466 # occ.  2.00000000
 
ion      s     py     pz     px    dxy    dyz    dz2    dxz  x2-y2    tot
    1  0.256  0.027  0.027  0.019  0.000  0.000  0.000  0.000  0.000  0.329
    2  0.018  0.067  0.067  0.039  0.000  0.000  0.000  0.000  0.000  0.192
tot    0.274  0.094  0.094  0.058  0.000  0.000  0.000  0.000  0.000  0.521
 
band     3 # energy    3.19039245 # occ.  2.00000000
 
ion      s     py     pz     px    dxy    dyz    dz2    dxz  x2-y2    tot
    1  0.072  0.042  0.042  0.065  0.000  0.000  0.000  0.000  0.000  0.221
    2  0.025  0.104  0.104  0.027  0.000  0.000  0.000  0.000  0.000  0.260
tot    0.097  0.147  0.147  0.092  0.000  0.000  0.000  0.000  0.000  0.481
 
band     4 # energy    4.76273793 # occ.  2.00000000
 
ion      s     py     pz     px    dxy    dyz    dz2    dxz  x2-y2    tot
    1  0.007  0.063  0.063  0.072  0.000  0.000  0.000  0.000  0.000  0.206
    2  0.000  0.058  0.058  0.165  0.000  0.000  0.000  0.000  0.000  0.281
tot    0.008  0.121  0.121  0.237  0.000  0.000  0.000  0.000  0.000  0.487
 
band     5 # energy   13.03870208 # occ.  0.00000000
 
ion      s     py     pz     px    dxy    dyz    dz2    dxz  x2-y2    tot
    1  0.028  0.009  0.009  0.006  0.000  0.000  0.000  0.000  0.000  0.052
    2  0.000  0.006  0.006  0.204  0.000  0.000  0.000  0.000  0.000  0.217
tot    0.028  0.015  0.015  0.210  0.000  0.000  0.000  0.000  0.000  0.268
 
band     6 # energy   15.79957471 # occ.  0.00000000
 
ion      s     py     pz     px    dxy    dyz    dz2    dxz  x2-y2    tot
    1  0.076  0.066  0.066  0.049  0.000  0.000  0.000  0.000  0.000  0.257
    2  0.091  0.026  0.026  0.001  0.000  0.000  0.000  0.000  0.000  0.143
tot    0.168  0.092  0.092  0.049  0.000  0.000  0.000  0.000  0.000  0.401
 
band     7 # energy   18.04714782 # occ.  0.00000000
 
ion      s     py     pz     px    dxy    dyz    dz2    dxz  x2-y2    tot
    1  0.151  0.020  0.020  0.034  0.000  0.000  0.000  0.000  0.000  0.226
    2  0.000  0.133  0.133  0.048  0.000  0.000  0.000  0.000  0.000  0.313
tot    0.152  0.153  0.153  0.082  0.000  0.000  0.000  0.000  0.000  0.539
 
band     8 # energy   19.11879370 # occ.  0.00000000
 
ion      s     py     pz     px    dxy    dyz    dz2    dxz  x2-y2    tot
    1  0.009  0.031  0.031  0.004  0.000  0.000  0.000  0.000  0.000  0.075
    2  0.007  0.083  0.083  0.000  0.000  0.000  0.000  0.000  0.000  0.174
tot    0.015  0.114  0.114  0.004  0.000  0.000  0.000  0.000  0.000  0.249
 

 k-point    95 :    0.50000000 0.31578947 0.68421053     weight = 0.00416667

band     1 # energy   -2.58187975 # occ.  2.00000000
 
ion      s     py     pz     px    dxy    dyz    dz2    dxz  x2-y2    tot
    1  0.052  0.046  0.046  0.006  0.000  0.000  0.000  0.000  0.000  0.150
    2  0.413  0.003  0.003  0.000  0.000  0.000  0.000  0.000  0.000  0.419
tot    0.465  0.049  0.049  0.007  0.000  0.000  0.000  0.000  0.000  0.569
 
band     2 # energy    0.78170275 # occ.  2.00000000
 
ion      s     py     pz     px    dxy    dyz    dz2    dxz  x2-y2    tot
    1  0.288  0.022  0.022  0.014  0.000  0.000  0.000  0.000  0.000  0.346
    2  0.018  0.072  0.072  0.032  0.000  0.000  0.000  0.000  0.000  0.193
tot    0.306  0.094  0.094  0.046  0.000  0.000  0.000  0.000  0.000  0.539
 
band     3 # energy    2.98620374 # occ.  2.00000000
 
ion      s     py     pz     px    dxy    dyz    dz2    dxz  x2-y2    tot
    1  0.058  0.042  0.042  0.074  0.000  0.000  0.000  0.000  0.000  0.215
    2  0.018  0.099  0.099  0.034  0.000  0.000  0.000  0.000  0.000  0.250
tot    0.076  0.140  0.140  0.109  0.000  0.000  0.000  0.000  0.000  0.465
 
band     4 # energy    4.47758828 # occ.  2.00000000
 
ion      s     py     pz     px    dxy    dyz    dz2    dxz  x2-y2    tot
    1  0.007  0.066  0.066  0.069  0.000  0.000  0.000  0.000  0.000  0.208
    2  0.000  0.056  0.056  0.157  0.000  0.000  0.000  0.000  0.000  0.269
tot    0.008  0.122  0.122  0.226  0.000  0.000  0.000  0.000  0.000  0.477
 
band     5 # energy   13.04709420 # occ.  0.00000000
 
ion      s     py     pz     px    dxy    dyz    dz2    dxz  x2-y2    tot
    1  0.021  0.007  0.007  0.005  0.000  0.000  0.000  0.000  0.000  0.040
    2  0.000  0.005  0.005  0.221  0.000  0.000  0.000  0.000  0.000  0.231
tot    0.021  0.012  0.012  0.226  0.000  0.000  0.000  0.000  0.000  0.270
 
band     6 # energy   16.02644511 # occ.  0.00000000
 
ion      s     py     pz     px    dxy    dyz    dz2    dxz  x2-y2    tot
    1  0.075  0.067  0.067  0.047  0.000  0.000  0.000  0.000  0.000  0.256
    2  0.087  0.028  0.028  0.001  0.000  0.000  0.000  0.000  0.000  0.144
tot    0.162  0.095  0.095  0.048  0.000  0.000  0.000  0.000  0.000  0.400
 
band     7 # energy   17.87007733 # occ.  0.00000000
 
ion      s     py     pz     px    dxy    dyz    dz2    dxz  x2-y2    tot
    1  0.156  0.018  0.018  0.036  0.000  0.000  0.000  0.000  0.000  0.227
    2  0.001  0.128  0.128  0.036  0.000  0.000  0.000  0.000  0.000  0.292
tot    0.157  0.145  0.145  0.071  0.000  0.000  0.000  0.000  0.000  0.520
 
band     8 # energy   18.92791871 # occ.  0.00000000
 
ion      s     py     pz     px    dxy    dyz    dz2    dxz  x2-y2    tot
    1  0.012  0.042  0.042  0.024  0.000  0.000  0.000  0.000  0.000  0.119
    2  0.018  0.063  0.063  0.001  0.000  0.000  0.000  0.000  0.000  0.144
tot    0.029  0.105  0.105  0.025  0.000  0.000  0.000  0.000  0.000  0.264
 

 k-point    96 :    0.50000000 0.30263158 0.69736842     weight = 0.00416667

band     1 # energy   -2.45367434 # occ.  2.00000000
 
ion      s     py     pz     px    dxy    dyz    dz2    dxz  x2-y2    tot
    1  0.037  0.050  0.050  0.005  0.000  0.000  0.000  0.000  0.000  0.142
    2  0.425  0.002  0.002  0.000  0.000  0.000  0.000  0.000  0.000  0.429
tot    0.462  0.052  0.052  0.005  0.000  0.000  0.000  0.000  0.000  0.571
 
band     2 # energy    0.87101011 # occ.  2.00000000
 
ion      s     py     pz     px    dxy    dyz    dz2    dxz  x2-y2    tot
    1  0.325  0.017  0.017  0.008  0.000  0.000  0.000  0.000  0.000  0.366
    2  0.016  0.077  0.077  0.023  0.000  0.000  0.000  0.000  0.000  0.193
tot    0.341  0.094  0.094  0.031  0.000  0.000  0.000  0.000  0.000  0.559
 
band     3 # energy    2.85411519 # occ.  2.00000000
 
ion      s     py     pz     px    dxy    dyz    dz2    dxz  x2-y2    tot
    1  0.039  0.041  0.041  0.085  0.000  0.000  0.000  0.000  0.000  0.206
    2  0.011  0.094  0.094  0.043  0.000  0.000  0.000  0.000  0.000  0.242
tot    0.050  0.135  0.135  0.128  0.000  0.000  0.000  0.000  0.000  0.448
 
band     4 # energy    4.19449992 # occ.  2.00000000
 
ion      s     py     pz     px    dxy    dyz    dz2    dxz  x2-y2    tot
    1  0.007  0.069  0.069  0.065  0.000  0.000  0.000  0.000  0.000  0.210
    2  0.000  0.053  0.053  0.152  0.000  0.000  0.000  0.000  0.000  0.258
tot    0.007  0.121  0.121  0.217  0.000  0.000  0.000  0.000  0.000  0.468
 
band     5 # energy   13.06540496 # occ.  0.00000000
 
ion      s     py     pz     px    dxy    dyz    dz2    dxz  x2-y2    tot
    1  0.014  0.006  0.006  0.004  0.000  0.000  0.000  0.000  0.000  0.029
    2  0.000  0.003  0.003  0.237  0.000  0.000  0.000  0.000  0.000  0.243
tot    0.014  0.009  0.009  0.241  0.000  0.000  0.000  0.000  0.000  0.272
 
band     6 # energy   16.26616689 # occ.  0.00000000
 
ion      s     py     pz     px    dxy    dyz    dz2    dxz  x2-y2    tot
    1  0.074  0.069  0.069  0.044  0.000  0.000  0.000  0.000  0.000  0.255
    2  0.083  0.031  0.031  0.000  0.000  0.000  0.000  0.000  0.000  0.146
tot    0.157  0.100  0.100  0.045  0.000  0.000  0.000  0.000  0.000  0.402
 
band     7 # energy   17.70480311 # occ.  0.00000000
 
ion      s     py     pz     px    dxy    dyz    dz2    dxz  x2-y2    tot
    1  0.161  0.016  0.016  0.038  0.000  0.000  0.000  0.000  0.000  0.231
    2  0.002  0.124  0.124  0.024  0.000  0.000  0.000  0.000  0.000  0.275
tot    0.163  0.140  0.140  0.062  0.000  0.000  0.000  0.000  0.000  0.505
 
band     8 # energy   18.65327414 # occ.  0.00000000
 
ion      s     py     pz     px    dxy    dyz    dz2    dxz  x2-y2    tot
    1  0.013  0.047  0.047  0.044  0.000  0.000  0.000  0.000  0.000  0.151
    2  0.026  0.050  0.050  0.001  0.000  0.000  0.000  0.000  0.000  0.127
tot    0.040  0.097  0.097  0.045  0.000  0.000  0.000  0.000  0.000  0.278
 

 k-point    97 :    0.50000000 0.28947368 0.71052632     weight = 0.00416667

band     1 # energy   -2.34106115 # occ.  2.00000000
 
ion      s     py     pz     px    dxy    dyz    dz2    dxz  x2-y2    tot
    1  0.024  0.053  0.053  0.003  0.000  0.000  0.000  0.000  0.000  0.133
    2  0.436  0.002  0.002  0.000  0.000  0.000  0.000  0.000  0.000  0.439
tot    0.459  0.055  0.055  0.003  0.000  0.000  0.000  0.000  0.000  0.572
 
band     2 # energy    0.92407960 # occ.  2.00000000
 
ion      s     py     pz     px    dxy    dyz    dz2    dxz  x2-y2    tot
    1  0.362  0.010  0.010  0.003  0.000  0.000  0.000  0.000  0.000  0.386
    2  0.012  0.083  0.083  0.014  0.000  0.000  0.000  0.000  0.000  0.192
tot    0.374  0.093  0.093  0.017  0.000  0.000  0.000  0.000  0.000  0.578
 
band     3 # energy    2.80648157 # occ.  2.00000000
 
ion      s     py     pz     px    dxy    dyz    dz2    dxz  x2-y2    tot
    1  0.020  0.040  0.040  0.095  0.000  0.000  0.000  0.000  0.000  0.196
    2  0.005  0.091  0.091  0.050  0.000  0.000  0.000  0.000  0.000  0.237
tot    0.025  0.131  0.131  0.145  0.000  0.000  0.000  0.000  0.000  0.433
 
band     4 # energy    3.91942545 # occ.  2.00000000
 
ion      s     py     pz     px    dxy    dyz    dz2    dxz  x2-y2    tot
    1  0.006  0.073  0.073  0.060  0.000  0.000  0.000  0.000  0.000  0.212
    2  0.000  0.048  0.048  0.150  0.000  0.000  0.000  0.000  0.000  0.247
tot    0.006  0.121  0.121  0.210  0.000  0.000  0.000  0.000  0.000  0.458
 
band     5 # energy   13.08785311 # occ.  0.00000000
 
ion      s     py     pz     px    dxy    dyz    dz2    dxz  x2-y2    tot
    1  0.008  0.004  0.004  0.002  0.000  0.000  0.000  0.000  0.000  0.020
    2  0.000  0.002  0.002  0.250  0.000  0.000  0.000  0.000  0.000  0.254
tot    0.008  0.006  0.006  0.253  0.000  0.000  0.000  0.000  0.000  0.274
 
band     6 # energy   16.51741354 # occ.  0.00000000
 
ion      s     py     pz     px    dxy    dyz    dz2    dxz  x2-y2    tot
    1  0.075  0.070  0.070  0.039  0.000  0.000  0.000  0.000  0.000  0.254
    2  0.080  0.036  0.036  0.000  0.000  0.000  0.000  0.000  0.000  0.151
tot    0.154  0.106  0.106  0.040  0.000  0.000  0.000  0.000  0.000  0.405
 
band     7 # energy   17.56292245 # occ.  0.00000000
 
ion      s     py     pz     px    dxy    dyz    dz2    dxz  x2-y2    tot
    1  0.165  0.016  0.016  0.039  0.000  0.000  0.000  0.000  0.000  0.236
    2  0.004  0.121  0.121  0.014  0.000  0.000  0.000  0.000  0.000  0.260
tot    0.169  0.136  0.136  0.053  0.000  0.000  0.000  0.000  0.000  0.496
 
band     8 # energy   18.35296832 # occ.  0.00000000
 
ion      s     py     pz     px    dxy    dyz    dz2    dxz  x2-y2    tot
    1  0.014  0.048  0.048  0.062  0.000  0.000  0.000  0.000  0.000  0.170
    2  0.031  0.041  0.041  0.001  0.000  0.000  0.000  0.000  0.000  0.114
tot    0.045  0.089  0.089  0.062  0.000  0.000  0.000  0.000  0.000  0.284
 

 k-point    98 :    0.50000000 0.27631579 0.72368421     weight = 0.00416667

band     1 # energy   -2.25206117 # occ.  2.00000000
 
ion      s     py     pz     px    dxy    dyz    dz2    dxz  x2-y2    tot
    1  0.011  0.057  0.057  0.001  0.000  0.000  0.000  0.000  0.000  0.126
    2  0.446  0.001  0.001  0.000  0.000  0.000  0.000  0.000  0.000  0.447
tot    0.457  0.057  0.057  0.001  0.000  0.000  0.000  0.000  0.000  0.573
 
band     2 # energy    0.94387746 # occ.  2.00000000
 
ion      s     py     pz     px    dxy    dyz    dz2    dxz  x2-y2    tot
    1  0.391  0.005  0.005  0.001  0.000  0.000  0.000  0.000  0.000  0.402
    2  0.007  0.088  0.088  0.006  0.000  0.000  0.000  0.000  0.000  0.188
tot    0.398  0.093  0.093  0.007  0.000  0.000  0.000  0.000  0.000  0.590
 
band     3 # energy    2.84274100 # occ.  2.00000000
 
ion      s     py     pz     px    dxy    dyz    dz2    dxz  x2-y2    tot
    1  0.007  0.037  0.037  0.107  0.000  0.000  0.000  0.000  0.000  0.187
    2  0.002  0.092  0.092  0.051  0.000  0.000  0.000  0.000  0.000  0.237
tot    0.009  0.129  0.129  0.159  0.000  0.000  0.000  0.000  0.000  0.424
 
band     4 # energy    3.66043344 # occ.  2.00000000
 
ion      s     py     pz     px    dxy    dyz    dz2    dxz  x2-y2    tot
    1  0.004  0.079  0.079  0.052  0.000  0.000  0.000  0.000  0.000  0.215
    2  0.000  0.041  0.041  0.153  0.000  0.000  0.000  0.000  0.000  0.236
tot    0.004  0.121  0.121  0.205  0.000  0.000  0.000  0.000  0.000  0.450
 
band     5 # energy   13.10883808 # occ.  0.00000000
 
ion      s     py     pz     px    dxy    dyz    dz2    dxz  x2-y2    tot
    1  0.004  0.004  0.004  0.001  0.000  0.000  0.000  0.000  0.000  0.012
    2  0.000  0.001  0.001  0.261  0.000  0.000  0.000  0.000  0.000  0.263
tot    0.004  0.005  0.005  0.262  0.000  0.000  0.000  0.000  0.000  0.275
 
band     6 # energy   16.77709090 # occ.  0.00000000
 
ion      s     py     pz     px    dxy    dyz    dz2    dxz  x2-y2    tot
    1  0.080  0.072  0.072  0.031  0.000  0.000  0.000  0.000  0.000  0.255
    2  0.076  0.042  0.042  0.000  0.000  0.000  0.000  0.000  0.000  0.160
tot    0.156  0.114  0.114  0.031  0.000  0.000  0.000  0.000  0.000  0.415
 
band     7 # energy   17.45144113 # occ.  0.00000000
 
ion      s     py     pz     px    dxy    dyz    dz2    dxz  x2-y2    tot
    1  0.167  0.019  0.019  0.037  0.000  0.000  0.000  0.000  0.000  0.242
    2  0.009  0.117  0.117  0.006  0.000  0.000  0.000  0.000  0.000  0.249
tot    0.176  0.136  0.136  0.043  0.000  0.000  0.000  0.000  0.000  0.491
 
band     8 # energy   18.05361005 # occ.  0.00000000
 
ion      s     py     pz     px    dxy    dyz    dz2    dxz  x2-y2    tot
    1  0.011  0.043  0.043  0.082  0.000  0.000  0.000  0.000  0.000  0.179
    2  0.032  0.034  0.034  0.000  0.000  0.000  0.000  0.000  0.000  0.101
tot    0.043  0.077  0.077  0.082  0.000  0.000  0.000  0.000  0.000  0.280
 

 k-point    99 :    0.50000000 0.26315789 0.73684211     weight = 0.00416667

band     1 # energy   -2.19455069 # occ.  2.00000000
 
ion      s     py     pz     px    dxy    dyz    dz2    dxz  x2-y2    tot
    1  0.003  0.059  0.059  0.000  0.000  0.000  0.000  0.000  0.000  0.121
    2  0.453  0.000  0.000  0.000  0.000  0.000  0.000  0.000  0.000  0.453
tot    0.456  0.059  0.059  0.000  0.000  0.000  0.000  0.000  0.000  0.574
 
band     2 # energy    0.94485869 # occ.  2.00000000
 
ion      s     py     pz     px    dxy    dyz    dz2    dxz  x2-y2    tot
    1  0.409  0.001  0.001  0.000  0.000  0.000  0.000  0.000  0.000  0.412
    2  0.002  0.091  0.091  0.002  0.000  0.000  0.000  0.000  0.000  0.185
tot    0.411  0.092  0.092  0.002  0.000  0.000  0.000  0.000  0.000  0.597
 
band     3 # energy    2.94167587 # occ.  2.00000000
 
ion      s     py     pz     px    dxy    dyz    dz2    dxz  x2-y2    tot
    1  0.001  0.024  0.024  0.128  0.000  0.000  0.000  0.000  0.000  0.176
    2  0.000  0.104  0.104  0.036  0.000  0.000  0.000  0.000  0.000  0.245
tot    0.001  0.128  0.128  0.164  0.000  0.000  0.000  0.000  0.000  0.421
 
band     4 # energy    3.43400038 # occ.  2.00000000
 
ion      s     py     pz     px    dxy    dyz    dz2    dxz  x2-y2    tot
    1  0.001  0.094  0.094  0.033  0.000  0.000  0.000  0.000  0.000  0.222
    2  0.000  0.026  0.026  0.171  0.000  0.000  0.000  0.000  0.000  0.223
tot    0.002  0.120  0.120  0.204  0.000  0.000  0.000  0.000  0.000  0.445
 
band     5 # energy   13.12359598 # occ.  0.00000000
 
ion      s     py     pz     px    dxy    dyz    dz2    dxz  x2-y2    tot
    1  0.001  0.003  0.003  0.000  0.000  0.000  0.000  0.000  0.000  0.008
    2  0.000  0.000  0.000  0.267  0.000  0.000  0.000  0.000  0.000  0.268
tot    0.001  0.004  0.004  0.268  0.000  0.000  0.000  0.000  0.000  0.276
 
band     6 # energy   17.03562032 # occ.  0.00000000
 
ion      s     py     pz     px    dxy    dyz    dz2    dxz  x2-y2    tot
    1  0.098  0.072  0.072  0.016  0.000  0.000  0.000  0.000  0.000  0.259
    2  0.071  0.056  0.056  0.000  0.000  0.000  0.000  0.000  0.000  0.183
tot    0.169  0.128  0.128  0.016  0.000  0.000  0.000  0.000  0.000  0.441
 
band     7 # energy   17.36735889 # occ.  0.00000000
 
ion      s     py     pz     px    dxy    dyz    dz2    dxz  x2-y2    tot
    1  0.159  0.035  0.035  0.023  0.000  0.000  0.000  0.000  0.000  0.253
    2  0.025  0.106  0.106  0.001  0.000  0.000  0.000  0.000  0.000  0.238
tot    0.184  0.141  0.141  0.025  0.000  0.000  0.000  0.000  0.000  0.491
 
band     8 # energy   17.78336350 # occ.  0.00000000
 
ion      s     py     pz     px    dxy    dyz    dz2    dxz  x2-y2    tot
    1  0.004  0.027  0.027  0.116  0.000  0.000  0.000  0.000  0.000  0.173
    2  0.022  0.029  0.029  0.000  0.000  0.000  0.000  0.000  0.000  0.080
tot    0.026  0.056  0.056  0.116  0.000  0.000  0.000  0.000  0.000  0.253
 

 k-point   100 :    0.50000000 0.25000000 0.75000000     weight = 0.00416667

band     1 # energy   -2.17461209 # occ.  2.00000000
 
ion      s     py     pz     px    dxy    dyz    dz2    dxz  x2-y2    tot
    1  0.000  0.059  0.059  0.000  0.000  0.000  0.000  0.000  0.000  0.119
    2  0.456  0.000  0.000  0.000  0.000  0.000  0.000  0.000  0.000  0.456
tot    0.456  0.059  0.059  0.000  0.000  0.000  0.000  0.000  0.000  0.575
 
band     2 # energy    0.94295872 # occ.  2.00000000
 
ion      s     py     pz     px    dxy    dyz    dz2    dxz  x2-y2    tot
    1  0.415  0.000  0.000  0.000  0.000  0.000  0.000  0.000  0.000  0.415
    2  0.000  0.092  0.092  0.000  0.000  0.000  0.000  0.000  0.000  0.184
tot    0.415  0.092  0.092  0.000  0.000  0.000  0.000  0.000  0.000  0.599
 
band     3 # energy    3.02153619 # occ.  2.00000000
 
ion      s     py     pz     px    dxy    dyz    dz2    dxz  x2-y2    tot
    1  0.000  0.000  0.000  0.161  0.000  0.000  0.000  0.000  0.000  0.161
    2  0.000  0.129  0.129  0.000  0.000  0.000  0.000  0.000  0.000  0.257
tot    0.000  0.129  0.129  0.161  0.000  0.000  0.000  0.000  0.000  0.418
 
band     4 # energy    3.31298196 # occ.  2.00000000
 
ion      s     py     pz     px    dxy    dyz    dz2    dxz  x2-y2    tot
    1  0.000  0.118  0.118  0.000  0.000  0.000  0.000  0.000  0.000  0.237
    2  0.000  0.000  0.000  0.208  0.000  0.000  0.000  0.000  0.000  0.208
tot    0.000  0.118  0.118  0.208  0.000  0.000  0.000  0.000  0.000  0.445
 
band     5 # energy   13.12889887 # occ.  0.00000000
 
ion      s     py     pz     px    dxy    dyz    dz2    dxz  x2-y2    tot
    1  0.000  0.003  0.003  0.000  0.000  0.000  0.000  0.000  0.000  0.006
    2  0.000  0.000  0.000  0.270  0.000  0.000  0.000  0.000  0.000  0.270
tot    0.000  0.003  0.003  0.270  0.000  0.000  0.000  0.000  0.000  0.276
 
band     6 # energy   17.24239017 # occ.  0.00000000
 
ion      s     py     pz     px    dxy    dyz    dz2    dxz  x2-y2    tot
    1  0.262  0.000  0.000  0.000  0.000  0.000  0.000  0.000  0.000  0.262
    2  0.000  0.160  0.160  0.000  0.000  0.000  0.000  0.000  0.000  0.319
tot    0.262  0.160  0.160  0.000  0.000  0.000  0.000  0.000  0.000  0.581
 
band     7 # energy   17.26673548 # occ.  0.00000000
 
ion      s     py     pz     px    dxy    dyz    dz2    dxz  x2-y2    tot
    1  0.000  0.135  0.135  0.000  0.000  0.000  0.000  0.000  0.000  0.269
    2  0.118  0.000  0.000  0.000  0.000  0.000  0.000  0.000  0.000  0.118
tot    0.118  0.135  0.135  0.000  0.000  0.000  0.000  0.000  0.000  0.388
 
band     8 # energy   17.64443727 # occ.  0.00000000
 
ion      s     py     pz     px    dxy    dyz    dz2    dxz  x2-y2    tot
    1  0.000  0.000  0.000  0.156  0.000  0.000  0.000  0.000  0.000  0.156
    2  0.000  0.031  0.031  0.000  0.000  0.000  0.000  0.000  0.000  0.061
tot    0.000  0.031  0.031  0.156  0.000  0.000  0.000  0.000  0.000  0.217
 

 k-point   101 :    0.50000000 0.25000000 0.75000000     weight = 0.00416667

band     1 # energy   -2.17461209 # occ.  2.00000000
 
ion      s     py     pz     px    dxy    dyz    dz2    dxz  x2-y2    tot
    1  0.000  0.059  0.059  0.000  0.000  0.000  0.000  0.000  0.000  0.119
    2  0.456  0.000  0.000  0.000  0.000  0.000  0.000  0.000  0.000  0.456
tot    0.456  0.059  0.059  0.000  0.000  0.000  0.000  0.000  0.000  0.575
 
band     2 # energy    0.94295872 # occ.  2.00000000
 
ion      s     py     pz     px    dxy    dyz    dz2    dxz  x2-y2    tot
    1  0.415  0.000  0.000  0.000  0.000  0.000  0.000  0.000  0.000  0.415
    2  0.000  0.092  0.092  0.000  0.000  0.000  0.000  0.000  0.000  0.184
tot    0.415  0.092  0.092  0.000  0.000  0.000  0.000  0.000  0.000  0.599
 
band     3 # energy    3.02153619 # occ.  2.00000000
 
ion      s     py     pz     px    dxy    dyz    dz2    dxz  x2-y2    tot
    1  0.000  0.000  0.000  0.161  0.000  0.000  0.000  0.000  0.000  0.161
    2  0.000  0.129  0.129  0.000  0.000  0.000  0.000  0.000  0.000  0.257
tot    0.000  0.129  0.129  0.161  0.000  0.000  0.000  0.000  0.000  0.418
 
band     4 # energy    3.31298196 # occ.  2.00000000
 
ion      s     py     pz     px    dxy    dyz    dz2    dxz  x2-y2    tot
    1  0.000  0.118  0.118  0.000  0.000  0.000  0.000  0.000  0.000  0.237
    2  0.000  0.000  0.000  0.208  0.000  0.000  0.000  0.000  0.000  0.208
tot    0.000  0.118  0.118  0.208  0.000  0.000  0.000  0.000  0.000  0.445
 
band     5 # energy   13.12889887 # occ.  0.00000000
 
ion      s     py     pz     px    dxy    dyz    dz2    dxz  x2-y2    tot
    1  0.000  0.003  0.003  0.000  0.000  0.000  0.000  0.000  0.000  0.006
    2  0.000  0.000  0.000  0.270  0.000  0.000  0.000  0.000  0.000  0.270
tot    0.000  0.003  0.003  0.270  0.000  0.000  0.000  0.000  0.000  0.276
 
band     6 # energy   17.24239008 # occ.  0.00000000
 
ion      s     py     pz     px    dxy    dyz    dz2    dxz  x2-y2    tot
    1  0.262  0.000  0.000  0.000  0.000  0.000  0.000  0.000  0.000  0.262
    2  0.000  0.160  0.160  0.000  0.000  0.000  0.000  0.000  0.000  0.319
tot    0.262  0.160  0.160  0.000  0.000  0.000  0.000  0.000  0.000  0.581
 
band     7 # energy   17.26673540 # occ.  0.00000000
 
ion      s     py     pz     px    dxy    dyz    dz2    dxz  x2-y2    tot
    1  0.000  0.135  0.135  0.000  0.000  0.000  0.000  0.000  0.000  0.269
    2  0.118  0.000  0.000  0.000  0.000  0.000  0.000  0.000  0.000  0.118
tot    0.118  0.135  0.135  0.000  0.000  0.000  0.000  0.000  0.000  0.388
 
band     8 # energy   17.64443709 # occ.  0.00000000
 
ion      s     py     pz     px    dxy    dyz    dz2    dxz  x2-y2    tot
    1  0.000  0.000  0.000  0.156  0.000  0.000  0.000  0.000  0.000  0.156
    2  0.000  0.031  0.031  0.000  0.000  0.000  0.000  0.000  0.000  0.061
tot    0.000  0.031  0.031  0.156  0.000  0.000  0.000  0.000  0.000  0.217
 

 k-point   102 :    0.50000000 0.23684211 0.73684211     weight = 0.00416667

band     1 # energy   -2.17628898 # occ.  2.00000000
 
ion      s     py     pz     px    dxy    dyz    dz2    dxz  x2-y2    tot
    1  0.000  0.066  0.053  0.000  0.000  0.000  0.000  0.000  0.000  0.119
    2  0.455  0.000  0.000  0.000  0.000  0.000  0.000  0.000  0.000  0.455
tot    0.455  0.066  0.053  0.000  0.000  0.000  0.000  0.000  0.000  0.574
 
band     2 # energy    0.93472202 # occ.  2.00000000
 
ion      s     py     pz     px    dxy    dyz    dz2    dxz  x2-y2    tot
    1  0.413  0.000  0.000  0.000  0.000  0.000  0.000  0.000  0.000  0.413
    2  0.000  0.108  0.076  0.000  0.000  0.000  0.000  0.000  0.000  0.184
tot    0.413  0.108  0.076  0.000  0.000  0.000  0.000  0.000  0.000  0.598
 
band     3 # energy    3.03533590 # occ.  2.00000000
 
ion      s     py     pz     px    dxy    dyz    dz2    dxz  x2-y2    tot
    1  0.001  0.000  0.000  0.161  0.000  0.000  0.000  0.000  0.000  0.162
    2  0.000  0.109  0.148  0.000  0.000  0.000  0.000  0.000  0.000  0.258
tot    0.001  0.109  0.148  0.161  0.000  0.000  0.000  0.000  0.000  0.420
 
band     4 # energy    3.32082291 # occ.  2.00000000
 
ion      s     py     pz     px    dxy    dyz    dz2    dxz  x2-y2    tot
    1  0.000  0.111  0.126  0.000  0.000  0.000  0.000  0.000  0.000  0.236
    2  0.000  0.000  0.000  0.208  0.000  0.000  0.000  0.000  0.000  0.209
tot    0.000  0.111  0.126  0.208  0.000  0.000  0.000  0.000  0.000  0.445
 
band     5 # energy   13.08750778 # occ.  0.00000000
 
ion      s     py     pz     px    dxy    dyz    dz2    dxz  x2-y2    tot
    1  0.000  0.009  0.000  0.000  0.000  0.000  0.000  0.000  0.000  0.009
    2  0.002  0.000  0.000  0.265  0.000  0.000  0.000  0.000  0.000  0.267
tot    0.002  0.009  0.000  0.265  0.000  0.000  0.000  0.000  0.000  0.276
 
band     6 # energy   16.98688440 # occ.  0.00000000
 
ion      s     py     pz     px    dxy    dyz    dz2    dxz  x2-y2    tot
    1  0.193  0.000  0.000  0.043  0.000  0.000  0.000  0.000  0.000  0.236
    2  0.000  0.062  0.172  0.000  0.000  0.000  0.000  0.000  0.000  0.234
tot    0.193  0.062  0.172  0.043  0.000  0.000  0.000  0.000  0.000  0.471
 
band     7 # energy   17.31261756 # occ.  0.00000000
 
ion      s     py     pz     px    dxy    dyz    dz2    dxz  x2-y2    tot
    1  0.000  0.126  0.141  0.000  0.000  0.000  0.000  0.000  0.000  0.267
    2  0.116  0.000  0.000  0.005  0.000  0.000  0.000  0.000  0.000  0.121
tot    0.116  0.126  0.141  0.005  0.000  0.000  0.000  0.000  0.000  0.388
 
band     8 # energy   17.90209115 # occ.  0.00000000
 
ion      s     py     pz     px    dxy    dyz    dz2    dxz  x2-y2    tot
    1  0.069  0.000  0.000  0.113  0.000  0.000  0.000  0.000  0.000  0.181
    2  0.000  0.142  0.005  0.000  0.000  0.000  0.000  0.000  0.000  0.147
tot    0.069  0.142  0.005  0.113  0.000  0.000  0.000  0.000  0.000  0.328
 

 k-point   103 :    0.50000000 0.22368421 0.72368421     weight = 0.00416667

band     1 # energy   -2.18126302 # occ.  2.00000000
 
ion      s     py     pz     px    dxy    dyz    dz2    dxz  x2-y2    tot
    1  0.000  0.072  0.047  0.000  0.000  0.000  0.000  0.000  0.000  0.119
    2  0.455  0.000  0.000  0.000  0.000  0.000  0.000  0.000  0.000  0.455
tot    0.455  0.072  0.047  0.000  0.000  0.000  0.000  0.000  0.000  0.574
 
band     2 # energy    0.91078454 # occ.  2.00000000
 
ion      s     py     pz     px    dxy    dyz    dz2    dxz  x2-y2    tot
    1  0.409  0.000  0.000  0.001  0.000  0.000  0.000  0.000  0.000  0.410
    2  0.000  0.123  0.062  0.000  0.000  0.000  0.000  0.000  0.000  0.184
tot    0.409  0.123  0.062  0.001  0.000  0.000  0.000  0.000  0.000  0.594
 
band     3 # energy    3.07588525 # occ.  2.00000000
 
ion      s     py     pz     px    dxy    dyz    dz2    dxz  x2-y2    tot
    1  0.005  0.000  0.000  0.161  0.000  0.000  0.000  0.000  0.000  0.166
    2  0.000  0.091  0.167  0.000  0.000  0.000  0.000  0.000  0.000  0.258
tot    0.005  0.091  0.167  0.161  0.000  0.000  0.000  0.000  0.000  0.424
 
band     4 # energy    3.34423071 # occ.  2.00000000
 
ion      s     py     pz     px    dxy    dyz    dz2    dxz  x2-y2    tot
    1  0.000  0.103  0.133  0.000  0.000  0.000  0.000  0.000  0.000  0.236
    2  0.001  0.000  0.000  0.209  0.000  0.000  0.000  0.000  0.000  0.210
tot    0.001  0.103  0.133  0.209  0.000  0.000  0.000  0.000  0.000  0.446
 
band     5 # energy   12.96886100 # occ.  0.00000000
 
ion      s     py     pz     px    dxy    dyz    dz2    dxz  x2-y2    tot
    1  0.000  0.016  0.000  0.000  0.000  0.000  0.000  0.000  0.000  0.017
    2  0.007  0.000  0.000  0.252  0.000  0.000  0.000  0.000  0.000  0.259
tot    0.007  0.016  0.000  0.252  0.000  0.000  0.000  0.000  0.000  0.276
 
band     6 # energy   16.60313119 # occ.  0.00000000
 
ion      s     py     pz     px    dxy    dyz    dz2    dxz  x2-y2    tot
    1  0.173  0.000  0.000  0.057  0.000  0.000  0.000  0.000  0.000  0.230
    2  0.000  0.044  0.151  0.000  0.000  0.000  0.000  0.000  0.000  0.195
tot    0.173  0.044  0.151  0.057  0.000  0.000  0.000  0.000  0.000  0.425
 
band     7 # energy   17.44466440 # occ.  0.00000000
 
ion      s     py     pz     px    dxy    dyz    dz2    dxz  x2-y2    tot
    1  0.000  0.115  0.145  0.000  0.000  0.000  0.000  0.000  0.000  0.259
    2  0.111  0.000  0.000  0.019  0.000  0.000  0.000  0.000  0.000  0.129
tot    0.111  0.115  0.145  0.019  0.000  0.000  0.000  0.000  0.000  0.389
 
band     8 # energy   18.29213349 # occ.  0.00000000
 
ion      s     py     pz     px    dxy    dyz    dz2    dxz  x2-y2    tot
    1  0.090  0.000  0.000  0.097  0.000  0.000  0.000  0.000  0.000  0.187
    2  0.000  0.177  0.013  0.000  0.000  0.000  0.000  0.000  0.000  0.190
tot    0.090  0.177  0.013  0.097  0.000  0.000  0.000  0.000  0.000  0.377
 

 k-point   104 :    0.50000000 0.21052632 0.71052632     weight = 0.00416667

band     1 # energy   -2.18936793 # occ.  2.00000000
 
ion      s     py     pz     px    dxy    dyz    dz2    dxz  x2-y2    tot
    1  0.000  0.078  0.041  0.000  0.000  0.000  0.000  0.000  0.000  0.120
    2  0.454  0.000  0.000  0.000  0.000  0.000  0.000  0.000  0.000  0.454
tot    0.454  0.078  0.041  0.000  0.000  0.000  0.000  0.000  0.000  0.574
 
band     2 # energy    0.87325376 # occ.  2.00000000
 
ion      s     py     pz     px    dxy    dyz    dz2    dxz  x2-y2    tot
    1  0.403  0.000  0.000  0.001  0.000  0.000  0.000  0.000  0.000  0.405
    2  0.000  0.136  0.049  0.000  0.000  0.000  0.000  0.000  0.000  0.185
tot    0.403  0.136  0.049  0.001  0.000  0.000  0.000  0.000  0.000  0.589
 
band     3 # energy    3.14085314 # occ.  2.00000000
 
ion      s     py     pz     px    dxy    dyz    dz2    dxz  x2-y2    tot
    1  0.009  0.000  0.000  0.162  0.000  0.000  0.000  0.000  0.000  0.171
    2  0.000  0.075  0.184  0.000  0.000  0.000  0.000  0.000  0.000  0.259
tot    0.009  0.075  0.184  0.162  0.000  0.000  0.000  0.000  0.000  0.430
 
band     4 # energy    3.38286207 # occ.  2.00000000
 
ion      s     py     pz     px    dxy    dyz    dz2    dxz  x2-y2    tot
    1  0.000  0.095  0.140  0.000  0.000  0.000  0.000  0.000  0.000  0.235
    2  0.001  0.000  0.000  0.211  0.000  0.000  0.000  0.000  0.000  0.212
tot    0.001  0.095  0.140  0.211  0.000  0.000  0.000  0.000  0.000  0.448
 
band     5 # energy   12.78673155 # occ.  0.00000000
 
ion      s     py     pz     px    dxy    dyz    dz2    dxz  x2-y2    tot
    1  0.000  0.025  0.002  0.000  0.000  0.000  0.000  0.000  0.000  0.027
    2  0.014  0.000  0.000  0.234  0.000  0.000  0.000  0.000  0.000  0.248
tot    0.014  0.025  0.002  0.234  0.000  0.000  0.000  0.000  0.000  0.275
 
band     6 # energy   16.21078111 # occ.  0.00000000
 
ion      s     py     pz     px    dxy    dyz    dz2    dxz  x2-y2    tot
    1  0.169  0.000  0.000  0.060  0.000  0.000  0.000  0.000  0.000  0.230
    2  0.000  0.038  0.135  0.000  0.000  0.000  0.000  0.000  0.000  0.173
tot    0.169  0.038  0.135  0.060  0.000  0.000  0.000  0.000  0.000  0.403
 
band     7 # energy   17.64886124 # occ.  0.00000000
 
ion      s     py     pz     px    dxy    dyz    dz2    dxz  x2-y2    tot
    1  0.000  0.104  0.146  0.000  0.000  0.000  0.000  0.000  0.000  0.250
    2  0.103  0.000  0.000  0.038  0.000  0.000  0.000  0.000  0.000  0.141
tot    0.103  0.104  0.146  0.038  0.000  0.000  0.000  0.000  0.000  0.391
 
band     8 # energy   18.69437621 # occ.  0.00000000
 
ion      s     py     pz     px    dxy    dyz    dz2    dxz  x2-y2    tot
    1  0.095  0.000  0.000  0.090  0.000  0.000  0.000  0.000  0.000  0.185
    2  0.000  0.200  0.018  0.000  0.000  0.000  0.000  0.000  0.000  0.218
tot    0.095  0.200  0.018  0.090  0.000  0.000  0.000  0.000  0.000  0.403
 

 k-point   105 :    0.50000000 0.19736842 0.69736842     weight = 0.00416667

band     1 # energy   -2.20031083 # occ.  2.00000000
 
ion      s     py     pz     px    dxy    dyz    dz2    dxz  x2-y2    tot
    1  0.000  0.085  0.036  0.000  0.000  0.000  0.000  0.000  0.000  0.121
    2  0.452  0.000  0.000  0.000  0.000  0.000  0.000  0.000  0.000  0.452
tot    0.452  0.085  0.036  0.000  0.000  0.000  0.000  0.000  0.000  0.573
 
band     2 # energy    0.82503540 # occ.  2.00000000
 
ion      s     py     pz     px    dxy    dyz    dz2    dxz  x2-y2    tot
    1  0.396  0.000  0.000  0.002  0.000  0.000  0.000  0.000  0.000  0.398
    2  0.000  0.147  0.038  0.000  0.000  0.000  0.000  0.000  0.000  0.185
tot    0.396  0.147  0.038  0.002  0.000  0.000  0.000  0.000  0.000  0.583
 
band     3 # energy    3.22695599 # occ.  2.00000000
 
ion      s     py     pz     px    dxy    dyz    dz2    dxz  x2-y2    tot
    1  0.014  0.000  0.000  0.163  0.000  0.000  0.000  0.000  0.000  0.177
    2  0.000  0.062  0.199  0.000  0.000  0.000  0.000  0.000  0.000  0.260
tot    0.014  0.062  0.199  0.163  0.000  0.000  0.000  0.000  0.000  0.438
 
band     4 # energy    3.43615073 # occ.  2.00000000
 
ion      s     py     pz     px    dxy    dyz    dz2    dxz  x2-y2    tot
    1  0.000  0.087  0.147  0.000  0.000  0.000  0.000  0.000  0.000  0.234
    2  0.002  0.000  0.000  0.214  0.000  0.000  0.000  0.000  0.000  0.216
tot    0.002  0.087  0.147  0.214  0.000  0.000  0.000  0.000  0.000  0.450
 
band     5 # energy   12.55759699 # occ.  0.00000000
 
ion      s     py     pz     px    dxy    dyz    dz2    dxz  x2-y2    tot
    1  0.000  0.032  0.005  0.000  0.000  0.000  0.000  0.000  0.000  0.038
    2  0.022  0.000  0.000  0.214  0.000  0.000  0.000  0.000  0.000  0.236
tot    0.022  0.032  0.005  0.214  0.000  0.000  0.000  0.000  0.000  0.273
 
band     6 # energy   15.82196044 # occ.  0.00000000
 
ion      s     py     pz     px    dxy    dyz    dz2    dxz  x2-y2    tot
    1  0.171  0.000  0.000  0.060  0.000  0.000  0.000  0.000  0.000  0.231
    2  0.000  0.035  0.122  0.000  0.000  0.000  0.000  0.000  0.000  0.157
tot    0.171  0.035  0.122  0.060  0.000  0.000  0.000  0.000  0.000  0.388
 
band     7 # energy   17.90830611 # occ.  0.00000000
 
ion      s     py     pz     px    dxy    dyz    dz2    dxz  x2-y2    tot
    1  0.000  0.093  0.147  0.000  0.000  0.000  0.000  0.000  0.000  0.240
    2  0.095  0.000  0.000  0.059  0.000  0.000  0.000  0.000  0.000  0.154
tot    0.095  0.093  0.147  0.059  0.000  0.000  0.000  0.000  0.000  0.394
 
band     8 # energy   19.09582860 # occ.  0.00000000
 
ion      s     py     pz     px    dxy    dyz    dz2    dxz  x2-y2    tot
    1  0.096  0.000  0.000  0.085  0.000  0.000  0.000  0.000  0.000  0.181
    2  0.000  0.222  0.020  0.000  0.000  0.000  0.000  0.000  0.000  0.243
tot    0.096  0.222  0.020  0.085  0.000  0.000  0.000  0.000  0.000  0.424
 

 k-point   106 :    0.50000000 0.18421053 0.68421053     weight = 0.00416667

band     1 # energy   -2.21368962 # occ.  2.00000000
 
ion      s     py     pz     px    dxy    dyz    dz2    dxz  x2-y2    tot
    1  0.000  0.091  0.031  0.000  0.000  0.000  0.000  0.000  0.000  0.122
    2  0.451  0.000  0.000  0.000  0.000  0.000  0.000  0.000  0.000  0.451
tot    0.451  0.091  0.031  0.000  0.000  0.000  0.000  0.000  0.000  0.572
 
band     2 # energy    0.76926447 # occ.  2.00000000
 
ion      s     py     pz     px    dxy    dyz    dz2    dxz  x2-y2    tot
    1  0.389  0.000  0.000  0.003  0.000  0.000  0.000  0.000  0.000  0.392
    2  0.000  0.155  0.029  0.000  0.000  0.000  0.000  0.000  0.000  0.185
tot    0.389  0.155  0.029  0.003  0.000  0.000  0.000  0.000  0.000  0.577
 
band     3 # energy    3.33053726 # occ.  2.00000000
 
ion      s     py     pz     px    dxy    dyz    dz2    dxz  x2-y2    tot
    1  0.019  0.000  0.000  0.165  0.000  0.000  0.000  0.000  0.000  0.184
    2  0.000  0.050  0.212  0.000  0.000  0.000  0.000  0.000  0.000  0.262
tot    0.019  0.050  0.212  0.165  0.000  0.000  0.000  0.000  0.000  0.446
 
band     4 # energy    3.50330852 # occ.  2.00000000
 
ion      s     py     pz     px    dxy    dyz    dz2    dxz  x2-y2    tot
    1  0.000  0.079  0.154  0.000  0.000  0.000  0.000  0.000  0.000  0.233
    2  0.003  0.000  0.000  0.217  0.000  0.000  0.000  0.000  0.000  0.220
tot    0.003  0.079  0.154  0.217  0.000  0.000  0.000  0.000  0.000  0.453
 
band     5 # energy   12.29648452 # occ.  0.00000000
 
ion      s     py     pz     px    dxy    dyz    dz2    dxz  x2-y2    tot
    1  0.000  0.040  0.008  0.000  0.000  0.000  0.000  0.000  0.000  0.048
    2  0.029  0.000  0.000  0.194  0.000  0.000  0.000  0.000  0.000  0.223
tot    0.029  0.040  0.008  0.194  0.000  0.000  0.000  0.000  0.000  0.271
 
band     6 # energy   15.44066782 # occ.  0.00000000
 
ion      s     py     pz     px    dxy    dyz    dz2    dxz  x2-y2    tot
    1  0.174  0.000  0.000  0.059  0.000  0.000  0.000  0.000  0.000  0.233
    2  0.000  0.033  0.110  0.000  0.000  0.000  0.000  0.000  0.000  0.143
tot    0.174  0.033  0.110  0.059  0.000  0.000  0.000  0.000  0.000  0.376
 
band     7 # energy   18.20746382 # occ.  0.00000000
 
ion      s     py     pz     px    dxy    dyz    dz2    dxz  x2-y2    tot
    1  0.000  0.083  0.148  0.000  0.000  0.000  0.000  0.000  0.000  0.231
    2  0.086  0.000  0.000  0.081  0.000  0.000  0.000  0.000  0.000  0.167
tot    0.086  0.083  0.148  0.081  0.000  0.000  0.000  0.000  0.000  0.398
 
band     8 # energy   19.49147720 # occ.  0.00000000
 
ion      s     py     pz     px    dxy    dyz    dz2    dxz  x2-y2    tot
    1  0.095  0.000  0.000  0.081  0.000  0.000  0.000  0.000  0.000  0.176
    2  0.000  0.245  0.022  0.000  0.000  0.000  0.000  0.000  0.000  0.267
tot    0.095  0.245  0.022  0.081  0.000  0.000  0.000  0.000  0.000  0.443
 

 k-point   107 :    0.50000000 0.17105263 0.67105263     weight = 0.00416667

band     1 # energy   -2.22909249 # occ.  2.00000000
 
ion      s     py     pz     px    dxy    dyz    dz2    dxz  x2-y2    tot
    1  0.000  0.096  0.026  0.000  0.000  0.000  0.000  0.000  0.000  0.123
    2  0.449  0.000  0.000  0.000  0.000  0.000  0.000  0.000  0.000  0.449
tot    0.449  0.096  0.026  0.000  0.000  0.000  0.000  0.000  0.000  0.572
 
band     2 # energy    0.70886173 # occ.  2.00000000
 
ion      s     py     pz     px    dxy    dyz    dz2    dxz  x2-y2    tot
    1  0.382  0.000  0.000  0.003  0.000  0.000  0.000  0.000  0.000  0.385
    2  0.000  0.162  0.023  0.000  0.000  0.000  0.000  0.000  0.000  0.185
tot    0.382  0.162  0.023  0.003  0.000  0.000  0.000  0.000  0.000  0.570
 
band     3 # energy    3.44792690 # occ.  2.00000000
 
ion      s     py     pz     px    dxy    dyz    dz2    dxz  x2-y2    tot
    1  0.022  0.000  0.000  0.168  0.000  0.000  0.000  0.000  0.000  0.190
    2  0.000  0.041  0.224  0.000  0.000  0.000  0.000  0.000  0.000  0.265
tot    0.022  0.041  0.224  0.168  0.000  0.000  0.000  0.000  0.000  0.455
 
band     4 # energy    3.58330807 # occ.  2.00000000
 
ion      s     py     pz     px    dxy    dyz    dz2    dxz  x2-y2    tot
    1  0.000  0.072  0.160  0.000  0.000  0.000  0.000  0.000  0.000  0.232
    2  0.004  0.000  0.000  0.221  0.000  0.000  0.000  0.000  0.000  0.225
tot    0.004  0.072  0.160  0.221  0.000  0.000  0.000  0.000  0.000  0.457
 
band     5 # energy   12.01545100 # occ.  0.00000000
 
ion      s     py     pz     px    dxy    dyz    dz2    dxz  x2-y2    tot
    1  0.000  0.046  0.011  0.000  0.000  0.000  0.000  0.000  0.000  0.057
    2  0.037  0.000  0.000  0.174  0.000  0.000  0.000  0.000  0.000  0.211
tot    0.037  0.046  0.011  0.174  0.000  0.000  0.000  0.000  0.000  0.268
 
band     6 # energy   15.06935474 # occ.  0.00000000
 
ion      s     py     pz     px    dxy    dyz    dz2    dxz  x2-y2    tot
    1  0.179  0.000  0.000  0.056  0.000  0.000  0.000  0.000  0.000  0.235
    2  0.000  0.032  0.098  0.000  0.000  0.000  0.000  0.000  0.000  0.130
tot    0.179  0.032  0.098  0.056  0.000  0.000  0.000  0.000  0.000  0.366
 
band     7 # energy   18.53345863 # occ.  0.00000000
 
ion      s     py     pz     px    dxy    dyz    dz2    dxz  x2-y2    tot
    1  0.000  0.073  0.150  0.000  0.000  0.000  0.000  0.000  0.000  0.223
    2  0.078  0.000  0.000  0.103  0.000  0.000  0.000  0.000  0.000  0.181
tot    0.078  0.073  0.150  0.103  0.000  0.000  0.000  0.000  0.000  0.404
 
band     8 # energy   19.87728548 # occ.  0.00000000
 
ion      s     py     pz     px    dxy    dyz    dz2    dxz  x2-y2    tot
    1  0.094  0.000  0.000  0.076  0.000  0.000  0.000  0.000  0.000  0.170
    2  0.000  0.269  0.024  0.000  0.000  0.000  0.000  0.000  0.000  0.292
tot    0.094  0.269  0.024  0.076  0.000  0.000  0.000  0.000  0.000  0.463
 

 k-point   108 :    0.50000000 0.15789474 0.65789474     weight = 0.00416667

band     1 # energy   -2.24602998 # occ.  2.00000000
 
ion      s     py     pz     px    dxy    dyz    dz2    dxz  x2-y2    tot
    1  0.000  0.102  0.022  0.000  0.000  0.000  0.000  0.000  0.000  0.124
    2  0.447  0.000  0.000  0.000  0.000  0.000  0.000  0.000  0.000  0.447
tot    0.447  0.102  0.022  0.000  0.000  0.000  0.000  0.000  0.000  0.571
 
band     2 # energy    0.64633235 # occ.  2.00000000
 
ion      s     py     pz     px    dxy    dyz    dz2    dxz  x2-y2    tot
    1  0.376  0.000  0.000  0.003  0.000  0.000  0.000  0.000  0.000  0.379
    2  0.000  0.168  0.017  0.000  0.000  0.000  0.000  0.000  0.000  0.185
tot    0.376  0.168  0.017  0.003  0.000  0.000  0.000  0.000  0.000  0.564
 
band     3 # energy    3.57565795 # occ.  2.00000000
 
ion      s     py     pz     px    dxy    dyz    dz2    dxz  x2-y2    tot
    1  0.025  0.000  0.000  0.171  0.000  0.000  0.000  0.000  0.000  0.196
    2  0.000  0.033  0.235  0.000  0.000  0.000  0.000  0.000  0.000  0.268
tot    0.025  0.033  0.235  0.171  0.000  0.000  0.000  0.000  0.000  0.464
 
band     4 # energy    3.67490408 # occ.  2.00000000
 
ion      s     py     pz     px    dxy    dyz    dz2    dxz  x2-y2    tot
    1  0.000  0.064  0.166  0.000  0.000  0.000  0.000  0.000  0.000  0.231
    2  0.005  0.000  0.000  0.226  0.000  0.000  0.000  0.000  0.000  0.230
tot    0.005  0.064  0.166  0.226  0.000  0.000  0.000  0.000  0.000  0.461
 
band     5 # energy   11.72376331 # occ.  0.00000000
 
ion      s     py     pz     px    dxy    dyz    dz2    dxz  x2-y2    tot
    1  0.000  0.052  0.014  0.000  0.000  0.000  0.000  0.000  0.000  0.065
    2  0.043  0.000  0.000  0.155  0.000  0.000  0.000  0.000  0.000  0.199
tot    0.043  0.052  0.014  0.155  0.000  0.000  0.000  0.000  0.000  0.264
 
band     6 # energy   14.71010046 # occ.  0.00000000
 
ion      s     py     pz     px    dxy    dyz    dz2    dxz  x2-y2    tot
    1  0.185  0.000  0.000  0.053  0.000  0.000  0.000  0.000  0.000  0.238
    2  0.000  0.032  0.088  0.000  0.000  0.000  0.000  0.000  0.000  0.119
tot    0.185  0.032  0.088  0.053  0.000  0.000  0.000  0.000  0.000  0.357
 
band     7 # energy   18.87604874 # occ.  0.00000000
 
ion      s     py     pz     px    dxy    dyz    dz2    dxz  x2-y2    tot
    1  0.000  0.065  0.152  0.000  0.000  0.000  0.000  0.000  0.000  0.217
    2  0.069  0.000  0.000  0.125  0.000  0.000  0.000  0.000  0.000  0.194
tot    0.069  0.065  0.152  0.125  0.000  0.000  0.000  0.000  0.000  0.410
 
band     8 # energy   20.24912022 # occ.  0.00000000
 
ion      s     py     pz     px    dxy    dyz    dz2    dxz  x2-y2    tot
    1  0.092  0.000  0.000  0.071  0.000  0.000  0.000  0.000  0.000  0.164
    2  0.000  0.294  0.025  0.000  0.000  0.000  0.000  0.000  0.000  0.319
tot    0.092  0.294  0.025  0.071  0.000  0.000  0.000  0.000  0.000  0.483
 

 k-point   109 :    0.50000000 0.14473684 0.64473684     weight = 0.00416667

band     1 # energy   -2.26399640 # occ.  2.00000000
 
ion      s     py     pz     px    dxy    dyz    dz2    dxz  x2-y2    tot
    1  0.000  0.106  0.018  0.000  0.000  0.000  0.000  0.000  0.000  0.125
    2  0.445  0.000  0.000  0.000  0.000  0.000  0.000  0.000  0.000  0.445
tot    0.445  0.106  0.018  0.000  0.000  0.000  0.000  0.000  0.000  0.570
 
band     2 # energy    0.58376352 # occ.  2.00000000
 
ion      s     py     pz     px    dxy    dyz    dz2    dxz  x2-y2    tot
    1  0.371  0.000  0.000  0.003  0.000  0.000  0.000  0.000  0.000  0.374
    2  0.000  0.172  0.013  0.000  0.000  0.000  0.000  0.000  0.000  0.185
tot    0.371  0.172  0.013  0.003  0.000  0.000  0.000  0.000  0.000  0.559
 
band     3 # energy    3.71048180 # occ.  2.00000000
 
ion      s     py     pz     px    dxy    dyz    dz2    dxz  x2-y2    tot
    1  0.026  0.000  0.000  0.175  0.000  0.000  0.000  0.000  0.000  0.201
    2  0.000  0.027  0.245  0.000  0.000  0.000  0.000  0.000  0.000  0.271
tot    0.026  0.027  0.245  0.175  0.000  0.000  0.000  0.000  0.000  0.473
 
band     4 # energy    3.77660161 # occ.  2.00000000
 
ion      s     py     pz     px    dxy    dyz    dz2    dxz  x2-y2    tot
    1  0.000  0.057  0.172  0.000  0.000  0.000  0.000  0.000  0.000  0.230
    2  0.005  0.000  0.000  0.231  0.000  0.000  0.000  0.000  0.000  0.237
tot    0.005  0.057  0.172  0.231  0.000  0.000  0.000  0.000  0.000  0.466
 
band     5 # energy   11.42852389 # occ.  0.00000000
 
ion      s     py     pz     px    dxy    dyz    dz2    dxz  x2-y2    tot
    1  0.000  0.057  0.015  0.000  0.000  0.000  0.000  0.000  0.000  0.072
    2  0.050  0.000  0.000  0.137  0.000  0.000  0.000  0.000  0.000  0.187
tot    0.050  0.057  0.015  0.137  0.000  0.000  0.000  0.000  0.000  0.259
 
band     6 # energy   14.36492662 # occ.  0.00000000
 
ion      s     py     pz     px    dxy    dyz    dz2    dxz  x2-y2    tot
    1  0.192  0.000  0.000  0.048  0.000  0.000  0.000  0.000  0.000  0.240
    2  0.000  0.031  0.077  0.000  0.000  0.000  0.000  0.000  0.000  0.109
tot    0.192  0.031  0.077  0.048  0.000  0.000  0.000  0.000  0.000  0.348
 
band     7 # energy   19.22691474 # occ.  0.00000000
 
ion      s     py     pz     px    dxy    dyz    dz2    dxz  x2-y2    tot
    1  0.000  0.057  0.155  0.000  0.000  0.000  0.000  0.000  0.000  0.212
    2  0.061  0.000  0.000  0.145  0.000  0.000  0.000  0.000  0.000  0.207
tot    0.061  0.057  0.155  0.145  0.000  0.000  0.000  0.000  0.000  0.418
 
band     8 # energy   20.60292571 # occ.  0.00000000
 
ion      s     py     pz     px    dxy    dyz    dz2    dxz  x2-y2    tot
    1  0.090  0.000  0.000  0.066  0.000  0.000  0.000  0.000  0.000  0.156
    2  0.000  0.321  0.026  0.000  0.000  0.000  0.000  0.000  0.000  0.347
tot    0.090  0.321  0.026  0.066  0.000  0.000  0.000  0.000  0.000  0.503
 

 k-point   110 :    0.50000000 0.13157895 0.63157895     weight = 0.00416667

band     1 # energy   -2.28242934 # occ.  2.00000000
 
ion      s     py     pz     px    dxy    dyz    dz2    dxz  x2-y2    tot
    1  0.000  0.111  0.015  0.000  0.000  0.000  0.000  0.000  0.000  0.126
    2  0.443  0.000  0.000  0.000  0.000  0.000  0.000  0.000  0.000  0.443
tot    0.443  0.111  0.015  0.000  0.000  0.000  0.000  0.000  0.000  0.569
 
band     2 # energy    0.52287445 # occ.  2.00000000
 
ion      s     py     pz     px    dxy    dyz    dz2    dxz  x2-y2    tot
    1  0.366  0.000  0.000  0.003  0.000  0.000  0.000  0.000  0.000  0.369
    2  0.000  0.175  0.010  0.000  0.000  0.000  0.000  0.000  0.000  0.185
tot    0.366  0.175  0.010  0.003  0.000  0.000  0.000  0.000  0.000  0.554
 
band     3 # energy    3.84932441 # occ.  2.00000000
 
ion      s     py     pz     px    dxy    dyz    dz2    dxz  x2-y2    tot
    1  0.026  0.000  0.000  0.180  0.000  0.000  0.000  0.000  0.000  0.206
    2  0.000  0.021  0.254  0.000  0.000  0.000  0.000  0.000  0.000  0.276
tot    0.026  0.021  0.254  0.180  0.000  0.000  0.000  0.000  0.000  0.481
 
band     4 # energy    3.88665865 # occ.  2.00000000
 
ion      s     py     pz     px    dxy    dyz    dz2    dxz  x2-y2    tot
    1  0.000  0.050  0.178  0.000  0.000  0.000  0.000  0.000  0.000  0.228
    2  0.006  0.000  0.000  0.238  0.000  0.000  0.000  0.000  0.000  0.244
tot    0.006  0.050  0.178  0.238  0.000  0.000  0.000  0.000  0.000  0.472
 
band     5 # energy   11.13542624 # occ.  0.00000000
 
ion      s     py     pz     px    dxy    dyz    dz2    dxz  x2-y2    tot
    1  0.000  0.062  0.016  0.000  0.000  0.000  0.000  0.000  0.000  0.078
    2  0.055  0.000  0.000  0.120  0.000  0.000  0.000  0.000  0.000  0.176
tot    0.055  0.062  0.016  0.120  0.000  0.000  0.000  0.000  0.000  0.254
 
band     6 # energy   14.03598363 # occ.  0.00000000
 
ion      s     py     pz     px    dxy    dyz    dz2    dxz  x2-y2    tot
    1  0.198  0.000  0.000  0.044  0.000  0.000  0.000  0.000  0.000  0.242
    2  0.000  0.031  0.067  0.000  0.000  0.000  0.000  0.000  0.000  0.098
tot    0.198  0.031  0.067  0.044  0.000  0.000  0.000  0.000  0.000  0.340
 
band     7 # energy   19.57907445 # occ.  0.00000000
 
ion      s     py     pz     px    dxy    dyz    dz2    dxz  x2-y2    tot
    1  0.000  0.049  0.159  0.000  0.000  0.000  0.000  0.000  0.000  0.208
    2  0.054  0.000  0.000  0.166  0.000  0.000  0.000  0.000  0.000  0.219
tot    0.054  0.049  0.159  0.166  0.000  0.000  0.000  0.000  0.000  0.428
 
band     8 # energy   20.93586094 # occ.  0.00000000
 
ion      s     py     pz     px    dxy    dyz    dz2    dxz  x2-y2    tot
    1  0.088  0.000  0.000  0.061  0.000  0.000  0.000  0.000  0.000  0.149
    2  0.000  0.348  0.027  0.000  0.000  0.000  0.000  0.000  0.000  0.375
tot    0.088  0.348  0.027  0.061  0.000  0.000  0.000  0.000  0.000  0.523
 

 k-point   111 :    0.50000000 0.11842105 0.61842105     weight = 0.00416667

band     1 # energy   -2.30083155 # occ.  2.00000000
 
ion      s     py     pz     px    dxy    dyz    dz2    dxz  x2-y2    tot
    1  0.000  0.115  0.012  0.000  0.000  0.000  0.000  0.000  0.000  0.127
    2  0.441  0.000  0.000  0.000  0.000  0.000  0.000  0.000  0.000  0.441
tot    0.441  0.115  0.012  0.000  0.000  0.000  0.000  0.000  0.000  0.568
 
band     2 # energy    0.46497074 # occ.  2.00000000
 
ion      s     py     pz     px    dxy    dyz    dz2    dxz  x2-y2    tot
    1  0.362  0.000  0.000  0.003  0.000  0.000  0.000  0.000  0.000  0.365
    2  0.000  0.178  0.007  0.000  0.000  0.000  0.000  0.000  0.000  0.185
tot    0.362  0.178  0.007  0.003  0.000  0.000  0.000  0.000  0.000  0.550
 
band     3 # energy    3.98917352 # occ.  2.00000000
 
ion      s     py     pz     px    dxy    dyz    dz2    dxz  x2-y2    tot
    1  0.025  0.000  0.000  0.185  0.000  0.000  0.000  0.000  0.000  0.209
    2  0.000  0.017  0.263  0.000  0.000  0.000  0.000  0.000  0.000  0.280
tot    0.025  0.017  0.263  0.185  0.000  0.000  0.000  0.000  0.000  0.490
 
band     4 # energy    4.00299158 # occ.  2.00000000
 
ion      s     py     pz     px    dxy    dyz    dz2    dxz  x2-y2    tot
    1  0.000  0.043  0.184  0.000  0.000  0.000  0.000  0.000  0.000  0.227
    2  0.006  0.000  0.000  0.245  0.000  0.000  0.000  0.000  0.000  0.251
tot    0.006  0.043  0.184  0.245  0.000  0.000  0.000  0.000  0.000  0.478
 
band     5 # energy   10.84922976 # occ.  0.00000000
 
ion      s     py     pz     px    dxy    dyz    dz2    dxz  x2-y2    tot
    1  0.000  0.067  0.016  0.000  0.000  0.000  0.000  0.000  0.000  0.083
    2  0.061  0.000  0.000  0.104  0.000  0.000  0.000  0.000  0.000  0.165
tot    0.061  0.067  0.016  0.104  0.000  0.000  0.000  0.000  0.000  0.248
 
band     6 # energy   13.72550079 # occ.  0.00000000
 
ion      s     py     pz     px    dxy    dyz    dz2    dxz  x2-y2    tot
    1  0.206  0.000  0.000  0.038  0.000  0.000  0.000  0.000  0.000  0.244
    2  0.000  0.032  0.057  0.000  0.000  0.000  0.000  0.000  0.000  0.089
tot    0.206  0.032  0.057  0.038  0.000  0.000  0.000  0.000  0.000  0.333
 
band     7 # energy   19.92611204 # occ.  0.00000000
 
ion      s     py     pz     px    dxy    dyz    dz2    dxz  x2-y2    tot
    1  0.000  0.042  0.164  0.000  0.000  0.000  0.000  0.000  0.000  0.206
    2  0.046  0.000  0.000  0.186  0.000  0.000  0.000  0.000  0.000  0.232
tot    0.046  0.042  0.164  0.186  0.000  0.000  0.000  0.000  0.000  0.438
 
band     8 # energy   21.24015721 # occ.  0.00000000
 
ion      s     py     pz     px    dxy    dyz    dz2    dxz  x2-y2    tot
    1  0.086  0.000  0.000  0.056  0.000  0.000  0.000  0.000  0.000  0.143
    2  0.000  0.375  0.028  0.000  0.000  0.000  0.000  0.000  0.000  0.403
tot    0.086  0.375  0.028  0.056  0.000  0.000  0.000  0.000  0.000  0.546
 

 k-point   112 :    0.50000000 0.10526316 0.60526316     weight = 0.00416667

band     1 # energy   -2.31871053 # occ.  2.00000000
 
ion      s     py     pz     px    dxy    dyz    dz2    dxz  x2-y2    tot
    1  0.000  0.119  0.009  0.000  0.000  0.000  0.000  0.000  0.000  0.128
    2  0.439  0.000  0.000  0.000  0.000  0.000  0.000  0.000  0.000  0.439
tot    0.439  0.119  0.009  0.000  0.000  0.000  0.000  0.000  0.000  0.567
 
band     2 # energy    0.41109814 # occ.  2.00000000
 
ion      s     py     pz     px    dxy    dyz    dz2    dxz  x2-y2    tot
    1  0.359  0.000  0.000  0.002  0.000  0.000  0.000  0.000  0.000  0.361
    2  0.000  0.179  0.005  0.000  0.000  0.000  0.000  0.000  0.000  0.185
tot    0.359  0.179  0.005  0.002  0.000  0.000  0.000  0.000  0.000  0.546
 
band     3 # energy    4.12316805 # occ.  2.00000000
 
ion      s     py     pz     px    dxy    dyz    dz2    dxz  x2-y2    tot
    1  0.000  0.036  0.190  0.000  0.000  0.000  0.000  0.000  0.000  0.226
    2  0.006  0.000  0.000  0.254  0.000  0.000  0.000  0.000  0.000  0.260
tot    0.006  0.036  0.190  0.254  0.000  0.000  0.000  0.000  0.000  0.486
 
band     4 # energy    4.12702918 # occ.  2.00000000
 
ion      s     py     pz     px    dxy    dyz    dz2    dxz  x2-y2    tot
    1  0.023  0.000  0.000  0.190  0.000  0.000  0.000  0.000  0.000  0.213
    2  0.000  0.013  0.272  0.000  0.000  0.000  0.000  0.000  0.000  0.285
tot    0.023  0.013  0.272  0.190  0.000  0.000  0.000  0.000  0.000  0.498
 
band     5 # energy   10.57424381 # occ.  0.00000000
 
ion      s     py     pz     px    dxy    dyz    dz2    dxz  x2-y2    tot
    1  0.000  0.072  0.016  0.000  0.000  0.000  0.000  0.000  0.000  0.087
    2  0.066  0.000  0.000  0.088  0.000  0.000  0.000  0.000  0.000  0.154
tot    0.066  0.072  0.016  0.088  0.000  0.000  0.000  0.000  0.000  0.241
 
band     6 # energy   13.43592077 # occ.  0.00000000
 
ion      s     py     pz     px    dxy    dyz    dz2    dxz  x2-y2    tot
    1  0.213  0.000  0.000  0.033  0.000  0.000  0.000  0.000  0.000  0.246
    2  0.000  0.032  0.048  0.000  0.000  0.000  0.000  0.000  0.000  0.080
tot    0.213  0.032  0.048  0.033  0.000  0.000  0.000  0.000  0.000  0.325
 
band     7 # energy   20.26193373 # occ.  0.00000000
 
ion      s     py     pz     px    dxy    dyz    dz2    dxz  x2-y2    tot
    1  0.000  0.035  0.169  0.000  0.000  0.000  0.000  0.000  0.000  0.205
    2  0.039  0.000  0.000  0.206  0.000  0.000  0.000  0.000  0.000  0.244
tot    0.039  0.035  0.169  0.206  0.000  0.000  0.000  0.000  0.000  0.449
 
band     8 # energy   21.51579806 # occ.  0.00000000
 
ion      s     py     pz     px    dxy    dyz    dz2    dxz  x2-y2    tot
    1  0.083  0.000  0.000  0.065  0.000  0.000  0.000  0.000  0.000  0.148
    2  0.000  0.381  0.043  0.000  0.000  0.000  0.000  0.000  0.000  0.423
tot    0.083  0.381  0.043  0.065  0.000  0.000  0.000  0.000  0.000  0.571
 

 k-point   113 :    0.50000000 0.09210526 0.59210526     weight = 0.00416667

band     1 # energy   -2.33560959 # occ.  2.00000000
 
ion      s     py     pz     px    dxy    dyz    dz2    dxz  x2-y2    tot
    1  0.000  0.122  0.007  0.000  0.000  0.000  0.000  0.000  0.000  0.129
    2  0.437  0.000  0.000  0.000  0.000  0.000  0.000  0.000  0.000  0.437
tot    0.437  0.122  0.007  0.000  0.000  0.000  0.000  0.000  0.000  0.566
 
band     2 # energy    0.36207450 # occ.  2.00000000
 
ion      s     py     pz     px    dxy    dyz    dz2    dxz  x2-y2    tot
    1  0.356  0.000  0.000  0.002  0.000  0.000  0.000  0.000  0.000  0.358
    2  0.000  0.181  0.004  0.000  0.000  0.000  0.000  0.000  0.000  0.185
tot    0.356  0.181  0.004  0.002  0.000  0.000  0.000  0.000  0.000  0.543
 
band     3 # energy    4.24431967 # occ.  2.00000000
 
ion      s     py     pz     px    dxy    dyz    dz2    dxz  x2-y2    tot
    1  0.000  0.030  0.195  0.000  0.000  0.000  0.000  0.000  0.000  0.225
    2  0.006  0.000  0.000  0.263  0.000  0.000  0.000  0.000  0.000  0.268
tot    0.006  0.030  0.195  0.263  0.000  0.000  0.000  0.000  0.000  0.493
 
band     4 # energy    4.25982159 # occ.  2.00000000
 
ion      s     py     pz     px    dxy    dyz    dz2    dxz  x2-y2    tot
    1  0.020  0.000  0.000  0.196  0.000  0.000  0.000  0.000  0.000  0.216
    2  0.000  0.010  0.280  0.000  0.000  0.000  0.000  0.000  0.000  0.290
tot    0.020  0.010  0.280  0.196  0.000  0.000  0.000  0.000  0.000  0.506
 
band     5 # energy   10.31463841 # occ.  0.00000000
 
ion      s     py     pz     px    dxy    dyz    dz2    dxz  x2-y2    tot
    1  0.000  0.076  0.014  0.000  0.000  0.000  0.000  0.000  0.000  0.091
    2  0.071  0.000  0.000  0.072  0.000  0.000  0.000  0.000  0.000  0.143
tot    0.071  0.076  0.014  0.072  0.000  0.000  0.000  0.000  0.000  0.233
 
band     6 # energy   13.16990042 # occ.  0.00000000
 
ion      s     py     pz     px    dxy    dyz    dz2    dxz  x2-y2    tot
    1  0.220  0.000  0.000  0.027  0.000  0.000  0.000  0.000  0.000  0.247
    2  0.000  0.032  0.038  0.000  0.000  0.000  0.000  0.000  0.000  0.071
tot    0.220  0.032  0.038  0.027  0.000  0.000  0.000  0.000  0.000  0.318
 
band     7 # energy   20.58044795 # occ.  0.00000000
 
ion      s     py     pz     px    dxy    dyz    dz2    dxz  x2-y2    tot
    1  0.000  0.029  0.176  0.000  0.000  0.000  0.000  0.000  0.000  0.205
    2  0.031  0.000  0.000  0.225  0.000  0.000  0.000  0.000  0.000  0.257
tot    0.031  0.029  0.176  0.225  0.000  0.000  0.000  0.000  0.000  0.461
 
band     8 # energy   21.75393096 # occ.  0.00000000
 
ion      s     py     pz     px    dxy    dyz    dz2    dxz  x2-y2    tot
    1  0.080  0.000  0.000  0.062  0.000  0.000  0.000  0.000  0.000  0.142
    2  0.000  0.398  0.047  0.000  0.000  0.000  0.000  0.000  0.000  0.445
tot    0.080  0.398  0.047  0.062  0.000  0.000  0.000  0.000  0.000  0.588
 

 k-point   114 :    0.50000000 0.07894737 0.57894737     weight = 0.00416667

band     1 # energy   -2.35111181 # occ.  2.00000000
 
ion      s     py     pz     px    dxy    dyz    dz2    dxz  x2-y2    tot
    1  0.000  0.125  0.005  0.000  0.000  0.000  0.000  0.000  0.000  0.130
    2  0.435  0.000  0.000  0.000  0.000  0.000  0.000  0.000  0.000  0.436
tot    0.435  0.125  0.005  0.000  0.000  0.000  0.000  0.000  0.000  0.565
 
band     2 # energy    0.31853683 # occ.  2.00000000
 
ion      s     py     pz     px    dxy    dyz    dz2    dxz  x2-y2    tot
    1  0.354  0.000  0.000  0.002  0.000  0.000  0.000  0.000  0.000  0.356
    2  0.000  0.182  0.003  0.000  0.000  0.000  0.000  0.000  0.000  0.185
tot    0.354  0.182  0.003  0.002  0.000  0.000  0.000  0.000  0.000  0.540
 
band     3 # energy    4.36307932 # occ.  2.00000000
 
ion      s     py     pz     px    dxy    dyz    dz2    dxz  x2-y2    tot
    1  0.000  0.023  0.201  0.000  0.000  0.000  0.000  0.000  0.000  0.224
    2  0.005  0.000  0.000  0.272  0.000  0.000  0.000  0.000  0.000  0.277
tot    0.005  0.023  0.201  0.272  0.000  0.000  0.000  0.000  0.000  0.502
 
band     4 # energy    4.38438711 # occ.  2.00000000
 
ion      s     py     pz     px    dxy    dyz    dz2    dxz  x2-y2    tot
    1  0.016  0.000  0.000  0.202  0.000  0.000  0.000  0.000  0.000  0.218
    2  0.000  0.007  0.288  0.000  0.000  0.000  0.000  0.000  0.000  0.295
tot    0.016  0.007  0.288  0.202  0.000  0.000  0.000  0.000  0.000  0.513
 
band     5 # energy   10.07468699 # occ.  0.00000000
 
ion      s     py     pz     px    dxy    dyz    dz2    dxz  x2-y2    tot
    1  0.000  0.081  0.013  0.000  0.000  0.000  0.000  0.000  0.000  0.093
    2  0.075  0.000  0.000  0.057  0.000  0.000  0.000  0.000  0.000  0.132
tot    0.075  0.081  0.013  0.057  0.000  0.000  0.000  0.000  0.000  0.225
 
band     6 # energy   12.93030514 # occ.  0.00000000
 
ion      s     py     pz     px    dxy    dyz    dz2    dxz  x2-y2    tot
    1  0.228  0.000  0.000  0.021  0.000  0.000  0.000  0.000  0.000  0.249
    2  0.000  0.033  0.030  0.000  0.000  0.000  0.000  0.000  0.000  0.063
tot    0.228  0.033  0.030  0.021  0.000  0.000  0.000  0.000  0.000  0.311
 
band     7 # energy   20.87539230 # occ.  0.00000000
 
ion      s     py     pz     px    dxy    dyz    dz2    dxz  x2-y2    tot
    1  0.000  0.022  0.183  0.000  0.000  0.000  0.000  0.000  0.000  0.205
    2  0.024  0.000  0.000  0.244  0.000  0.000  0.000  0.000  0.000  0.268
tot    0.024  0.022  0.183  0.244  0.000  0.000  0.000  0.000  0.000  0.473
 
band     8 # energy   21.84513672 # occ.  0.00000000
 
ion      s     py     pz     px    dxy    dyz    dz2    dxz  x2-y2    tot
    1  0.010  0.000  0.000  0.221  0.000  0.000  0.000  0.000  0.000  0.231
    2  0.000  0.033  0.286  0.000  0.000  0.000  0.000  0.000  0.000  0.319
tot    0.010  0.033  0.286  0.221  0.000  0.000  0.000  0.000  0.000  0.550
 

 k-point   115 :    0.50000000 0.06578947 0.56578947     weight = 0.00416667

band     1 # energy   -2.36488623 # occ.  2.00000000
 
ion      s     py     pz     px    dxy    dyz    dz2    dxz  x2-y2    tot
    1  0.000  0.127  0.003  0.000  0.000  0.000  0.000  0.000  0.000  0.131
    2  0.434  0.000  0.000  0.000  0.000  0.000  0.000  0.000  0.000  0.434
tot    0.434  0.127  0.003  0.000  0.000  0.000  0.000  0.000  0.000  0.565
 
band     2 # energy    0.28096150 # occ.  2.00000000
 
ion      s     py     pz     px    dxy    dyz    dz2    dxz  x2-y2    tot
    1  0.353  0.000  0.000  0.001  0.000  0.000  0.000  0.000  0.000  0.354
    2  0.000  0.183  0.002  0.000  0.000  0.000  0.000  0.000  0.000  0.184
tot    0.353  0.183  0.002  0.001  0.000  0.000  0.000  0.000  0.000  0.538
 
band     3 # energy    4.47553344 # occ.  2.00000000
 
ion      s     py     pz     px    dxy    dyz    dz2    dxz  x2-y2    tot
    1  0.000  0.017  0.206  0.000  0.000  0.000  0.000  0.000  0.000  0.224
    2  0.004  0.000  0.000  0.282  0.000  0.000  0.000  0.000  0.000  0.287
tot    0.004  0.017  0.206  0.282  0.000  0.000  0.000  0.000  0.000  0.510
 
band     4 # energy    4.49745983 # occ.  2.00000000
 
ion      s     py     pz     px    dxy    dyz    dz2    dxz  x2-y2    tot
    1  0.012  0.000  0.000  0.207  0.000  0.000  0.000  0.000  0.000  0.220
    2  0.000  0.005  0.295  0.000  0.000  0.000  0.000  0.000  0.000  0.300
tot    0.012  0.005  0.295  0.207  0.000  0.000  0.000  0.000  0.000  0.520
 
band     5 # energy    9.85891683 # occ.  0.00000000
 
ion      s     py     pz     px    dxy    dyz    dz2    dxz  x2-y2    tot
    1  0.000  0.085  0.010  0.000  0.000  0.000  0.000  0.000  0.000  0.095
    2  0.079  0.000  0.000  0.043  0.000  0.000  0.000  0.000  0.000  0.122
tot    0.079  0.085  0.010  0.043  0.000  0.000  0.000  0.000  0.000  0.217
 
band     6 # energy   12.72015040 # occ.  0.00000000
 
ion      s     py     pz     px    dxy    dyz    dz2    dxz  x2-y2    tot
    1  0.234  0.000  0.000  0.016  0.000  0.000  0.000  0.000  0.000  0.250
    2  0.000  0.033  0.022  0.000  0.000  0.000  0.000  0.000  0.000  0.055
tot    0.234  0.033  0.022  0.016  0.000  0.000  0.000  0.000  0.000  0.305
 
band     7 # energy   21.14023482 # occ.  0.00000000
 
ion      s     py     pz     px    dxy    dyz    dz2    dxz  x2-y2    tot
    1  0.000  0.016  0.190  0.000  0.000  0.000  0.000  0.000  0.000  0.206
    2  0.018  0.000  0.000  0.262  0.000  0.000  0.000  0.000  0.000  0.280
tot    0.018  0.016  0.190  0.262  0.000  0.000  0.000  0.000  0.000  0.486
 
band     8 # energy   21.83601388 # occ.  0.00000000
 
ion      s     py     pz     px    dxy    dyz    dz2    dxz  x2-y2    tot
    1  0.002  0.000  0.000  0.227  0.000  0.000  0.000  0.000  0.000  0.229
    2  0.000  0.002  0.306  0.000  0.000  0.000  0.000  0.000  0.000  0.309
tot    0.002  0.002  0.306  0.227  0.000  0.000  0.000  0.000  0.000  0.538
 

 k-point   116 :    0.50000000 0.05263158 0.55263158     weight = 0.00416667

band     1 # energy   -2.37656690 # occ.  2.00000000
 
ion      s     py     pz     px    dxy    dyz    dz2    dxz  x2-y2    tot
    1  0.000  0.129  0.002  0.000  0.000  0.000  0.000  0.000  0.000  0.131
    2  0.433  0.000  0.000  0.000  0.000  0.000  0.000  0.000  0.000  0.433
tot    0.433  0.129  0.002  0.000  0.000  0.000  0.000  0.000  0.000  0.564
 
band     2 # energy    0.24975796 # occ.  2.00000000
 
ion      s     py     pz     px    dxy    dyz    dz2    dxz  x2-y2    tot
    1  0.351  0.000  0.000  0.001  0.000  0.000  0.000  0.000  0.000  0.352
    2  0.000  0.183  0.001  0.000  0.000  0.000  0.000  0.000  0.000  0.184
tot    0.351  0.183  0.001  0.001  0.000  0.000  0.000  0.000  0.000  0.536
 
band     3 # energy    4.57727197 # occ.  2.00000000
 
ion      s     py     pz     px    dxy    dyz    dz2    dxz  x2-y2    tot
    1  0.000  0.012  0.212  0.000  0.000  0.000  0.000  0.000  0.000  0.223
    2  0.003  0.000  0.000  0.292  0.000  0.000  0.000  0.000  0.000  0.295
tot    0.003  0.012  0.212  0.292  0.000  0.000  0.000  0.000  0.000  0.519
 
band     4 # energy    4.59578969 # occ.  2.00000000
 
ion      s     py     pz     px    dxy    dyz    dz2    dxz  x2-y2    tot
    1  0.008  0.000  0.000  0.212  0.000  0.000  0.000  0.000  0.000  0.221
    2  0.000  0.003  0.302  0.000  0.000  0.000  0.000  0.000  0.000  0.305
tot    0.008  0.003  0.302  0.212  0.000  0.000  0.000  0.000  0.000  0.526
 
band     5 # energy    9.67219020 # occ.  0.00000000
 
ion      s     py     pz     px    dxy    dyz    dz2    dxz  x2-y2    tot
    1  0.000  0.089  0.007  0.000  0.000  0.000  0.000  0.000  0.000  0.097
    2  0.083  0.000  0.000  0.029  0.000  0.000  0.000  0.000  0.000  0.112
tot    0.083  0.089  0.007  0.029  0.000  0.000  0.000  0.000  0.000  0.209
 
band     6 # energy   12.54255402 # occ.  0.00000000
 
ion      s     py     pz     px    dxy    dyz    dz2    dxz  x2-y2    tot
    1  0.241  0.000  0.000  0.011  0.000  0.000  0.000  0.000  0.000  0.251
    2  0.000  0.034  0.014  0.000  0.000  0.000  0.000  0.000  0.000  0.048
tot    0.241  0.034  0.014  0.011  0.000  0.000  0.000  0.000  0.000  0.299
 
band     7 # energy   21.36898754 # occ.  0.00000000
 
ion      s     py     pz     px    dxy    dyz    dz2    dxz  x2-y2    tot
    1  0.000  0.011  0.197  0.000  0.000  0.000  0.000  0.000  0.000  0.208
    2  0.012  0.000  0.000  0.277  0.000  0.000  0.000  0.000  0.000  0.290
tot    0.012  0.011  0.197  0.277  0.000  0.000  0.000  0.000  0.000  0.498
 
band     8 # energy   21.82532766 # occ.  0.00000000
 
ion      s     py     pz     px    dxy    dyz    dz2    dxz  x2-y2    tot
    1  0.000  0.000  0.000  0.216  0.000  0.000  0.000  0.000  0.000  0.216
    2  0.000  0.006  0.305  0.000  0.000  0.000  0.000  0.000  0.000  0.310
tot    0.000  0.006  0.305  0.216  0.000  0.000  0.000  0.000  0.000  0.526
 

 k-point   117 :    0.50000000 0.03947368 0.53947368     weight = 0.00416667

band     1 # energy   -2.38591988 # occ.  2.00000000
 
ion      s     py     pz     px    dxy    dyz    dz2    dxz  x2-y2    tot
    1  0.000  0.131  0.001  0.000  0.000  0.000  0.000  0.000  0.000  0.132
    2  0.432  0.000  0.000  0.000  0.000  0.000  0.000  0.000  0.000  0.432
tot    0.432  0.131  0.001  0.000  0.000  0.000  0.000  0.000  0.000  0.564
 
band     2 # energy    0.22522365 # occ.  2.00000000
 
ion      s     py     pz     px    dxy    dyz    dz2    dxz  x2-y2    tot
    1  0.350  0.000  0.000  0.000  0.000  0.000  0.000  0.000  0.000  0.351
    2  0.000  0.184  0.001  0.000  0.000  0.000  0.000  0.000  0.000  0.184
tot    0.350  0.184  0.001  0.000  0.000  0.000  0.000  0.000  0.000  0.535
 
band     3 # energy    4.66353208 # occ.  2.00000000
 
ion      s     py     pz     px    dxy    dyz    dz2    dxz  x2-y2    tot
    1  0.000  0.007  0.216  0.000  0.000  0.000  0.000  0.000  0.000  0.223
    2  0.002  0.000  0.000  0.301  0.000  0.000  0.000  0.000  0.000  0.303
tot    0.002  0.007  0.216  0.301  0.000  0.000  0.000  0.000  0.000  0.526
 
band     4 # energy    4.67624860 # occ.  2.00000000
 
ion      s     py     pz     px    dxy    dyz    dz2    dxz  x2-y2    tot
    1  0.005  0.000  0.000  0.217  0.000  0.000  0.000  0.000  0.000  0.222
    2  0.000  0.002  0.307  0.000  0.000  0.000  0.000  0.000  0.000  0.309
tot    0.005  0.002  0.307  0.217  0.000  0.000  0.000  0.000  0.000  0.531
 
band     5 # energy    9.51957978 # occ.  0.00000000
 
ion      s     py     pz     px    dxy    dyz    dz2    dxz  x2-y2    tot
    1  0.000  0.093  0.005  0.000  0.000  0.000  0.000  0.000  0.000  0.098
    2  0.086  0.000  0.000  0.017  0.000  0.000  0.000  0.000  0.000  0.104
tot    0.086  0.093  0.005  0.017  0.000  0.000  0.000  0.000  0.000  0.201
 
band     6 # energy   12.40054720 # occ.  0.00000000
 
ion      s     py     pz     px    dxy    dyz    dz2    dxz  x2-y2    tot
    1  0.246  0.000  0.000  0.006  0.000  0.000  0.000  0.000  0.000  0.252
    2  0.000  0.034  0.008  0.000  0.000  0.000  0.000  0.000  0.000  0.043
tot    0.246  0.034  0.008  0.006  0.000  0.000  0.000  0.000  0.000  0.295
 
band     7 # energy   21.55476913 # occ.  0.00000000
 
ion      s     py     pz     px    dxy    dyz    dz2    dxz  x2-y2    tot
    1  0.000  0.006  0.203  0.000  0.000  0.000  0.000  0.000  0.000  0.210
    2  0.007  0.000  0.000  0.291  0.000  0.000  0.000  0.000  0.000  0.298
tot    0.007  0.006  0.203  0.291  0.000  0.000  0.000  0.000  0.000  0.508
 
band     8 # energy   21.81402948 # occ.  0.00000000
 
ion      s     py     pz     px    dxy    dyz    dz2    dxz  x2-y2    tot
    1  0.000  0.000  0.000  0.215  0.000  0.000  0.000  0.000  0.000  0.215
    2  0.000  0.002  0.308  0.000  0.000  0.000  0.000  0.000  0.000  0.309
tot    0.000  0.002  0.308  0.215  0.000  0.000  0.000  0.000  0.000  0.524
 

 k-point   118 :    0.50000000 0.02631579 0.52631579     weight = 0.00416667

band     1 # energy   -2.39274036 # occ.  2.00000000
 
ion      s     py     pz     px    dxy    dyz    dz2    dxz  x2-y2    tot
    1  0.000  0.132  0.001  0.000  0.000  0.000  0.000  0.000  0.000  0.132
    2  0.431  0.000  0.000  0.000  0.000  0.000  0.000  0.000  0.000  0.431
tot    0.431  0.132  0.001  0.000  0.000  0.000  0.000  0.000  0.000  0.563
 
band     2 # energy    0.20755861 # occ.  2.00000000
 
ion      s     py     pz     px    dxy    dyz    dz2    dxz  x2-y2    tot
    1  0.350  0.000  0.000  0.000  0.000  0.000  0.000  0.000  0.000  0.350
    2  0.000  0.184  0.000  0.000  0.000  0.000  0.000  0.000  0.000  0.184
tot    0.350  0.184  0.000  0.000  0.000  0.000  0.000  0.000  0.000  0.534
 
band     3 # energy    4.72954761 # occ.  2.00000000
 
ion      s     py     pz     px    dxy    dyz    dz2    dxz  x2-y2    tot
    1  0.000  0.003  0.220  0.000  0.000  0.000  0.000  0.000  0.000  0.223
    2  0.001  0.000  0.000  0.308  0.000  0.000  0.000  0.000  0.000  0.309
tot    0.001  0.003  0.220  0.308  0.000  0.000  0.000  0.000  0.000  0.532
 
band     4 # energy    4.73603060 # occ.  2.00000000
 
ion      s     py     pz     px    dxy    dyz    dz2    dxz  x2-y2    tot
    1  0.002  0.000  0.000  0.220  0.000  0.000  0.000  0.000  0.000  0.223
    2  0.000  0.001  0.311  0.000  0.000  0.000  0.000  0.000  0.000  0.312
tot    0.002  0.001  0.311  0.220  0.000  0.000  0.000  0.000  0.000  0.535
 
band     5 # energy    9.40604970 # occ.  0.00000000
 
ion      s     py     pz     px    dxy    dyz    dz2    dxz  x2-y2    tot
    1  0.000  0.096  0.002  0.000  0.000  0.000  0.000  0.000  0.000  0.098
    2  0.089  0.000  0.000  0.008  0.000  0.000  0.000  0.000  0.000  0.097
tot    0.089  0.096  0.002  0.008  0.000  0.000  0.000  0.000  0.000  0.195
 
band     6 # energy   12.29685590 # occ.  0.00000000
 
ion      s     py     pz     px    dxy    dyz    dz2    dxz  x2-y2    tot
    1  0.250  0.000  0.000  0.003  0.000  0.000  0.000  0.000  0.000  0.253
    2  0.000  0.035  0.004  0.000  0.000  0.000  0.000  0.000  0.000  0.038
tot    0.250  0.035  0.004  0.003  0.000  0.000  0.000  0.000  0.000  0.291
 
band     7 # energy   21.69132992 # occ.  0.00000000
 
ion      s     py     pz     px    dxy    dyz    dz2    dxz  x2-y2    tot
    1  0.000  0.003  0.208  0.000  0.000  0.000  0.000  0.000  0.000  0.211
    2  0.003  0.000  0.000  0.301  0.000  0.000  0.000  0.000  0.000  0.305
tot    0.003  0.003  0.208  0.301  0.000  0.000  0.000  0.000  0.000  0.516
 
band     8 # energy   21.81288548 # occ.  0.00000000
 
ion      s     py     pz     px    dxy    dyz    dz2    dxz  x2-y2    tot
    1  0.000  0.000  0.000  0.214  0.000  0.000  0.000  0.000  0.000  0.215
    2  0.000  0.000  0.308  0.000  0.000  0.000  0.000  0.000  0.000  0.308
tot    0.000  0.000  0.308  0.214  0.000  0.000  0.000  0.000  0.000  0.523
 

 k-point   119 :    0.50000000 0.01315789 0.51315789     weight = 0.00416667

band     1 # energy   -2.39690278 # occ.  2.00000000
 
ion      s     py     pz     px    dxy    dyz    dz2    dxz  x2-y2    tot
    1  0.000  0.132  0.000  0.000  0.000  0.000  0.000  0.000  0.000  0.132
    2  0.431  0.000  0.000  0.000  0.000  0.000  0.000  0.000  0.000  0.431
tot    0.431  0.132  0.000  0.000  0.000  0.000  0.000  0.000  0.000  0.563
 
band     2 # energy    0.19690021 # occ.  2.00000000
 
ion      s     py     pz     px    dxy    dyz    dz2    dxz  x2-y2    tot
    1  0.349  0.000  0.000  0.000  0.000  0.000  0.000  0.000  0.000  0.349
    2  0.000  0.184  0.000  0.000  0.000  0.000  0.000  0.000  0.000  0.184
tot    0.349  0.184  0.000  0.000  0.000  0.000  0.000  0.000  0.000  0.534
 
band     3 # energy    4.77111538 # occ.  2.00000000
 
ion      s     py     pz     px    dxy    dyz    dz2    dxz  x2-y2    tot
    1  0.000  0.001  0.222  0.000  0.000  0.000  0.000  0.000  0.000  0.223
    2  0.000  0.000  0.000  0.313  0.000  0.000  0.000  0.000  0.000  0.313
tot    0.000  0.001  0.222  0.313  0.000  0.000  0.000  0.000  0.000  0.537
 
band     4 # energy    4.77287506 # occ.  2.00000000
 
ion      s     py     pz     px    dxy    dyz    dz2    dxz  x2-y2    tot
    1  0.001  0.000  0.000  0.222  0.000  0.000  0.000  0.000  0.000  0.223
    2  0.000  0.000  0.314  0.000  0.000  0.000  0.000  0.000  0.000  0.314
tot    0.001  0.000  0.314  0.222  0.000  0.000  0.000  0.000  0.000  0.537
 
band     5 # energy    9.33591728 # occ.  0.00000000
 
ion      s     py     pz     px    dxy    dyz    dz2    dxz  x2-y2    tot
    1  0.000  0.098  0.001  0.000  0.000  0.000  0.000  0.000  0.000  0.099
    2  0.090  0.000  0.000  0.002  0.000  0.000  0.000  0.000  0.000  0.092
tot    0.090  0.098  0.001  0.002  0.000  0.000  0.000  0.000  0.000  0.191
 
band     6 # energy   12.23367673 # occ.  0.00000000
 
ion      s     py     pz     px    dxy    dyz    dz2    dxz  x2-y2    tot
    1  0.252  0.000  0.000  0.001  0.000  0.000  0.000  0.000  0.000  0.253
    2  0.000  0.035  0.001  0.000  0.000  0.000  0.000  0.000  0.000  0.036
tot    0.252  0.035  0.001  0.001  0.000  0.000  0.000  0.000  0.000  0.289
 
band     7 # energy   21.77707455 # occ.  0.00000000
 
ion      s     py     pz     px    dxy    dyz    dz2    dxz  x2-y2    tot
    1  0.000  0.001  0.212  0.000  0.000  0.000  0.000  0.000  0.000  0.212
    2  0.001  0.001  0.000  0.308  0.000  0.000  0.000  0.000  0.000  0.310
tot    0.001  0.001  0.212  0.308  0.000  0.000  0.000  0.000  0.000  0.522
 
band     8 # energy   21.80510671 # occ.  0.00000000
 
ion      s     py     pz     px    dxy    dyz    dz2    dxz  x2-y2    tot
    1  0.000  0.000  0.000  0.213  0.000  0.000  0.000  0.000  0.000  0.213
    2  0.000  0.000  0.309  0.000  0.000  0.000  0.000  0.000  0.000  0.310
tot    0.000  0.000  0.310  0.213  0.000  0.000  0.000  0.000  0.000  0.523
 

 k-point   120 :    0.50000000 0.00000000 0.50000000     weight = 0.00416667

band     1 # energy   -2.39831047 # occ.  2.00000000
 
ion      s     py     pz     px    dxy    dyz    dz2    dxz  x2-y2    tot
    1  0.000  0.132  0.000  0.000  0.000  0.000  0.000  0.000  0.000  0.132
    2  0.431  0.000  0.000  0.000  0.000  0.000  0.000  0.000  0.000  0.431
tot    0.431  0.132  0.000  0.000  0.000  0.000  0.000  0.000  0.000  0.563
 
band     2 # energy    0.19333169 # occ.  2.00000000
 
ion      s     py     pz     px    dxy    dyz    dz2    dxz  x2-y2    tot
    1  0.349  0.000  0.000  0.000  0.000  0.000  0.000  0.000  0.000  0.349
    2  0.000  0.184  0.000  0.000  0.000  0.000  0.000  0.000  0.000  0.184
tot    0.349  0.184  0.000  0.000  0.000  0.000  0.000  0.000  0.000  0.533
 
band     3 # energy    4.78532213 # occ.  2.00000000
 
ion      s     py     pz     px    dxy    dyz    dz2    dxz  x2-y2    tot
    1  0.000  0.000  0.112  0.112  0.000  0.000  0.000  0.000  0.000  0.223
    2  0.000  0.000  0.157  0.157  0.000  0.000  0.000  0.000  0.000  0.315
tot    0.000  0.000  0.269  0.269  0.000  0.000  0.000  0.000  0.000  0.538
 
band     4 # energy    4.78532236 # occ.  2.00000000
 
ion      s     py     pz     px    dxy    dyz    dz2    dxz  x2-y2    tot
    1  0.000  0.000  0.112  0.112  0.000  0.000  0.000  0.000  0.000  0.223
    2  0.000  0.000  0.157  0.157  0.000  0.000  0.000  0.000  0.000  0.315
tot    0.000  0.000  0.269  0.269  0.000  0.000  0.000  0.000  0.000  0.538
 
band     5 # energy    9.31217896 # occ.  0.00000000
 
ion      s     py     pz     px    dxy    dyz    dz2    dxz  x2-y2    tot
    1  0.000  0.099  0.000  0.000  0.000  0.000  0.000  0.000  0.000  0.099
    2  0.091  0.000  0.000  0.000  0.000  0.000  0.000  0.000  0.000  0.091
tot    0.091  0.099  0.000  0.000  0.000  0.000  0.000  0.000  0.000  0.190
 
band     6 # energy   12.21244698 # occ.  0.00000000
 
ion      s     py     pz     px    dxy    dyz    dz2    dxz  x2-y2    tot
    1  0.253  0.000  0.000  0.000  0.000  0.000  0.000  0.000  0.000  0.253
    2  0.000  0.035  0.000  0.000  0.000  0.000  0.000  0.000  0.000  0.035
tot    0.253  0.035  0.000  0.000  0.000  0.000  0.000  0.000  0.000  0.288
 
band     7 # energy   21.80373914 # occ.  0.00000000
 
ion      s     py     pz     px    dxy    dyz    dz2    dxz  x2-y2    tot
    1  0.000  0.000  0.187  0.026  0.000  0.000  0.000  0.000  0.000  0.212
    2  0.000  0.000  0.037  0.273  0.000  0.000  0.000  0.000  0.000  0.310
tot    0.000  0.000  0.224  0.298  0.000  0.000  0.000  0.000  0.000  0.523
 
band     8 # energy   21.80485042 # occ.  0.00000000
 
ion      s     py     pz     px    dxy    dyz    dz2    dxz  x2-y2    tot
    1  0.000  0.000  0.025  0.186  0.000  0.000  0.000  0.000  0.000  0.212
    2  0.000  0.000  0.272  0.037  0.000  0.000  0.000  0.000  0.000  0.310
tot    0.000  0.000  0.298  0.223  0.000  0.000  0.000  0.000  0.000  0.521
 

 k-point   121 :    0.00000000 0.00000000 0.00000000     weight = 0.00416667

band     1 # energy   -7.34592252 # occ.  2.00000000
 
ion      s     py     pz     px    dxy    dyz    dz2    dxz  x2-y2    tot
    1  0.244  0.000  0.000  0.000  0.000  0.000  0.000  0.000  0.000  0.244
    2  0.252  0.000  0.000  0.000  0.000  0.000  0.000  0.000  0.000  0.252
tot    0.496  0.000  0.000  0.000  0.000  0.000  0.000  0.000  0.000  0.496
 
band     2 # energy    7.94152032 # occ.  2.00000000
 
ion      s     py     pz     px    dxy    dyz    dz2    dxz  x2-y2    tot
    1  0.000  0.021  0.002  0.034  0.000  0.000  0.000  0.000  0.000  0.057
    2  0.000  0.177  0.014  0.280  0.000  0.000  0.000  0.000  0.000  0.471
tot    0.000  0.199  0.016  0.314  0.000  0.000  0.000  0.000  0.000  0.528
 
band     3 # energy    7.94152032 # occ.  2.00000000
 
ion      s     py     pz     px    dxy    dyz    dz2    dxz  x2-y2    tot
    1  0.000  0.017  0.036  0.004  0.000  0.000  0.000  0.000  0.000  0.057
    2  0.000  0.137  0.300  0.034  0.000  0.000  0.000  0.000  0.000  0.471
tot    0.000  0.153  0.336  0.038  0.000  0.000  0.000  0.000  0.000  0.528
 
band     4 # energy    7.94152090 # occ.  2.00000000
 
ion      s     py     pz     px    dxy    dyz    dz2    dxz  x2-y2    tot
    1  0.000  0.019  0.019  0.019  0.000  0.000  0.000  0.000  0.000  0.057
    2  0.000  0.157  0.157  0.157  0.000  0.000  0.000  0.000  0.000  0.471
tot    0.000  0.176  0.176  0.176  0.000  0.000  0.000  0.000  0.000  0.528
 
band     5 # energy   14.00215207 # occ.  0.00000000
 
ion      s     py     pz     px    dxy    dyz    dz2    dxz  x2-y2    tot
    1  0.126  0.000  0.000  0.000  0.000  0.000  0.000  0.000  0.000  0.126
    2  0.446  0.000  0.000  0.000  0.000  0.000  0.000  0.000  0.000  0.446
tot    0.572  0.000  0.000  0.000  0.000  0.000  0.000  0.000  0.000  0.572
 
band     6 # energy   15.14689590 # occ.  0.00000000
 
ion      s     py     pz     px    dxy    dyz    dz2    dxz  x2-y2    tot
    1  0.000  0.165  0.167  0.167  0.000  0.000  0.000  0.000  0.000  0.499
    2  0.000  0.003  0.003  0.003  0.000  0.000  0.000  0.000  0.000  0.010
tot    0.000  0.168  0.170  0.170  0.000  0.000  0.000  0.000  0.000  0.509
 
band     7 # energy   15.14689594 # occ.  0.00000000
 
ion      s     py     pz     px    dxy    dyz    dz2    dxz  x2-y2    tot
    1  0.000  0.297  0.018  0.183  0.000  0.000  0.000  0.000  0.000  0.499
    2  0.000  0.006  0.000  0.004  0.000  0.000  0.000  0.000  0.000  0.010
tot    0.000  0.303  0.018  0.187  0.000  0.000  0.000  0.000  0.000  0.509
 
band     8 # energy   15.14689595 # occ.  0.00000000
 
ion      s     py     pz     px    dxy    dyz    dz2    dxz  x2-y2    tot
    1  0.000  0.036  0.314  0.148  0.000  0.000  0.000  0.000  0.000  0.499
    2  0.000  0.001  0.006  0.003  0.000  0.000  0.000  0.000  0.000  0.010
tot    0.000  0.037  0.320  0.151  0.000  0.000  0.000  0.000  0.000  0.509
 

 k-point   122 :   -0.02631579 0.00000000-0.02631579     weight = 0.00416667

band     1 # energy   -7.32806363 # occ.  2.00000000
 
ion      s     py     pz     px    dxy    dyz    dz2    dxz  x2-y2    tot
    1  0.243  0.000  0.000  0.000  0.000  0.000  0.000  0.000  0.000  0.244
    2  0.252  0.000  0.000  0.000  0.000  0.000  0.000  0.000  0.000  0.252
tot    0.496  0.000  0.000  0.000  0.000  0.000  0.000  0.000  0.000  0.496
 
band     2 # energy    7.88198414 # occ.  2.00000000
 
ion      s     py     pz     px    dxy    dyz    dz2    dxz  x2-y2    tot
    1  0.002  0.057  0.000  0.000  0.000  0.000  0.000  0.000  0.000  0.059
    2  0.006  0.463  0.000  0.000  0.000  0.000  0.000  0.000  0.000  0.469
tot    0.008  0.520  0.000  0.000  0.000  0.000  0.000  0.000  0.000  0.528
 
band     3 # energy    7.90524172 # occ.  2.00000000
 
ion      s     py     pz     px    dxy    dyz    dz2    dxz  x2-y2    tot
    1  0.000  0.000  0.030  0.030  0.000  0.000  0.000  0.000  0.000  0.060
    2  0.000  0.000  0.234  0.234  0.000  0.000  0.000  0.000  0.000  0.467
tot    0.000  0.000  0.264  0.264  0.000  0.000  0.000  0.000  0.000  0.528
 
band     4 # energy    7.90524210 # occ.  2.00000000
 
ion      s     py     pz     px    dxy    dyz    dz2    dxz  x2-y2    tot
    1  0.000  0.000  0.030  0.030  0.000  0.000  0.000  0.000  0.000  0.060
    2  0.000  0.000  0.234  0.234  0.000  0.000  0.000  0.000  0.000  0.467
tot    0.000  0.000  0.264  0.264  0.000  0.000  0.000  0.000  0.000  0.528
 
band     5 # energy   14.05696752 # occ.  0.00000000
 
ion      s     py     pz     px    dxy    dyz    dz2    dxz  x2-y2    tot
    1  0.122  0.003  0.000  0.000  0.000  0.000  0.000  0.000  0.000  0.125
    2  0.438  0.008  0.000  0.000  0.000  0.000  0.000  0.000  0.000  0.446
tot    0.560  0.011  0.000  0.000  0.000  0.000  0.000  0.000  0.000  0.571
 
band     6 # energy   15.09741456 # occ.  0.00000000
 
ion      s     py     pz     px    dxy    dyz    dz2    dxz  x2-y2    tot
    1  0.008  0.489  0.000  0.000  0.000  0.000  0.000  0.000  0.000  0.497
    2  0.001  0.011  0.000  0.000  0.000  0.000  0.000  0.000  0.000  0.011
tot    0.008  0.500  0.000  0.000  0.000  0.000  0.000  0.000  0.000  0.508
 
band     7 # energy   15.19935163 # occ.  0.00000000
 
ion      s     py     pz     px    dxy    dyz    dz2    dxz  x2-y2    tot
    1  0.000  0.000  0.304  0.191  0.000  0.000  0.000  0.000  0.000  0.495
    2  0.000  0.000  0.009  0.005  0.000  0.000  0.000  0.000  0.000  0.014
tot    0.000  0.000  0.313  0.196  0.000  0.000  0.000  0.000  0.000  0.509
 
band     8 # energy   15.19935167 # occ.  0.00000000
 
ion      s     py     pz     px    dxy    dyz    dz2    dxz  x2-y2    tot
    1  0.000  0.000  0.191  0.304  0.000  0.000  0.000  0.000  0.000  0.495
    2  0.000  0.000  0.005  0.009  0.000  0.000  0.000  0.000  0.000  0.014
tot    0.000  0.000  0.196  0.313  0.000  0.000  0.000  0.000  0.000  0.509
 

 k-point   123 :   -0.05263158 0.00000000-0.05263158     weight = 0.00416667

band     1 # energy   -7.27445361 # occ.  2.00000000
 
ion      s     py     pz     px    dxy    dyz    dz2    dxz  x2-y2    tot
    1  0.242  0.001  0.000  0.000  0.000  0.000  0.000  0.000  0.000  0.243
    2  0.253  0.001  0.000  0.000  0.000  0.000  0.000  0.000  0.000  0.253
tot    0.495  0.002  0.000  0.000  0.000  0.000  0.000  0.000  0.000  0.497
 
band     2 # energy    7.71068978 # occ.  2.00000000
 
ion      s     py     pz     px    dxy    dyz    dz2    dxz  x2-y2    tot
    1  0.008  0.056  0.000  0.000  0.000  0.000  0.000  0.000  0.000  0.064
    2  0.022  0.443  0.000  0.000  0.000  0.000  0.000  0.000  0.000  0.465
tot    0.030  0.499  0.000  0.000  0.000  0.000  0.000  0.000  0.000  0.529
 
band     3 # energy    7.80022807 # occ.  2.00000000
 
ion      s     py     pz     px    dxy    dyz    dz2    dxz  x2-y2    tot
    1  0.000  0.000  0.035  0.035  0.000  0.000  0.000  0.000  0.000  0.070
    2  0.000  0.000  0.229  0.229  0.000  0.000  0.000  0.000  0.000  0.458
tot    0.000  0.000  0.264  0.264  0.000  0.000  0.000  0.000  0.000  0.528
 
band     4 # energy    7.80022845 # occ.  2.00000000
 
ion      s     py     pz     px    dxy    dyz    dz2    dxz  x2-y2    tot
    1  0.000  0.000  0.035  0.035  0.000  0.000  0.000  0.000  0.000  0.070
    2  0.000  0.000  0.229  0.229  0.000  0.000  0.000  0.000  0.000  0.458
tot    0.000  0.000  0.264  0.264  0.000  0.000  0.000  0.000  0.000  0.528
 
band     5 # energy   14.20524516 # occ.  0.00000000
 
ion      s     py     pz     px    dxy    dyz    dz2    dxz  x2-y2    tot
    1  0.106  0.020  0.000  0.000  0.000  0.000  0.000  0.000  0.000  0.127
    2  0.413  0.028  0.000  0.000  0.000  0.000  0.000  0.000  0.000  0.441
tot    0.519  0.048  0.000  0.000  0.000  0.000  0.000  0.000  0.000  0.567
 
band     6 # energy   14.95959399 # occ.  0.00000000
 
ion      s     py     pz     px    dxy    dyz    dz2    dxz  x2-y2    tot
    1  0.034  0.456  0.000  0.000  0.000  0.000  0.000  0.000  0.000  0.489
    2  0.006  0.015  0.000  0.000  0.000  0.000  0.000  0.000  0.000  0.021
tot    0.039  0.471  0.000  0.000  0.000  0.000  0.000  0.000  0.000  0.510
 
band     7 # energy   15.35265468 # occ.  0.00000000
 
ion      s     py     pz     px    dxy    dyz    dz2    dxz  x2-y2    tot
    1  0.000  0.000  0.243  0.241  0.000  0.000  0.000  0.000  0.000  0.485
    2  0.000  0.000  0.013  0.012  0.000  0.000  0.000  0.000  0.000  0.025
tot    0.000  0.000  0.256  0.254  0.000  0.000  0.000  0.000  0.000  0.510
 
band     8 # energy   15.35265470 # occ.  0.00000000
 
ion      s     py     pz     px    dxy    dyz    dz2    dxz  x2-y2    tot
    1  0.000  0.000  0.241  0.243  0.000  0.000  0.000  0.000  0.000  0.485
    2  0.000  0.000  0.012  0.013  0.000  0.000  0.000  0.000  0.000  0.025
tot    0.000  0.000  0.254  0.256  0.000  0.000  0.000  0.000  0.000  0.510
 

 k-point   124 :   -0.07894737 0.00000000-0.07894737     weight = 0.00416667

band     1 # energy   -7.18532043 # occ.  2.00000000
 
ion      s     py     pz     px    dxy    dyz    dz2    dxz  x2-y2    tot
    1  0.240  0.003  0.000  0.000  0.000  0.000  0.000  0.000  0.000  0.243
    2  0.253  0.001  0.000  0.000  0.000  0.000  0.000  0.000  0.000  0.254
tot    0.493  0.004  0.000  0.000  0.000  0.000  0.000  0.000  0.000  0.497
 
band     2 # energy    7.44582367 # occ.  2.00000000
 
ion      s     py     pz     px    dxy    dyz    dz2    dxz  x2-y2    tot
    1  0.017  0.055  0.000  0.000  0.000  0.000  0.000  0.000  0.000  0.072
    2  0.043  0.415  0.000  0.000  0.000  0.000  0.000  0.000  0.000  0.458
tot    0.060  0.471  0.000  0.000  0.000  0.000  0.000  0.000  0.000  0.530
 
band     3 # energy    7.63666265 # occ.  2.00000000
 
ion      s     py     pz     px    dxy    dyz    dz2    dxz  x2-y2    tot
    1  0.000  0.000  0.042  0.042  0.000  0.000  0.000  0.000  0.000  0.083
    2  0.000  0.000  0.222  0.222  0.000  0.000  0.000  0.000  0.000  0.445
tot    0.000  0.000  0.264  0.264  0.000  0.000  0.000  0.000  0.000  0.528
 
band     4 # energy    7.63666301 # occ.  2.00000000
 
ion      s     py     pz     px    dxy    dyz    dz2    dxz  x2-y2    tot
    1  0.000  0.000  0.042  0.042  0.000  0.000  0.000  0.000  0.000  0.083
    2  0.000  0.000  0.222  0.222  0.000  0.000  0.000  0.000  0.000  0.445
tot    0.000  0.000  0.264  0.264  0.000  0.000  0.000  0.000  0.000  0.528
 
band     5 # energy   14.36990930 # occ.  0.00000000
 
ion      s     py     pz     px    dxy    dyz    dz2    dxz  x2-y2    tot
    1  0.048  0.128  0.000  0.000  0.000  0.000  0.000  0.000  0.000  0.176
    2  0.324  0.036  0.000  0.000  0.000  0.000  0.000  0.000  0.000  0.360
tot    0.372  0.164  0.000  0.000  0.000  0.000  0.000  0.000  0.000  0.536
 
band     6 # energy   14.79412627 # occ.  0.00000000
 
ion      s     py     pz     px    dxy    dyz    dz2    dxz  x2-y2    tot
    1  0.107  0.323  0.000  0.000  0.000  0.000  0.000  0.000  0.000  0.430
    2  0.065  0.042  0.000  0.000  0.000  0.000  0.000  0.000  0.000  0.107
tot    0.172  0.365  0.000  0.000  0.000  0.000  0.000  0.000  0.000  0.537
 
band     7 # energy   15.59585854 # occ.  0.00000000
 
ion      s     py     pz     px    dxy    dyz    dz2    dxz  x2-y2    tot
    1  0.000  0.000  0.169  0.301  0.000  0.000  0.000  0.000  0.000  0.469
    2  0.000  0.000  0.013  0.029  0.000  0.000  0.000  0.000  0.000  0.042
tot    0.000  0.000  0.181  0.330  0.000  0.000  0.000  0.000  0.000  0.511
 
band     8 # energy   15.59585855 # occ.  0.00000000
 
ion      s     py     pz     px    dxy    dyz    dz2    dxz  x2-y2    tot
    1  0.000  0.000  0.301  0.169  0.000  0.000  0.000  0.000  0.000  0.469
    2  0.000  0.000  0.029  0.013  0.000  0.000  0.000  0.000  0.000  0.042
tot    0.000  0.000  0.330  0.181  0.000  0.000  0.000  0.000  0.000  0.511
 

 k-point   125 :   -0.10526316 0.00000000-0.10526316     weight = 0.00416667

band     1 # energy   -7.06080155 # occ.  2.00000000
 
ion      s     py     pz     px    dxy    dyz    dz2    dxz  x2-y2    tot
    1  0.237  0.006  0.000  0.000  0.000  0.000  0.000  0.000  0.000  0.242
    2  0.254  0.002  0.000  0.000  0.000  0.000  0.000  0.000  0.000  0.256
tot    0.491  0.008  0.000  0.000  0.000  0.000  0.000  0.000  0.000  0.499
 
band     2 # energy    7.10885035 # occ.  2.00000000
 
ion      s     py     pz     px    dxy    dyz    dz2    dxz  x2-y2    tot
    1  0.027  0.055  0.000  0.000  0.000  0.000  0.000  0.000  0.000  0.082
    2  0.066  0.384  0.000  0.000  0.000  0.000  0.000  0.000  0.000  0.450
tot    0.093  0.439  0.000  0.000  0.000  0.000  0.000  0.000  0.000  0.533
 
band     3 # energy    7.42817045 # occ.  2.00000000
 
ion      s     py     pz     px    dxy    dyz    dz2    dxz  x2-y2    tot
    1  0.000  0.000  0.050  0.050  0.000  0.000  0.000  0.000  0.000  0.099
    2  0.000  0.000  0.214  0.214  0.000  0.000  0.000  0.000  0.000  0.429
tot    0.000  0.000  0.264  0.264  0.000  0.000  0.000  0.000  0.000  0.528
 
band     4 # energy    7.42817079 # occ.  2.00000000
 
ion      s     py     pz     px    dxy    dyz    dz2    dxz  x2-y2    tot
    1  0.000  0.000  0.050  0.050  0.000  0.000  0.000  0.000  0.000  0.099
    2  0.000  0.000  0.214  0.214  0.000  0.000  0.000  0.000  0.000  0.429
tot    0.000  0.000  0.264  0.264  0.000  0.000  0.000  0.000  0.000  0.528
 
band     5 # energy   14.27209467 # occ.  0.00000000
 
ion      s     py     pz     px    dxy    dyz    dz2    dxz  x2-y2    tot
    1  0.003  0.365  0.000  0.000  0.000  0.000  0.000  0.000  0.000  0.367
    2  0.101  0.005  0.000  0.000  0.000  0.000  0.000  0.000  0.000  0.106
tot    0.104  0.370  0.000  0.000  0.000  0.000  0.000  0.000  0.000  0.473
 
band     6 # energy   14.85134514 # occ.  0.00000000
 
ion      s     py     pz     px    dxy    dyz    dz2    dxz  x2-y2    tot
    1  0.171  0.057  0.000  0.000  0.000  0.000  0.000  0.000  0.000  0.228
    2  0.250  0.109  0.000  0.000  0.000  0.000  0.000  0.000  0.000  0.360
tot    0.421  0.167  0.000  0.000  0.000  0.000  0.000  0.000  0.000  0.588
 
band     7 # energy   15.91427136 # occ.  0.00000000
 
ion      s     py     pz     px    dxy    dyz    dz2    dxz  x2-y2    tot
    1  0.000  0.000  0.289  0.162  0.000  0.000  0.000  0.000  0.000  0.451
    2  0.000  0.000  0.020  0.041  0.000  0.000  0.000  0.000  0.000  0.061
tot    0.000  0.000  0.309  0.203  0.000  0.000  0.000  0.000  0.000  0.512
 
band     8 # energy   15.91427138 # occ.  0.00000000
 
ion      s     py     pz     px    dxy    dyz    dz2    dxz  x2-y2    tot
    1  0.000  0.000  0.162  0.289  0.000  0.000  0.000  0.000  0.000  0.451
    2  0.000  0.000  0.041  0.020  0.000  0.000  0.000  0.000  0.000  0.061
tot    0.000  0.000  0.203  0.309  0.000  0.000  0.000  0.000  0.000  0.512
 

 k-point   126 :   -0.13157895 0.00000000-0.13157895     weight = 0.00416667

band     1 # energy   -6.90132075 # occ.  2.00000000
 
ion      s     py     pz     px    dxy    dyz    dz2    dxz  x2-y2    tot
    1  0.233  0.009  0.000  0.000  0.000  0.000  0.000  0.000  0.000  0.242
    2  0.255  0.003  0.000  0.000  0.000  0.000  0.000  0.000  0.000  0.258
tot    0.488  0.012  0.000  0.000  0.000  0.000  0.000  0.000  0.000  0.500
 
band     2 # energy    6.71871789 # occ.  2.00000000
 
ion      s     py     pz     px    dxy    dyz    dz2    dxz  x2-y2    tot
    1  0.039  0.055  0.000  0.000  0.000  0.000  0.000  0.000  0.000  0.094
    2  0.088  0.354  0.000  0.000  0.000  0.000  0.000  0.000  0.000  0.442
tot    0.126  0.409  0.000  0.000  0.000  0.000  0.000  0.000  0.000  0.536
 
band     3 # energy    7.18890140 # occ.  2.00000000
 
ion      s     py     pz     px    dxy    dyz    dz2    dxz  x2-y2    tot
    1  0.000  0.000  0.058  0.058  0.000  0.000  0.000  0.000  0.000  0.115
    2  0.000  0.000  0.206  0.206  0.000  0.000  0.000  0.000  0.000  0.413
tot    0.000  0.000  0.264  0.264  0.000  0.000  0.000  0.000  0.000  0.528
 
band     4 # energy    7.18890173 # occ.  2.00000000
 
ion      s     py     pz     px    dxy    dyz    dz2    dxz  x2-y2    tot
    1  0.000  0.000  0.058  0.058  0.000  0.000  0.000  0.000  0.000  0.115
    2  0.000  0.000  0.206  0.206  0.000  0.000  0.000  0.000  0.000  0.413
tot    0.000  0.000  0.264  0.264  0.000  0.000  0.000  0.000  0.000  0.528
 
band     5 # energy   13.94540801 # occ.  0.00000000
 
ion      s     py     pz     px    dxy    dyz    dz2    dxz  x2-y2    tot
    1  0.027  0.379  0.000  0.000  0.000  0.000  0.000  0.000  0.000  0.406
    2  0.048  0.001  0.000  0.000  0.000  0.000  0.000  0.000  0.000  0.049
tot    0.076  0.380  0.000  0.000  0.000  0.000  0.000  0.000  0.000  0.455
 
band     6 # energy   15.04939977 # occ.  0.00000000
 
ion      s     py     pz     px    dxy    dyz    dz2    dxz  x2-y2    tot
    1  0.164  0.011  0.000  0.000  0.000  0.000  0.000  0.000  0.000  0.175
    2  0.255  0.147  0.000  0.000  0.000  0.000  0.000  0.000  0.000  0.402
tot    0.420  0.157  0.000  0.000  0.000  0.000  0.000  0.000  0.000  0.577
 
band     7 # energy   16.29229075 # occ.  0.00000000
 
ion      s     py     pz     px    dxy    dyz    dz2    dxz  x2-y2    tot
    1  0.000  0.000  0.199  0.232  0.000  0.000  0.000  0.000  0.000  0.431
    2  0.000  0.000  0.044  0.039  0.000  0.000  0.000  0.000  0.000  0.082
tot    0.000  0.000  0.243  0.271  0.000  0.000  0.000  0.000  0.000  0.513
 
band     8 # energy   16.29229082 # occ.  0.00000000
 
ion      s     py     pz     px    dxy    dyz    dz2    dxz  x2-y2    tot
    1  0.000  0.000  0.232  0.199  0.000  0.000  0.000  0.000  0.000  0.431
    2  0.000  0.000  0.039  0.044  0.000  0.000  0.000  0.000  0.000  0.082
tot    0.000  0.000  0.271  0.243  0.000  0.000  0.000  0.000  0.000  0.513
 

 k-point   127 :   -0.15789474 0.00000000-0.15789474     weight = 0.00416667

band     1 # energy   -6.70731524 # occ.  2.00000000
 
ion      s     py     pz     px    dxy    dyz    dz2    dxz  x2-y2    tot
    1  0.228  0.013  0.000  0.000  0.000  0.000  0.000  0.000  0.000  0.241
    2  0.256  0.005  0.000  0.000  0.000  0.000  0.000  0.000  0.000  0.261
tot    0.485  0.017  0.000  0.000  0.000  0.000  0.000  0.000  0.000  0.502
 
band     2 # energy    6.28972160 # occ.  2.00000000
 
ion      s     py     pz     px    dxy    dyz    dz2    dxz  x2-y2    tot
    1  0.051  0.055  0.000  0.000  0.000  0.000  0.000  0.000  0.000  0.106
    2  0.107  0.326  0.000  0.000  0.000  0.000  0.000  0.000  0.000  0.433
tot    0.158  0.382  0.000  0.000  0.000  0.000  0.000  0.000  0.000  0.539
 
band     3 # energy    6.93168207 # occ.  2.00000000
 
ion      s     py     pz     px    dxy    dyz    dz2    dxz  x2-y2    tot
    1  0.000  0.000  0.066  0.066  0.000  0.000  0.000  0.000  0.000  0.131
    2  0.000  0.000  0.199  0.199  0.000  0.000  0.000  0.000  0.000  0.397
tot    0.000  0.000  0.264  0.264  0.000  0.000  0.000  0.000  0.000  0.529
 
band     4 # energy    6.93168239 # occ.  2.00000000
 
ion      s     py     pz     px    dxy    dyz    dz2    dxz  x2-y2    tot
    1  0.000  0.000  0.066  0.066  0.000  0.000  0.000  0.000  0.000  0.131
    2  0.000  0.000  0.199  0.199  0.000  0.000  0.000  0.000  0.000  0.397
tot    0.000  0.000  0.264  0.264  0.000  0.000  0.000  0.000  0.000  0.529
 
band     5 # energy   13.54922526 # occ.  0.00000000
 
ion      s     py     pz     px    dxy    dyz    dz2    dxz  x2-y2    tot
    1  0.047  0.353  0.000  0.000  0.000  0.000  0.000  0.000  0.000  0.400
    2  0.038  0.000  0.000  0.000  0.000  0.000  0.000  0.000  0.000  0.038
tot    0.085  0.354  0.000  0.000  0.000  0.000  0.000  0.000  0.000  0.438
 
band     6 # energy   15.15493089 # occ.  0.00000000
 
ion      s     py     pz     px    dxy    dyz    dz2    dxz  x2-y2    tot
    1  0.159  0.004  0.000  0.000  0.000  0.000  0.000  0.000  0.000  0.163
    2  0.204  0.163  0.000  0.000  0.000  0.000  0.000  0.000  0.000  0.366
tot    0.363  0.166  0.000  0.000  0.000  0.000  0.000  0.000  0.000  0.529
 
band     7 # energy   16.71548656 # occ.  0.00000000
 
ion      s     py     pz     px    dxy    dyz    dz2    dxz  x2-y2    tot
    1  0.000  0.000  0.018  0.393  0.000  0.000  0.000  0.000  0.000  0.411
    2  0.000  0.000  0.099  0.005  0.000  0.000  0.000  0.000  0.000  0.104
tot    0.000  0.000  0.116  0.398  0.000  0.000  0.000  0.000  0.000  0.514
 
band     8 # energy   16.71548688 # occ.  0.00000000
 
ion      s     py     pz     px    dxy    dyz    dz2    dxz  x2-y2    tot
    1  0.000  0.000  0.393  0.018  0.000  0.000  0.000  0.000  0.000  0.411
    2  0.000  0.000  0.005  0.099  0.000  0.000  0.000  0.000  0.000  0.104
tot    0.000  0.000  0.398  0.116  0.000  0.000  0.000  0.000  0.000  0.514
 

 k-point   128 :   -0.18421053 0.00000000-0.18421053     weight = 0.00416667

band     1 # energy   -6.47944952 # occ.  2.00000000
 
ion      s     py     pz     px    dxy    dyz    dz2    dxz  x2-y2    tot
    1  0.222  0.017  0.000  0.000  0.000  0.000  0.000  0.000  0.000  0.239
    2  0.258  0.007  0.000  0.000  0.000  0.000  0.000  0.000  0.000  0.265
tot    0.481  0.024  0.000  0.000  0.000  0.000  0.000  0.000  0.000  0.504
 
band     2 # energy    5.83158780 # occ.  2.00000000
 
ion      s     py     pz     px    dxy    dyz    dz2    dxz  x2-y2    tot
    1  0.064  0.056  0.000  0.000  0.000  0.000  0.000  0.000  0.000  0.120
    2  0.122  0.301  0.000  0.000  0.000  0.000  0.000  0.000  0.000  0.423
tot    0.187  0.357  0.000  0.000  0.000  0.000  0.000  0.000  0.000  0.543
 
band     3 # energy    6.66726723 # occ.  2.00000000
 
ion      s     py     pz     px    dxy    dyz    dz2    dxz  x2-y2    tot
    1  0.000  0.000  0.073  0.073  0.000  0.000  0.000  0.000  0.000  0.146
    2  0.000  0.000  0.192  0.192  0.000  0.000  0.000  0.000  0.000  0.383
tot    0.000  0.000  0.265  0.265  0.000  0.000  0.000  0.000  0.000  0.529
 
band     4 # energy    6.66726753 # occ.  2.00000000
 
ion      s     py     pz     px    dxy    dyz    dz2    dxz  x2-y2    tot
    1  0.000  0.000  0.073  0.073  0.000  0.000  0.000  0.000  0.000  0.146
    2  0.000  0.000  0.192  0.192  0.000  0.000  0.000  0.000  0.000  0.383
tot    0.000  0.000  0.265  0.265  0.000  0.000  0.000  0.000  0.000  0.529
 
band     5 # energy   13.11574137 # occ.  0.00000000
 
ion      s     py     pz     px    dxy    dyz    dz2    dxz  x2-y2    tot
    1  0.058  0.322  0.000  0.000  0.000  0.000  0.000  0.000  0.000  0.380
    2  0.037  0.000  0.000  0.000  0.000  0.000  0.000  0.000  0.000  0.037
tot    0.095  0.322  0.000  0.000  0.000  0.000  0.000  0.000  0.000  0.417
 
band     6 # energy   15.06795073 # occ.  0.00000000
 
ion      s     py     pz     px    dxy    dyz    dz2    dxz  x2-y2    tot
    1  0.154  0.003  0.000  0.000  0.000  0.000  0.000  0.000  0.000  0.157
    2  0.138  0.152  0.000  0.000  0.000  0.000  0.000  0.000  0.000  0.290
tot    0.293  0.154  0.000  0.000  0.000  0.000  0.000  0.000  0.000  0.447
 
band     7 # energy   17.17130355 # occ.  0.00000000
 
ion      s     py     pz     px    dxy    dyz    dz2    dxz  x2-y2    tot
    1  0.000  0.000  0.157  0.234  0.000  0.000  0.000  0.000  0.000  0.390
    2  0.000  0.000  0.072  0.053  0.000  0.000  0.000  0.000  0.000  0.125
tot    0.000  0.000  0.228  0.287  0.000  0.000  0.000  0.000  0.000  0.515
 
band     8 # energy   17.17130366 # occ.  0.00000000
 
ion      s     py     pz     px    dxy    dyz    dz2    dxz  x2-y2    tot
    1  0.000  0.000  0.234  0.157  0.000  0.000  0.000  0.000  0.000  0.391
    2  0.000  0.000  0.053  0.072  0.000  0.000  0.000  0.000  0.000  0.125
tot    0.000  0.000  0.287  0.228  0.000  0.000  0.000  0.000  0.000  0.515
 

 k-point   129 :   -0.21052632 0.00000000-0.21052632     weight = 0.00416667

band     1 # energy   -6.21850879 # occ.  2.00000000
 
ion      s     py     pz     px    dxy    dyz    dz2    dxz  x2-y2    tot
    1  0.216  0.022  0.000  0.000  0.000  0.000  0.000  0.000  0.000  0.238
    2  0.261  0.008  0.000  0.000  0.000  0.000  0.000  0.000  0.000  0.269
tot    0.476  0.031  0.000  0.000  0.000  0.000  0.000  0.000  0.000  0.507
 
band     2 # energy    5.35054055 # occ.  2.00000000
 
ion      s     py     pz     px    dxy    dyz    dz2    dxz  x2-y2    tot
    1  0.079  0.057  0.000  0.000  0.000  0.000  0.000  0.000  0.000  0.136
    2  0.135  0.278  0.000  0.000  0.000  0.000  0.000  0.000  0.000  0.412
tot    0.213  0.335  0.000  0.000  0.000  0.000  0.000  0.000  0.000  0.548
 
band     3 # energy    6.40427693 # occ.  2.00000000
 
ion      s     py     pz     px    dxy    dyz    dz2    dxz  x2-y2    tot
    1  0.000  0.000  0.080  0.080  0.000  0.000  0.000  0.000  0.000  0.159
    2  0.000  0.000  0.185  0.185  0.000  0.000  0.000  0.000  0.000  0.371
tot    0.000  0.000  0.265  0.265  0.000  0.000  0.000  0.000  0.000  0.530
 
band     4 # energy    6.40427722 # occ.  2.00000000
 
ion      s     py     pz     px    dxy    dyz    dz2    dxz  x2-y2    tot
    1  0.000  0.000  0.080  0.080  0.000  0.000  0.000  0.000  0.000  0.159
    2  0.000  0.000  0.185  0.185  0.000  0.000  0.000  0.000  0.000  0.371
tot    0.000  0.000  0.265  0.265  0.000  0.000  0.000  0.000  0.000  0.530
 
band     5 # energy   12.65844985 # occ.  0.00000000
 
ion      s     py     pz     px    dxy    dyz    dz2    dxz  x2-y2    tot
    1  0.063  0.289  0.000  0.000  0.000  0.000  0.000  0.000  0.000  0.351
    2  0.040  0.000  0.000  0.000  0.000  0.000  0.000  0.000  0.000  0.040
tot    0.102  0.289  0.000  0.000  0.000  0.000  0.000  0.000  0.000  0.391
 
band     6 # energy   14.79284411 # occ.  0.00000000
 
ion      s     py     pz     px    dxy    dyz    dz2    dxz  x2-y2    tot
    1  0.152  0.003  0.000  0.000  0.000  0.000  0.000  0.000  0.000  0.156
    2  0.084  0.125  0.000  0.000  0.000  0.000  0.000  0.000  0.000  0.209
tot    0.237  0.128  0.000  0.000  0.000  0.000  0.000  0.000  0.000  0.365
 
band     7 # energy   17.64929733 # occ.  0.00000000
 
ion      s     py     pz     px    dxy    dyz    dz2    dxz  x2-y2    tot
    1  0.000  0.000  0.084  0.287  0.000  0.000  0.000  0.000  0.000  0.371
    2  0.000  0.000  0.098  0.047  0.000  0.000  0.000  0.000  0.000  0.145
tot    0.000  0.000  0.182  0.334  0.000  0.000  0.000  0.000  0.000  0.515
 
band     8 # energy   17.64930135 # occ.  0.00000000
 
ion      s     py     pz     px    dxy    dyz    dz2    dxz  x2-y2    tot
    1  0.000  0.000  0.287  0.084  0.000  0.000  0.000  0.000  0.000  0.371
    2  0.000  0.000  0.047  0.098  0.000  0.000  0.000  0.000  0.000  0.145
tot    0.000  0.000  0.334  0.182  0.000  0.000  0.000  0.000  0.000  0.515
 

 k-point   130 :   -0.23684211 0.00000000-0.23684211     weight = 0.00416667

band     1 # energy   -5.92557887 # occ.  2.00000000
 
ion      s     py     pz     px    dxy    dyz    dz2    dxz  x2-y2    tot
    1  0.208  0.028  0.000  0.000  0.000  0.000  0.000  0.000  0.000  0.235
    2  0.264  0.011  0.000  0.000  0.000  0.000  0.000  0.000  0.000  0.275
tot    0.472  0.038  0.000  0.000  0.000  0.000  0.000  0.000  0.000  0.510
 
band     2 # energy    4.85043909 # occ.  2.00000000
 
ion      s     py     pz     px    dxy    dyz    dz2    dxz  x2-y2    tot
    1  0.094  0.058  0.000  0.000  0.000  0.000  0.000  0.000  0.000  0.152
    2  0.143  0.257  0.000  0.000  0.000  0.000  0.000  0.000  0.000  0.400
tot    0.237  0.315  0.000  0.000  0.000  0.000  0.000  0.000  0.000  0.552
 
band     3 # energy    6.14947204 # occ.  2.00000000
 
ion      s     py     pz     px    dxy    dyz    dz2    dxz  x2-y2    tot
    1  0.000  0.000  0.086  0.086  0.000  0.000  0.000  0.000  0.000  0.171
    2  0.000  0.000  0.180  0.180  0.000  0.000  0.000  0.000  0.000  0.360
tot    0.000  0.000  0.265  0.265  0.000  0.000  0.000  0.000  0.000  0.531
 
band     4 # energy    6.14947232 # occ.  2.00000000
 
ion      s     py     pz     px    dxy    dyz    dz2    dxz  x2-y2    tot
    1  0.000  0.000  0.086  0.086  0.000  0.000  0.000  0.000  0.000  0.171
    2  0.000  0.000  0.180  0.180  0.000  0.000  0.000  0.000  0.000  0.360
tot    0.000  0.000  0.265  0.265  0.000  0.000  0.000  0.000  0.000  0.531
 
band     5 # energy   12.18846246 # occ.  0.00000000
 
ion      s     py     pz     px    dxy    dyz    dz2    dxz  x2-y2    tot
    1  0.061  0.256  0.000  0.000  0.000  0.000  0.000  0.000  0.000  0.316
    2  0.044  0.001  0.000  0.000  0.000  0.000  0.000  0.000  0.000  0.044
tot    0.105  0.256  0.000  0.000  0.000  0.000  0.000  0.000  0.000  0.361
 
band     6 # energy   14.41577717 # occ.  0.00000000
 
ion      s     py     pz     px    dxy    dyz    dz2    dxz  x2-y2    tot
    1  0.157  0.005  0.000  0.000  0.000  0.000  0.000  0.000  0.000  0.163
    2  0.050  0.099  0.000  0.000  0.000  0.000  0.000  0.000  0.000  0.149
tot    0.208  0.104  0.000  0.000  0.000  0.000  0.000  0.000  0.000  0.312
 
band     7 # energy   18.14073153 # occ.  0.00000000
 
ion      s     py     pz     px    dxy    dyz    dz2    dxz  x2-y2    tot
    1  0.000  0.000  0.226  0.126  0.000  0.000  0.000  0.000  0.000  0.351
    2  0.000  0.000  0.051  0.113  0.000  0.000  0.000  0.000  0.000  0.164
tot    0.000  0.000  0.276  0.239  0.000  0.000  0.000  0.000  0.000  0.515
 
band     8 # energy   18.14076633 # occ.  0.00000000
 
ion      s     py     pz     px    dxy    dyz    dz2    dxz  x2-y2    tot
    1  0.000  0.000  0.126  0.226  0.000  0.000  0.000  0.000  0.000  0.351
    2  0.000  0.000  0.113  0.051  0.000  0.000  0.000  0.000  0.000  0.164
tot    0.000  0.000  0.239  0.276  0.000  0.000  0.000  0.000  0.000  0.515
 

 k-point   131 :   -0.26315789 0.00000000-0.26315789     weight = 0.00416667

band     1 # energy   -5.60201518 # occ.  2.00000000
 
ion      s     py     pz     px    dxy    dyz    dz2    dxz  x2-y2    tot
    1  0.198  0.034  0.000  0.000  0.000  0.000  0.000  0.000  0.000  0.233
    2  0.268  0.013  0.000  0.000  0.000  0.000  0.000  0.000  0.000  0.281
tot    0.467  0.047  0.000  0.000  0.000  0.000  0.000  0.000  0.000  0.514
 
band     2 # energy    4.33389189 # occ.  2.00000000
 
ion      s     py     pz     px    dxy    dyz    dz2    dxz  x2-y2    tot
    1  0.111  0.059  0.000  0.000  0.000  0.000  0.000  0.000  0.000  0.169
    2  0.148  0.239  0.000  0.000  0.000  0.000  0.000  0.000  0.000  0.387
tot    0.259  0.297  0.000  0.000  0.000  0.000  0.000  0.000  0.000  0.556
 
band     3 # energy    5.90811161 # occ.  2.00000000
 
ion      s     py     pz     px    dxy    dyz    dz2    dxz  x2-y2    tot
    1  0.000  0.000  0.091  0.091  0.000  0.000  0.000  0.000  0.000  0.182
    2  0.000  0.000  0.175  0.175  0.000  0.000  0.000  0.000  0.000  0.350
tot    0.000  0.000  0.266  0.266  0.000  0.000  0.000  0.000  0.000  0.532
 
band     4 # energy    5.90811188 # occ.  2.00000000
 
ion      s     py     pz     px    dxy    dyz    dz2    dxz  x2-y2    tot
    1  0.000  0.000  0.091  0.091  0.000  0.000  0.000  0.000  0.000  0.182
    2  0.000  0.000  0.175  0.175  0.000  0.000  0.000  0.000  0.000  0.350
tot    0.000  0.000  0.266  0.266  0.000  0.000  0.000  0.000  0.000  0.532
 
band     5 # energy   11.71815758 # occ.  0.00000000
 
ion      s     py     pz     px    dxy    dyz    dz2    dxz  x2-y2    tot
    1  0.055  0.224  0.000  0.000  0.000  0.000  0.000  0.000  0.000  0.279
    2  0.049  0.001  0.000  0.000  0.000  0.000  0.000  0.000  0.000  0.050
tot    0.104  0.225  0.000  0.000  0.000  0.000  0.000  0.000  0.000  0.329
 
band     6 # energy   14.01650203 # occ.  0.00000000
 
ion      s     py     pz     px    dxy    dyz    dz2    dxz  x2-y2    tot
    1  0.169  0.007  0.000  0.000  0.000  0.000  0.000  0.000  0.000  0.176
    2  0.031  0.079  0.000  0.000  0.000  0.000  0.000  0.000  0.000  0.110
tot    0.199  0.087  0.000  0.000  0.000  0.000  0.000  0.000  0.000  0.286
 
band     7 # energy   18.63802465 # occ.  0.00000000
 
ion      s     py     pz     px    dxy    dyz    dz2    dxz  x2-y2    tot
    1  0.000  0.000  0.069  0.263  0.000  0.000  0.000  0.000  0.000  0.333
    2  0.000  0.000  0.163  0.019  0.000  0.000  0.000  0.000  0.000  0.182
tot    0.000  0.000  0.232  0.283  0.000  0.000  0.000  0.000  0.000  0.515
 
band     8 # energy   18.63804010 # occ.  0.00000000
 
ion      s     py     pz     px    dxy    dyz    dz2    dxz  x2-y2    tot
    1  0.000  0.000  0.263  0.069  0.000  0.000  0.000  0.000  0.000  0.332
    2  0.000  0.000  0.019  0.163  0.000  0.000  0.000  0.000  0.000  0.182
tot    0.000  0.000  0.283  0.232  0.000  0.000  0.000  0.000  0.000  0.515
 

 k-point   132 :   -0.28947368 0.00000000-0.28947368     weight = 0.00416667

band     1 # energy   -5.24960890 # occ.  2.00000000
 
ion      s     py     pz     px    dxy    dyz    dz2    dxz  x2-y2    tot
    1  0.188  0.041  0.000  0.000  0.000  0.000  0.000  0.000  0.000  0.229
    2  0.273  0.015  0.000  0.000  0.000  0.000  0.000  0.000  0.000  0.288
tot    0.461  0.056  0.000  0.000  0.000  0.000  0.000  0.000  0.000  0.517
 
band     2 # energy    3.80320991 # occ.  2.00000000
 
ion      s     py     pz     px    dxy    dyz    dz2    dxz  x2-y2    tot
    1  0.129  0.059  0.000  0.000  0.000  0.000  0.000  0.000  0.000  0.187
    2  0.149  0.222  0.000  0.000  0.000  0.000  0.000  0.000  0.000  0.372
tot    0.278  0.281  0.000  0.000  0.000  0.000  0.000  0.000  0.000  0.559
 
band     3 # energy    5.68428110 # occ.  2.00000000
 
ion      s     py     pz     px    dxy    dyz    dz2    dxz  x2-y2    tot
    1  0.000  0.000  0.096  0.096  0.000  0.000  0.000  0.000  0.000  0.191
    2  0.000  0.000  0.171  0.171  0.000  0.000  0.000  0.000  0.000  0.342
tot    0.000  0.000  0.267  0.267  0.000  0.000  0.000  0.000  0.000  0.533
 
band     4 # energy    5.68428136 # occ.  2.00000000
 
ion      s     py     pz     px    dxy    dyz    dz2    dxz  x2-y2    tot
    1  0.000  0.000  0.096  0.096  0.000  0.000  0.000  0.000  0.000  0.191
    2  0.000  0.000  0.171  0.171  0.000  0.000  0.000  0.000  0.000  0.342
tot    0.000  0.000  0.267  0.267  0.000  0.000  0.000  0.000  0.000  0.533
 
band     5 # energy   11.26155581 # occ.  0.00000000
 
ion      s     py     pz     px    dxy    dyz    dz2    dxz  x2-y2    tot
    1  0.046  0.196  0.000  0.000  0.000  0.000  0.000  0.000  0.000  0.242
    2  0.055  0.001  0.000  0.000  0.000  0.000  0.000  0.000  0.000  0.056
tot    0.101  0.196  0.000  0.000  0.000  0.000  0.000  0.000  0.000  0.298
 
band     6 # energy   13.63839908 # occ.  0.00000000
 
ion      s     py     pz     px    dxy    dyz    dz2    dxz  x2-y2    tot
    1  0.183  0.009  0.000  0.000  0.000  0.000  0.000  0.000  0.000  0.192
    2  0.019  0.065  0.000  0.000  0.000  0.000  0.000  0.000  0.000  0.084
tot    0.202  0.074  0.000  0.000  0.000  0.000  0.000  0.000  0.000  0.276
 
band     7 # energy   19.13436188 # occ.  0.00000000
 
ion      s     py     pz     px    dxy    dyz    dz2    dxz  x2-y2    tot
    1  0.000  0.000  0.250  0.064  0.000  0.000  0.000  0.000  0.000  0.314
    2  0.000  0.000  0.020  0.181  0.000  0.000  0.000  0.000  0.000  0.200
tot    0.000  0.000  0.269  0.245  0.000  0.000  0.000  0.000  0.000  0.514
 
band     8 # energy   19.13445401 # occ.  0.00000000
 
ion      s     py     pz     px    dxy    dyz    dz2    dxz  x2-y2    tot
    1  0.000  0.000  0.064  0.250  0.000  0.000  0.000  0.000  0.000  0.314
    2  0.000  0.000  0.181  0.020  0.000  0.000  0.000  0.000  0.000  0.200
tot    0.000  0.000  0.245  0.269  0.000  0.000  0.000  0.000  0.000  0.514
 

 k-point   133 :   -0.31578947 0.00000000-0.31578947     weight = 0.00416667

band     1 # energy   -4.87083965 # occ.  2.00000000
 
ion      s     py     pz     px    dxy    dyz    dz2    dxz  x2-y2    tot
    1  0.175  0.049  0.000  0.000  0.000  0.000  0.000  0.000  0.000  0.224
    2  0.280  0.017  0.000  0.000  0.000  0.000  0.000  0.000  0.000  0.297
tot    0.456  0.066  0.000  0.000  0.000  0.000  0.000  0.000  0.000  0.522
 
band     2 # energy    3.26131341 # occ.  2.00000000
 
ion      s     py     pz     px    dxy    dyz    dz2    dxz  x2-y2    tot
    1  0.148  0.058  0.000  0.000  0.000  0.000  0.000  0.000  0.000  0.206
    2  0.147  0.208  0.000  0.000  0.000  0.000  0.000  0.000  0.000  0.355
tot    0.295  0.266  0.000  0.000  0.000  0.000  0.000  0.000  0.000  0.561
 
band     3 # energy    5.48113076 # occ.  2.00000000
 
ion      s     py     pz     px    dxy    dyz    dz2    dxz  x2-y2    tot
    1  0.000  0.000  0.099  0.099  0.000  0.000  0.000  0.000  0.000  0.199
    2  0.000  0.000  0.168  0.168  0.000  0.000  0.000  0.000  0.000  0.335
tot    0.000  0.000  0.267  0.267  0.000  0.000  0.000  0.000  0.000  0.534
 
band     4 # energy    5.48113102 # occ.  2.00000000
 
ion      s     py     pz     px    dxy    dyz    dz2    dxz  x2-y2    tot
    1  0.000  0.000  0.099  0.099  0.000  0.000  0.000  0.000  0.000  0.199
    2  0.000  0.000  0.168  0.168  0.000  0.000  0.000  0.000  0.000  0.335
tot    0.000  0.000  0.267  0.267  0.000  0.000  0.000  0.000  0.000  0.534
 
band     5 # energy   10.83277336 # occ.  0.00000000
 
ion      s     py     pz     px    dxy    dyz    dz2    dxz  x2-y2    tot
    1  0.036  0.171  0.000  0.000  0.000  0.000  0.000  0.000  0.000  0.207
    2  0.062  0.001  0.000  0.000  0.000  0.000  0.000  0.000  0.000  0.062
tot    0.098  0.171  0.000  0.000  0.000  0.000  0.000  0.000  0.000  0.269
 
band     6 # energy   13.29996258 # occ.  0.00000000
 
ion      s     py     pz     px    dxy    dyz    dz2    dxz  x2-y2    tot
    1  0.198  0.009  0.000  0.000  0.000  0.000  0.000  0.000  0.000  0.207
    2  0.012  0.055  0.000  0.000  0.000  0.000  0.000  0.000  0.000  0.067
tot    0.210  0.065  0.000  0.000  0.000  0.000  0.000  0.000  0.000  0.275
 
band     7 # energy   19.62261546 # occ.  0.00000000
 
ion      s     py     pz     px    dxy    dyz    dz2    dxz  x2-y2    tot
    1  0.000  0.000  0.160  0.136  0.000  0.000  0.000  0.000  0.000  0.296
    2  0.000  0.000  0.066  0.152  0.000  0.000  0.000  0.000  0.000  0.218
tot    0.000  0.000  0.226  0.288  0.000  0.000  0.000  0.000  0.000  0.514
 
band     8 # energy   19.62272048 # occ.  0.00000000
 
ion      s     py     pz     px    dxy    dyz    dz2    dxz  x2-y2    tot
    1  0.000  0.000  0.136  0.160  0.000  0.000  0.000  0.000  0.000  0.296
    2  0.000  0.000  0.151  0.066  0.000  0.000  0.000  0.000  0.000  0.217
tot    0.000  0.000  0.288  0.226  0.000  0.000  0.000  0.000  0.000  0.514
 

 k-point   134 :   -0.34210526 0.00000000-0.34210526     weight = 0.00416667

band     1 # energy   -4.46922004 # occ.  2.00000000
 
ion      s     py     pz     px    dxy    dyz    dz2    dxz  x2-y2    tot
    1  0.160  0.058  0.000  0.000  0.000  0.000  0.000  0.000  0.000  0.218
    2  0.290  0.019  0.000  0.000  0.000  0.000  0.000  0.000  0.000  0.308
tot    0.450  0.077  0.000  0.000  0.000  0.000  0.000  0.000  0.000  0.527
 
band     2 # energy    2.71253718 # occ.  2.00000000
 
ion      s     py     pz     px    dxy    dyz    dz2    dxz  x2-y2    tot
    1  0.169  0.055  0.000  0.000  0.000  0.000  0.000  0.000  0.000  0.225
    2  0.140  0.195  0.000  0.000  0.000  0.000  0.000  0.000  0.000  0.336
tot    0.310  0.251  0.000  0.000  0.000  0.000  0.000  0.000  0.000  0.560
 
band     3 # energy    5.30110550 # occ.  2.00000000
 
ion      s     py     pz     px    dxy    dyz    dz2    dxz  x2-y2    tot
    1  0.000  0.000  0.103  0.103  0.000  0.000  0.000  0.000  0.000  0.206
    2  0.000  0.000  0.165  0.165  0.000  0.000  0.000  0.000  0.000  0.329
tot    0.000  0.000  0.268  0.268  0.000  0.000  0.000  0.000  0.000  0.535
 
band     4 # energy    5.30110575 # occ.  2.00000000
 
ion      s     py     pz     px    dxy    dyz    dz2    dxz  x2-y2    tot
    1  0.000  0.000  0.103  0.103  0.000  0.000  0.000  0.000  0.000  0.206
    2  0.000  0.000  0.165  0.165  0.000  0.000  0.000  0.000  0.000  0.329
tot    0.000  0.000  0.268  0.268  0.000  0.000  0.000  0.000  0.000  0.535
 
band     5 # energy   10.44415491 # occ.  0.00000000
 
ion      s     py     pz     px    dxy    dyz    dz2    dxz  x2-y2    tot
    1  0.027  0.150  0.000  0.000  0.000  0.000  0.000  0.000  0.000  0.177
    2  0.068  0.000  0.000  0.000  0.000  0.000  0.000  0.000  0.000  0.068
tot    0.095  0.150  0.000  0.000  0.000  0.000  0.000  0.000  0.000  0.246
 
band     6 # energy   13.00737872 # occ.  0.00000000
 
ion      s     py     pz     px    dxy    dyz    dz2    dxz  x2-y2    tot
    1  0.212  0.009  0.000  0.000  0.000  0.000  0.000  0.000  0.000  0.221
    2  0.007  0.048  0.000  0.000  0.000  0.000  0.000  0.000  0.000  0.056
tot    0.220  0.057  0.000  0.000  0.000  0.000  0.000  0.000  0.000  0.277
 
band     7 # energy   20.09465730 # occ.  0.00000000
 
ion      s     py     pz     px    dxy    dyz    dz2    dxz  x2-y2    tot
    1  0.000  0.000  0.153  0.126  0.000  0.000  0.000  0.000  0.000  0.279
    2  0.000  0.000  0.108  0.127  0.000  0.000  0.000  0.000  0.000  0.235
tot    0.000  0.000  0.261  0.253  0.000  0.000  0.000  0.000  0.000  0.514
 
band     8 # energy   20.09725522 # occ.  0.00000000
 
ion      s     py     pz     px    dxy    dyz    dz2    dxz  x2-y2    tot
    1  0.000  0.000  0.126  0.153  0.000  0.000  0.000  0.000  0.000  0.278
    2  0.000  0.000  0.127  0.107  0.000  0.000  0.000  0.000  0.000  0.234
tot    0.000  0.000  0.252  0.260  0.000  0.000  0.000  0.000  0.000  0.512
 

 k-point   135 :   -0.36842105 0.00000000-0.36842105     weight = 0.00416667

band     1 # energy   -4.04998890 # occ.  2.00000000
 
ion      s     py     pz     px    dxy    dyz    dz2    dxz  x2-y2    tot
    1  0.142  0.068  0.000  0.000  0.000  0.000  0.000  0.000  0.000  0.210
    2  0.302  0.020  0.000  0.000  0.000  0.000  0.000  0.000  0.000  0.322
tot    0.444  0.088  0.000  0.000  0.000  0.000  0.000  0.000  0.000  0.532
 
band     2 # energy    2.16354592 # occ.  2.00000000
 
ion      s     py     pz     px    dxy    dyz    dz2    dxz  x2-y2    tot
    1  0.193  0.051  0.000  0.000  0.000  0.000  0.000  0.000  0.000  0.244
    2  0.129  0.185  0.000  0.000  0.000  0.000  0.000  0.000  0.000  0.314
tot    0.322  0.236  0.000  0.000  0.000  0.000  0.000  0.000  0.000  0.559
 
band     3 # energy    5.14608836 # occ.  2.00000000
 
ion      s     py     pz     px    dxy    dyz    dz2    dxz  x2-y2    tot
    1  0.000  0.000  0.106  0.106  0.000  0.000  0.000  0.000  0.000  0.211
    2  0.000  0.000  0.162  0.162  0.000  0.000  0.000  0.000  0.000  0.325
tot    0.000  0.000  0.268  0.268  0.000  0.000  0.000  0.000  0.000  0.536
 
band     4 # energy    5.14608861 # occ.  2.00000000
 
ion      s     py     pz     px    dxy    dyz    dz2    dxz  x2-y2    tot
    1  0.000  0.000  0.106  0.106  0.000  0.000  0.000  0.000  0.000  0.211
    2  0.000  0.000  0.162  0.162  0.000  0.000  0.000  0.000  0.000  0.325
tot    0.000  0.000  0.268  0.268  0.000  0.000  0.000  0.000  0.000  0.536
 
band     5 # energy   10.10525729 # occ.  0.00000000
 
ion      s     py     pz     px    dxy    dyz    dz2    dxz  x2-y2    tot
    1  0.019  0.133  0.000  0.000  0.000  0.000  0.000  0.000  0.000  0.152
    2  0.074  0.000  0.000  0.000  0.000  0.000  0.000  0.000  0.000  0.074
tot    0.093  0.134  0.000  0.000  0.000  0.000  0.000  0.000  0.000  0.227
 
band     6 # energy   12.76177789 # occ.  0.00000000
 
ion      s     py     pz     px    dxy    dyz    dz2    dxz  x2-y2    tot
    1  0.225  0.007  0.000  0.000  0.000  0.000  0.000  0.000  0.000  0.232
    2  0.004  0.044  0.000  0.000  0.000  0.000  0.000  0.000  0.000  0.048
tot    0.229  0.051  0.000  0.000  0.000  0.000  0.000  0.000  0.000  0.280
 
band     7 # energy   20.54026024 # occ.  0.00000000
 
ion      s     py     pz     px    dxy    dyz    dz2    dxz  x2-y2    tot
    1  0.000  0.000  0.135  0.128  0.000  0.000  0.000  0.000  0.000  0.263
    2  0.000  0.000  0.094  0.158  0.000  0.000  0.000  0.000  0.000  0.252
tot    0.000  0.000  0.229  0.286  0.000  0.000  0.000  0.000  0.000  0.514
 
band     8 # energy   20.54240761 # occ.  0.00000000
 
ion      s     py     pz     px    dxy    dyz    dz2    dxz  x2-y2    tot
    1  0.000  0.000  0.128  0.134  0.000  0.000  0.000  0.000  0.000  0.262
    2  0.000  0.001  0.158  0.094  0.000  0.000  0.000  0.000  0.000  0.252
tot    0.000  0.001  0.286  0.228  0.000  0.000  0.000  0.000  0.000  0.514
 

 k-point   136 :   -0.39473684 0.00000000-0.39473684     weight = 0.00416667

band     1 # energy   -3.62166994 # occ.  2.00000000
 
ion      s     py     pz     px    dxy    dyz    dz2    dxz  x2-y2    tot
    1  0.120  0.079  0.000  0.000  0.000  0.000  0.000  0.000  0.000  0.200
    2  0.319  0.020  0.000  0.000  0.000  0.000  0.000  0.000  0.000  0.339
tot    0.439  0.099  0.000  0.000  0.000  0.000  0.000  0.000  0.000  0.538
 
band     2 # energy    1.62474863 # occ.  2.00000000
 
ion      s     py     pz     px    dxy    dyz    dz2    dxz  x2-y2    tot
    1  0.220  0.045  0.000  0.000  0.000  0.000  0.000  0.000  0.000  0.265
    2  0.113  0.178  0.000  0.000  0.000  0.000  0.000  0.000  0.000  0.290
tot    0.333  0.222  0.000  0.000  0.000  0.000  0.000  0.000  0.000  0.555
 
band     3 # energy    5.01752288 # occ.  2.00000000
 
ion      s     py     pz     px    dxy    dyz    dz2    dxz  x2-y2    tot
    1  0.000  0.000  0.108  0.108  0.000  0.000  0.000  0.000  0.000  0.215
    2  0.000  0.000  0.161  0.161  0.000  0.000  0.000  0.000  0.000  0.321
tot    0.000  0.000  0.268  0.268  0.000  0.000  0.000  0.000  0.000  0.537
 
band     4 # energy    5.01752313 # occ.  2.00000000
 
ion      s     py     pz     px    dxy    dyz    dz2    dxz  x2-y2    tot
    1  0.000  0.000  0.108  0.108  0.000  0.000  0.000  0.000  0.000  0.215
    2  0.000  0.000  0.161  0.161  0.000  0.000  0.000  0.000  0.000  0.321
tot    0.000  0.000  0.268  0.268  0.000  0.000  0.000  0.000  0.000  0.537
 
band     5 # energy    9.82261003 # occ.  0.00000000
 
ion      s     py     pz     px    dxy    dyz    dz2    dxz  x2-y2    tot
    1  0.012  0.120  0.000  0.000  0.000  0.000  0.000  0.000  0.000  0.132
    2  0.080  0.000  0.000  0.000  0.000  0.000  0.000  0.000  0.000  0.080
tot    0.092  0.120  0.000  0.000  0.000  0.000  0.000  0.000  0.000  0.212
 
band     6 # energy   12.56256470 # occ.  0.00000000
 
ion      s     py     pz     px    dxy    dyz    dz2    dxz  x2-y2    tot
    1  0.235  0.005  0.000  0.000  0.000  0.000  0.000  0.000  0.000  0.240
    2  0.003  0.040  0.000  0.000  0.000  0.000  0.000  0.000  0.000  0.043
tot    0.238  0.045  0.000  0.000  0.000  0.000  0.000  0.000  0.000  0.283
 
band     7 # energy   20.94625957 # occ.  0.00000000
 
ion      s     py     pz     px    dxy    dyz    dz2    dxz  x2-y2    tot
    1  0.000  0.000  0.156  0.092  0.000  0.000  0.000  0.000  0.000  0.247
    2  0.000  0.000  0.069  0.200  0.000  0.000  0.000  0.000  0.000  0.269
tot    0.000  0.000  0.224  0.291  0.000  0.000  0.000  0.000  0.000  0.516
 
band     8 # energy   20.94649490 # occ.  0.00000000
 
ion      s     py     pz     px    dxy    dyz    dz2    dxz  x2-y2    tot
    1  0.000  0.000  0.091  0.155  0.000  0.000  0.000  0.000  0.000  0.247
    2  0.000  0.000  0.200  0.069  0.000  0.000  0.000  0.000  0.000  0.269
tot    0.000  0.000  0.291  0.224  0.000  0.000  0.000  0.000  0.000  0.515
 

 k-point   137 :   -0.42105263 0.00000000-0.42105263     weight = 0.00416667

band     1 # energy   -3.19928976 # occ.  2.00000000
 
ion      s     py     pz     px    dxy    dyz    dz2    dxz  x2-y2    tot
    1  0.092  0.093  0.000  0.000  0.000  0.000  0.000  0.000  0.000  0.185
    2  0.343  0.017  0.000  0.000  0.000  0.000  0.000  0.000  0.000  0.360
tot    0.435  0.110  0.000  0.000  0.000  0.000  0.000  0.000  0.000  0.545
 
band     2 # energy    1.11340366 # occ.  2.00000000
 
ion      s     py     pz     px    dxy    dyz    dz2    dxz  x2-y2    tot
    1  0.252  0.035  0.000  0.000  0.000  0.000  0.000  0.000  0.000  0.287
    2  0.089  0.174  0.000  0.000  0.000  0.000  0.000  0.000  0.000  0.263
tot    0.341  0.209  0.000  0.000  0.000  0.000  0.000  0.000  0.000  0.550
 
band     3 # energy    4.91649994 # occ.  2.00000000
 
ion      s     py     pz     px    dxy    dyz    dz2    dxz  x2-y2    tot
    1  0.000  0.000  0.109  0.109  0.000  0.000  0.000  0.000  0.000  0.219
    2  0.000  0.000  0.159  0.159  0.000  0.000  0.000  0.000  0.000  0.318
tot    0.000  0.000  0.269  0.269  0.000  0.000  0.000  0.000  0.000  0.537
 
band     4 # energy    4.91650018 # occ.  2.00000000
 
ion      s     py     pz     px    dxy    dyz    dz2    dxz  x2-y2    tot
    1  0.000  0.000  0.109  0.109  0.000  0.000  0.000  0.000  0.000  0.219
    2  0.000  0.000  0.159  0.159  0.000  0.000  0.000  0.000  0.000  0.318
tot    0.000  0.000  0.269  0.269  0.000  0.000  0.000  0.000  0.000  0.537
 
band     5 # energy    9.60027838 # occ.  0.00000000
 
ion      s     py     pz     px    dxy    dyz    dz2    dxz  x2-y2    tot
    1  0.007  0.111  0.000  0.000  0.000  0.000  0.000  0.000  0.000  0.117
    2  0.084  0.000  0.000  0.000  0.000  0.000  0.000  0.000  0.000  0.085
tot    0.091  0.111  0.000  0.000  0.000  0.000  0.000  0.000  0.000  0.202
 
band     6 # energy   12.40877889 # occ.  0.00000000
 
ion      s     py     pz     px    dxy    dyz    dz2    dxz  x2-y2    tot
    1  0.243  0.003  0.000  0.000  0.000  0.000  0.000  0.000  0.000  0.246
    2  0.001  0.038  0.000  0.000  0.000  0.000  0.000  0.000  0.000  0.039
tot    0.244  0.041  0.000  0.000  0.000  0.000  0.000  0.000  0.000  0.285
 
band     7 # energy   21.29581016 # occ.  0.00000000
 
ion      s     py     pz     px    dxy    dyz    dz2    dxz  x2-y2    tot
    1  0.000  0.000  0.075  0.158  0.000  0.000  0.000  0.000  0.000  0.234
    2  0.000  0.000  0.185  0.099  0.000  0.000  0.000  0.000  0.000  0.284
tot    0.000  0.000  0.260  0.257  0.000  0.000  0.000  0.000  0.000  0.518
 
band     8 # energy   21.30006058 # occ.  0.00000000
 
ion      s     py     pz     px    dxy    dyz    dz2    dxz  x2-y2    tot
    1  0.000  0.000  0.157  0.074  0.000  0.000  0.000  0.000  0.000  0.232
    2  0.000  0.001  0.098  0.185  0.000  0.000  0.000  0.000  0.000  0.284
tot    0.000  0.001  0.255  0.259  0.000  0.000  0.000  0.000  0.000  0.516
 

 k-point   138 :   -0.44736842 0.00000000-0.44736842     weight = 0.00416667

band     1 # energy   -2.81169478 # occ.  2.00000000
 
ion      s     py     pz     px    dxy    dyz    dz2    dxz  x2-y2    tot
    1  0.057  0.108  0.000  0.000  0.000  0.000  0.000  0.000  0.000  0.165
    2  0.375  0.012  0.000  0.000  0.000  0.000  0.000  0.000  0.000  0.387
tot    0.432  0.121  0.000  0.000  0.000  0.000  0.000  0.000  0.000  0.552
 
band     2 # energy    0.66035598 # occ.  2.00000000
 
ion      s     py     pz     px    dxy    dyz    dz2    dxz  x2-y2    tot
    1  0.290  0.022  0.000  0.000  0.000  0.000  0.000  0.000  0.000  0.312
    2  0.056  0.175  0.000  0.000  0.000  0.000  0.000  0.000  0.000  0.231
tot    0.346  0.197  0.000  0.000  0.000  0.000  0.000  0.000  0.000  0.543
 
band     3 # energy    4.84379940 # occ.  2.00000000
 
ion      s     py     pz     px    dxy    dyz    dz2    dxz  x2-y2    tot
    1  0.000  0.000  0.111  0.111  0.000  0.000  0.000  0.000  0.000  0.221
    2  0.000  0.000  0.158  0.158  0.000  0.000  0.000  0.000  0.000  0.316
tot    0.000  0.000  0.269  0.269  0.000  0.000  0.000  0.000  0.000  0.538
 
band     4 # energy    4.84379964 # occ.  2.00000000
 
ion      s     py     pz     px    dxy    dyz    dz2    dxz  x2-y2    tot
    1  0.000  0.000  0.111  0.111  0.000  0.000  0.000  0.000  0.000  0.221
    2  0.000  0.000  0.158  0.158  0.000  0.000  0.000  0.000  0.000  0.316
tot    0.000  0.000  0.269  0.269  0.000  0.000  0.000  0.000  0.000  0.538
 
band     5 # energy    9.44046372 # occ.  0.00000000
 
ion      s     py     pz     px    dxy    dyz    dz2    dxz  x2-y2    tot
    1  0.003  0.104  0.000  0.000  0.000  0.000  0.000  0.000  0.000  0.107
    2  0.088  0.000  0.000  0.000  0.000  0.000  0.000  0.000  0.000  0.088
tot    0.091  0.104  0.000  0.000  0.000  0.000  0.000  0.000  0.000  0.195
 
band     6 # energy   12.29950532 # occ.  0.00000000
 
ion      s     py     pz     px    dxy    dyz    dz2    dxz  x2-y2    tot
    1  0.249  0.002  0.000  0.000  0.000  0.000  0.000  0.000  0.000  0.250
    2  0.001  0.036  0.000  0.000  0.000  0.000  0.000  0.000  0.000  0.037
tot    0.249  0.038  0.000  0.000  0.000  0.000  0.000  0.000  0.000  0.287
 
band     7 # energy   21.56852025 # occ.  0.00000000
 
ion      s     py     pz     px    dxy    dyz    dz2    dxz  x2-y2    tot
    1  0.000  0.000  0.177  0.045  0.000  0.000  0.000  0.000  0.000  0.222
    2  0.000  0.000  0.046  0.252  0.000  0.000  0.000  0.000  0.000  0.298
tot    0.000  0.000  0.223  0.297  0.000  0.000  0.000  0.000  0.000  0.520
 
band     8 # energy   21.56919923 # occ.  0.00000000
 
ion      s     py     pz     px    dxy    dyz    dz2    dxz  x2-y2    tot
    1  0.000  0.000  0.045  0.177  0.000  0.000  0.000  0.000  0.000  0.223
    2  0.000  0.000  0.252  0.046  0.000  0.000  0.000  0.000  0.000  0.298
tot    0.000  0.000  0.297  0.223  0.000  0.000  0.000  0.000  0.000  0.521
 

 k-point   139 :   -0.47368421 0.00000000-0.47368421     weight = 0.00416667

band     1 # energy   -2.51519221 # occ.  2.00000000
 
ion      s     py     pz     px    dxy    dyz    dz2    dxz  x2-y2    tot
    1  0.019  0.124  0.000  0.000  0.000  0.000  0.000  0.000  0.000  0.144
    2  0.411  0.005  0.000  0.000  0.000  0.000  0.000  0.000  0.000  0.416
tot    0.431  0.129  0.000  0.000  0.000  0.000  0.000  0.000  0.000  0.560
 
band     2 # energy    0.32378751 # occ.  2.00000000
 
ion      s     py     pz     px    dxy    dyz    dz2    dxz  x2-y2    tot
    1  0.329  0.007  0.000  0.000  0.000  0.000  0.000  0.000  0.000  0.337
    2  0.019  0.180  0.000  0.000  0.000  0.000  0.000  0.000  0.000  0.200
tot    0.349  0.188  0.000  0.000  0.000  0.000  0.000  0.000  0.000  0.537
 
band     3 # energy    4.79997362 # occ.  2.00000000
 
ion      s     py     pz     px    dxy    dyz    dz2    dxz  x2-y2    tot
    1  0.000  0.000  0.111  0.111  0.000  0.000  0.000  0.000  0.000  0.223
    2  0.000  0.000  0.158  0.158  0.000  0.000  0.000  0.000  0.000  0.315
tot    0.000  0.000  0.269  0.269  0.000  0.000  0.000  0.000  0.000  0.538
 
band     4 # energy    4.79997385 # occ.  2.00000000
 
ion      s     py     pz     px    dxy    dyz    dz2    dxz  x2-y2    tot
    1  0.000  0.000  0.111  0.111  0.000  0.000  0.000  0.000  0.000  0.223
    2  0.000  0.000  0.158  0.158  0.000  0.000  0.000  0.000  0.000  0.315
tot    0.000  0.000  0.269  0.269  0.000  0.000  0.000  0.000  0.000  0.538
 
band     5 # energy    9.34428735 # occ.  0.00000000
 
ion      s     py     pz     px    dxy    dyz    dz2    dxz  x2-y2    tot
    1  0.001  0.100  0.000  0.000  0.000  0.000  0.000  0.000  0.000  0.101
    2  0.090  0.000  0.000  0.000  0.000  0.000  0.000  0.000  0.000  0.090
tot    0.091  0.100  0.000  0.000  0.000  0.000  0.000  0.000  0.000  0.191
 
band     6 # energy   12.23418931 # occ.  0.00000000
 
ion      s     py     pz     px    dxy    dyz    dz2    dxz  x2-y2    tot
    1  0.252  0.000  0.000  0.000  0.000  0.000  0.000  0.000  0.000  0.253
    2  0.000  0.035  0.000  0.000  0.000  0.000  0.000  0.000  0.000  0.035
tot    0.252  0.036  0.000  0.000  0.000  0.000  0.000  0.000  0.000  0.288
 
band     7 # energy   21.74350334 # occ.  0.00000000
 
ion      s     py     pz     px    dxy    dyz    dz2    dxz  x2-y2    tot
    1  0.000  0.000  0.198  0.017  0.000  0.000  0.000  0.000  0.000  0.215
    2  0.000  0.000  0.014  0.293  0.000  0.000  0.000  0.000  0.000  0.307
tot    0.000  0.000  0.212  0.310  0.000  0.000  0.000  0.000  0.000  0.522
 
band     8 # energy   21.76106174 # occ.  0.00000000
 
ion      s     py     pz     px    dxy    dyz    dz2    dxz  x2-y2    tot
    1  0.001  0.000  0.016  0.191  0.000  0.000  0.000  0.000  0.000  0.209
    2  0.000  0.009  0.287  0.012  0.000  0.000  0.000  0.000  0.000  0.308
tot    0.001  0.009  0.303  0.204  0.000  0.000  0.000  0.000  0.000  0.516
 

 k-point   140 :   -0.50000000 0.00000000-0.50000000     weight = 0.00416667

band     1 # energy   -2.39831047 # occ.  2.00000000
 
ion      s     py     pz     px    dxy    dyz    dz2    dxz  x2-y2    tot
    1  0.000  0.132  0.000  0.000  0.000  0.000  0.000  0.000  0.000  0.132
    2  0.431  0.000  0.000  0.000  0.000  0.000  0.000  0.000  0.000  0.431
tot    0.431  0.132  0.000  0.000  0.000  0.000  0.000  0.000  0.000  0.563
 
band     2 # energy    0.19333169 # occ.  2.00000000
 
ion      s     py     pz     px    dxy    dyz    dz2    dxz  x2-y2    tot
    1  0.349  0.000  0.000  0.000  0.000  0.000  0.000  0.000  0.000  0.349
    2  0.000  0.184  0.000  0.000  0.000  0.000  0.000  0.000  0.000  0.184
tot    0.349  0.184  0.000  0.000  0.000  0.000  0.000  0.000  0.000  0.533
 
band     3 # energy    4.78532213 # occ.  2.00000000
 
ion      s     py     pz     px    dxy    dyz    dz2    dxz  x2-y2    tot
    1  0.000  0.000  0.112  0.112  0.000  0.000  0.000  0.000  0.000  0.223
    2  0.000  0.000  0.157  0.157  0.000  0.000  0.000  0.000  0.000  0.315
tot    0.000  0.000  0.269  0.269  0.000  0.000  0.000  0.000  0.000  0.538
 
band     4 # energy    4.78532236 # occ.  2.00000000
 
ion      s     py     pz     px    dxy    dyz    dz2    dxz  x2-y2    tot
    1  0.000  0.000  0.112  0.112  0.000  0.000  0.000  0.000  0.000  0.223
    2  0.000  0.000  0.157  0.157  0.000  0.000  0.000  0.000  0.000  0.315
tot    0.000  0.000  0.269  0.269  0.000  0.000  0.000  0.000  0.000  0.538
 
band     5 # energy    9.31217896 # occ.  0.00000000
 
ion      s     py     pz     px    dxy    dyz    dz2    dxz  x2-y2    tot
    1  0.000  0.099  0.000  0.000  0.000  0.000  0.000  0.000  0.000  0.099
    2  0.091  0.000  0.000  0.000  0.000  0.000  0.000  0.000  0.000  0.091
tot    0.091  0.099  0.000  0.000  0.000  0.000  0.000  0.000  0.000  0.190
 
band     6 # energy   12.21244698 # occ.  0.00000000
 
ion      s     py     pz     px    dxy    dyz    dz2    dxz  x2-y2    tot
    1  0.253  0.000  0.000  0.000  0.000  0.000  0.000  0.000  0.000  0.253
    2  0.000  0.035  0.000  0.000  0.000  0.000  0.000  0.000  0.000  0.035
tot    0.253  0.035  0.000  0.000  0.000  0.000  0.000  0.000  0.000  0.288
 
band     7 # energy   21.80373919 # occ.  0.00000000
 
ion      s     py     pz     px    dxy    dyz    dz2    dxz  x2-y2    tot
    1  0.000  0.000  0.100  0.113  0.000  0.000  0.000  0.000  0.000  0.212
    2  0.000  0.000  0.165  0.145  0.000  0.000  0.000  0.000  0.000  0.310
tot    0.000  0.000  0.264  0.258  0.000  0.000  0.000  0.000  0.000  0.523
 
band     8 # energy   21.80391405 # occ.  0.00000000
 
ion      s     py     pz     px    dxy    dyz    dz2    dxz  x2-y2    tot
    1  0.000  0.000  0.113  0.100  0.000  0.000  0.000  0.000  0.000  0.212
    2  0.000  0.000  0.145  0.165  0.000  0.000  0.000  0.000  0.000  0.310
tot    0.000  0.000  0.258  0.264  0.000  0.000  0.000  0.000  0.000  0.522
 

 k-point   141 :   -0.50000000 0.00000000-0.50000000     weight = 0.00416667

band     1 # energy   -2.39831047 # occ.  2.00000000
 
ion      s     py     pz     px    dxy    dyz    dz2    dxz  x2-y2    tot
    1  0.000  0.132  0.000  0.000  0.000  0.000  0.000  0.000  0.000  0.132
    2  0.431  0.000  0.000  0.000  0.000  0.000  0.000  0.000  0.000  0.431
tot    0.431  0.132  0.000  0.000  0.000  0.000  0.000  0.000  0.000  0.563
 
band     2 # energy    0.19333169 # occ.  2.00000000
 
ion      s     py     pz     px    dxy    dyz    dz2    dxz  x2-y2    tot
    1  0.349  0.000  0.000  0.000  0.000  0.000  0.000  0.000  0.000  0.349
    2  0.000  0.184  0.000  0.000  0.000  0.000  0.000  0.000  0.000  0.184
tot    0.349  0.184  0.000  0.000  0.000  0.000  0.000  0.000  0.000  0.533
 
band     3 # energy    4.78532213 # occ.  2.00000000
 
ion      s     py     pz     px    dxy    dyz    dz2    dxz  x2-y2    tot
    1  0.000  0.000  0.112  0.112  0.000  0.000  0.000  0.000  0.000  0.223
    2  0.000  0.000  0.157  0.157  0.000  0.000  0.000  0.000  0.000  0.315
tot    0.000  0.000  0.269  0.269  0.000  0.000  0.000  0.000  0.000  0.538
 
band     4 # energy    4.78532236 # occ.  2.00000000
 
ion      s     py     pz     px    dxy    dyz    dz2    dxz  x2-y2    tot
    1  0.000  0.000  0.112  0.112  0.000  0.000  0.000  0.000  0.000  0.223
    2  0.000  0.000  0.157  0.157  0.000  0.000  0.000  0.000  0.000  0.315
tot    0.000  0.000  0.269  0.269  0.000  0.000  0.000  0.000  0.000  0.538
 
band     5 # energy    9.31217896 # occ.  0.00000000
 
ion      s     py     pz     px    dxy    dyz    dz2    dxz  x2-y2    tot
    1  0.000  0.099  0.000  0.000  0.000  0.000  0.000  0.000  0.000  0.099
    2  0.091  0.000  0.000  0.000  0.000  0.000  0.000  0.000  0.000  0.091
tot    0.091  0.099  0.000  0.000  0.000  0.000  0.000  0.000  0.000  0.190
 
band     6 # energy   12.21244698 # occ.  0.00000000
 
ion      s     py     pz     px    dxy    dyz    dz2    dxz  x2-y2    tot
    1  0.253  0.000  0.000  0.000  0.000  0.000  0.000  0.000  0.000  0.253
    2  0.000  0.035  0.000  0.000  0.000  0.000  0.000  0.000  0.000  0.035
tot    0.253  0.035  0.000  0.000  0.000  0.000  0.000  0.000  0.000  0.288
 
band     7 # energy   21.80373901 # occ.  0.00000000
 
ion      s     py     pz     px    dxy    dyz    dz2    dxz  x2-y2    tot
    1  0.000  0.000  0.201  0.011  0.000  0.000  0.000  0.000  0.000  0.212
    2  0.000  0.000  0.017  0.293  0.000  0.000  0.000  0.000  0.000  0.310
tot    0.000  0.000  0.218  0.305  0.000  0.000  0.000  0.000  0.000  0.523
 
band     8 # energy   21.82642811 # occ.  0.00000000
 
ion      s     py     pz     px    dxy    dyz    dz2    dxz  x2-y2    tot
    1  0.001  0.000  0.010  0.197  0.000  0.000  0.000  0.000  0.000  0.208
    2  0.000  0.007  0.288  0.016  0.000  0.000  0.000  0.000  0.000  0.311
tot    0.001  0.007  0.298  0.213  0.000  0.000  0.000  0.000  0.000  0.519
 

 k-point   142 :   -0.50657895-0.01315789-0.50657895     weight = 0.00416667

band     1 # energy   -2.39761458 # occ.  2.00000000
 
ion      s     py     pz     px    dxy    dyz    dz2    dxz  x2-y2    tot
    1  0.000  0.132  0.000  0.000  0.000  0.000  0.000  0.000  0.000  0.132
    2  0.431  0.000  0.000  0.000  0.000  0.000  0.000  0.000  0.000  0.431
tot    0.431  0.132  0.000  0.000  0.000  0.000  0.000  0.000  0.000  0.563
 
band     2 # energy    0.19511270 # occ.  2.00000000
 
ion      s     py     pz     px    dxy    dyz    dz2    dxz  x2-y2    tot
    1  0.349  0.000  0.000  0.000  0.000  0.000  0.000  0.000  0.000  0.349
    2  0.000  0.184  0.000  0.000  0.000  0.000  0.000  0.000  0.000  0.184
tot    0.349  0.184  0.000  0.000  0.000  0.000  0.000  0.000  0.000  0.533
 
band     3 # energy    4.77029996 # occ.  2.00000000
 
ion      s     py     pz     px    dxy    dyz    dz2    dxz  x2-y2    tot
    1  0.000  0.000  0.111  0.111  0.000  0.000  0.000  0.000  0.000  0.223
    2  0.000  0.000  0.157  0.157  0.000  0.000  0.000  0.000  0.000  0.314
tot    0.000  0.001  0.268  0.268  0.000  0.000  0.000  0.000  0.000  0.537
 
band     4 # energy    4.78701042 # occ.  2.00000000
 
ion      s     py     pz     px    dxy    dyz    dz2    dxz  x2-y2    tot
    1  0.000  0.000  0.112  0.112  0.000  0.000  0.000  0.000  0.000  0.223
    2  0.000  0.000  0.157  0.157  0.000  0.000  0.000  0.000  0.000  0.315
tot    0.000  0.000  0.269  0.269  0.000  0.000  0.000  0.000  0.000  0.538
 
band     5 # energy    9.32402575 # occ.  0.00000000
 
ion      s     py     pz     px    dxy    dyz    dz2    dxz  x2-y2    tot
    1  0.000  0.098  0.000  0.000  0.000  0.000  0.000  0.000  0.000  0.099
    2  0.091  0.000  0.001  0.001  0.000  0.000  0.000  0.000  0.000  0.092
tot    0.091  0.098  0.001  0.001  0.000  0.000  0.000  0.000  0.000  0.190
 
band     6 # energy   12.22308702 # occ.  0.00000000
 
ion      s     py     pz     px    dxy    dyz    dz2    dxz  x2-y2    tot
    1  0.253  0.000  0.000  0.000  0.000  0.000  0.000  0.000  0.000  0.253
    2  0.000  0.035  0.000  0.000  0.000  0.000  0.000  0.000  0.000  0.035
tot    0.253  0.035  0.000  0.000  0.000  0.000  0.000  0.000  0.000  0.288
 
band     7 # energy   21.79598417 # occ.  0.00000000
 
ion      s     py     pz     px    dxy    dyz    dz2    dxz  x2-y2    tot
    1  0.000  0.000  0.108  0.104  0.000  0.000  0.000  0.000  0.000  0.212
    2  0.000  0.000  0.152  0.157  0.000  0.000  0.000  0.000  0.000  0.310
tot    0.000  0.000  0.260  0.262  0.000  0.000  0.000  0.000  0.000  0.522
 
band     8 # energy   21.79830371 # occ.  0.00000000
 
ion      s     py     pz     px    dxy    dyz    dz2    dxz  x2-y2    tot
    1  0.000  0.000  0.104  0.108  0.000  0.000  0.000  0.000  0.000  0.213
    2  0.000  0.000  0.157  0.152  0.000  0.000  0.000  0.000  0.000  0.310
tot    0.000  0.000  0.261  0.260  0.000  0.000  0.000  0.000  0.000  0.522
 

 k-point   143 :   -0.51315789-0.02631579-0.51315789     weight = 0.00416667

band     1 # energy   -2.39550959 # occ.  2.00000000
 
ion      s     py     pz     px    dxy    dyz    dz2    dxz  x2-y2    tot
    1  0.000  0.132  0.000  0.000  0.000  0.000  0.000  0.000  0.000  0.132
    2  0.431  0.000  0.000  0.000  0.000  0.000  0.000  0.000  0.000  0.431
tot    0.431  0.132  0.000  0.000  0.000  0.000  0.000  0.000  0.000  0.563
 
band     2 # energy    0.20046266 # occ.  2.00000000
 
ion      s     py     pz     px    dxy    dyz    dz2    dxz  x2-y2    tot
    1  0.349  0.000  0.000  0.000  0.000  0.000  0.000  0.000  0.000  0.350
    2  0.000  0.184  0.000  0.000  0.000  0.000  0.000  0.000  0.000  0.184
tot    0.349  0.184  0.000  0.000  0.000  0.000  0.000  0.000  0.000  0.534
 
band     3 # energy    4.72597547 # occ.  2.00000000
 
ion      s     py     pz     px    dxy    dyz    dz2    dxz  x2-y2    tot
    1  0.001  0.002  0.110  0.110  0.000  0.000  0.000  0.000  0.000  0.223
    2  0.000  0.000  0.155  0.155  0.000  0.000  0.000  0.000  0.000  0.311
tot    0.002  0.002  0.265  0.265  0.000  0.000  0.000  0.000  0.000  0.534
 
band     4 # energy    4.79207878 # occ.  2.00000000
 
ion      s     py     pz     px    dxy    dyz    dz2    dxz  x2-y2    tot
    1  0.000  0.000  0.112  0.112  0.000  0.000  0.000  0.000  0.000  0.223
    2  0.000  0.000  0.158  0.158  0.000  0.000  0.000  0.000  0.000  0.315
tot    0.000  0.000  0.269  0.269  0.000  0.000  0.000  0.000  0.000  0.538
 
band     5 # energy    9.35878540 # occ.  0.00000000
 
ion      s     py     pz     px    dxy    dyz    dz2    dxz  x2-y2    tot
    1  0.000  0.097  0.001  0.001  0.000  0.000  0.000  0.000  0.000  0.099
    2  0.090  0.000  0.002  0.002  0.000  0.000  0.000  0.000  0.000  0.094
tot    0.090  0.097  0.003  0.003  0.000  0.000  0.000  0.000  0.000  0.193
 
band     6 # energy   12.25507696 # occ.  0.00000000
 
ion      s     py     pz     px    dxy    dyz    dz2    dxz  x2-y2    tot
    1  0.251  0.000  0.001  0.001  0.000  0.000  0.000  0.000  0.000  0.253
    2  0.000  0.035  0.001  0.001  0.000  0.000  0.000  0.000  0.000  0.037
tot    0.252  0.035  0.002  0.002  0.000  0.000  0.000  0.000  0.000  0.290
 
band     7 # energy   21.77777239 # occ.  0.00000000
 
ion      s     py     pz     px    dxy    dyz    dz2    dxz  x2-y2    tot
    1  0.000  0.000  0.084  0.125  0.000  0.000  0.000  0.000  0.000  0.209
    2  0.000  0.001  0.183  0.123  0.000  0.000  0.000  0.000  0.000  0.307
tot    0.000  0.001  0.267  0.247  0.000  0.000  0.000  0.000  0.000  0.515
 
band     8 # energy   21.78274607 # occ.  0.00000000
 
ion      s     py     pz     px    dxy    dyz    dz2    dxz  x2-y2    tot
    1  0.000  0.001  0.127  0.084  0.000  0.000  0.000  0.000  0.000  0.213
    2  0.001  0.001  0.123  0.184  0.000  0.000  0.000  0.000  0.000  0.310
tot    0.001  0.002  0.250  0.269  0.000  0.000  0.000  0.000  0.000  0.523
 

 k-point   144 :   -0.51973684-0.03947368-0.51973684     weight = 0.00416667

band     1 # energy   -2.39212628 # occ.  2.00000000
 
ion      s     py     pz     px    dxy    dyz    dz2    dxz  x2-y2    tot
    1  0.000  0.131  0.000  0.000  0.000  0.000  0.000  0.000  0.000  0.132
    2  0.431  0.000  0.000  0.000  0.000  0.000  0.000  0.000  0.000  0.431
tot    0.431  0.131  0.000  0.000  0.000  0.000  0.000  0.000  0.000  0.563
 
band     2 # energy    0.20932233 # occ.  2.00000000
 
ion      s     py     pz     px    dxy    dyz    dz2    dxz  x2-y2    tot
    1  0.350  0.000  0.000  0.000  0.000  0.000  0.000  0.000  0.000  0.350
    2  0.000  0.184  0.000  0.000  0.000  0.000  0.000  0.000  0.000  0.184
tot    0.350  0.184  0.000  0.000  0.000  0.000  0.000  0.000  0.000  0.534
 
band     3 # energy    4.65440277 # occ.  2.00000000
 
ion      s     py     pz     px    dxy    dyz    dz2    dxz  x2-y2    tot
    1  0.003  0.004  0.108  0.108  0.000  0.000  0.000  0.000  0.000  0.223
    2  0.001  0.001  0.152  0.152  0.000  0.000  0.000  0.000  0.000  0.306
tot    0.004  0.004  0.260  0.260  0.000  0.000  0.000  0.000  0.000  0.528
 
band     4 # energy    4.80050910 # occ.  2.00000000
 
ion      s     py     pz     px    dxy    dyz    dz2    dxz  x2-y2    tot
    1  0.000  0.000  0.111  0.111  0.000  0.000  0.000  0.000  0.000  0.223
    2  0.000  0.000  0.158  0.158  0.000  0.000  0.000  0.000  0.000  0.315
tot    0.000  0.000  0.269  0.269  0.000  0.000  0.000  0.000  0.000  0.538
 
band     5 # energy    9.41423333 # occ.  0.00000000
 
ion      s     py     pz     px    dxy    dyz    dz2    dxz  x2-y2    tot
    1  0.000  0.096  0.001  0.001  0.000  0.000  0.000  0.000  0.000  0.098
    2  0.089  0.000  0.004  0.004  0.000  0.000  0.000  0.000  0.000  0.097
tot    0.089  0.096  0.005  0.005  0.000  0.000  0.000  0.000  0.000  0.196
 
band     6 # energy   12.30857537 # occ.  0.00000000
 
ion      s     py     pz     px    dxy    dyz    dz2    dxz  x2-y2    tot
    1  0.249  0.000  0.002  0.002  0.000  0.000  0.000  0.000  0.000  0.253
    2  0.000  0.034  0.002  0.002  0.000  0.000  0.000  0.000  0.000  0.039
tot    0.249  0.034  0.004  0.004  0.000  0.000  0.000  0.000  0.000  0.292
 
band     7 # energy   21.73151580 # occ.  0.00000000
 
ion      s     py     pz     px    dxy    dyz    dz2    dxz  x2-y2    tot
    1  0.000  0.000  0.108  0.103  0.000  0.000  0.000  0.000  0.000  0.211
    2  0.000  0.000  0.149  0.157  0.000  0.000  0.000  0.000  0.000  0.306
tot    0.000  0.000  0.257  0.259  0.000  0.000  0.000  0.000  0.000  0.517
 
band     8 # energy   21.75548157 # occ.  0.00000000
 
ion      s     py     pz     px    dxy    dyz    dz2    dxz  x2-y2    tot
    1  0.000  0.003  0.103  0.107  0.000  0.000  0.000  0.000  0.000  0.213
    2  0.004  0.000  0.155  0.148  0.000  0.000  0.000  0.000  0.000  0.307
tot    0.004  0.004  0.258  0.255  0.000  0.000  0.000  0.000  0.000  0.520
 

 k-point   145 :   -0.52631579-0.05263158-0.52631579     weight = 0.00416667

band     1 # energy   -2.38752714 # occ.  2.00000000
 
ion      s     py     pz     px    dxy    dyz    dz2    dxz  x2-y2    tot
    1  0.000  0.131  0.001  0.001  0.000  0.000  0.000  0.000  0.000  0.132
    2  0.432  0.000  0.000  0.000  0.000  0.000  0.000  0.000  0.000  0.432
tot    0.432  0.131  0.001  0.001  0.000  0.000  0.000  0.000  0.000  0.564
 
band     2 # energy    0.22166322 # occ.  2.00000000
 
ion      s     py     pz     px    dxy    dyz    dz2    dxz  x2-y2    tot
    1  0.350  0.000  0.000  0.000  0.000  0.000  0.000  0.000  0.000  0.351
    2  0.000  0.184  0.000  0.000  0.000  0.000  0.000  0.000  0.000  0.184
tot    0.350  0.184  0.000  0.000  0.000  0.000  0.000  0.000  0.000  0.535
 
band     3 # energy    4.55867594 # occ.  2.00000000
 
ion      s     py     pz     px    dxy    dyz    dz2    dxz  x2-y2    tot
    1  0.004  0.006  0.106  0.106  0.000  0.000  0.000  0.000  0.000  0.223
    2  0.002  0.002  0.148  0.148  0.000  0.000  0.000  0.000  0.000  0.299
tot    0.006  0.008  0.254  0.254  0.000  0.000  0.000  0.000  0.000  0.522
 
band     4 # energy    4.81229670 # occ.  2.00000000
 
ion      s     py     pz     px    dxy    dyz    dz2    dxz  x2-y2    tot
    1  0.000  0.000  0.111  0.111  0.000  0.000  0.000  0.000  0.000  0.223
    2  0.000  0.000  0.158  0.158  0.000  0.000  0.000  0.000  0.000  0.316
tot    0.000  0.000  0.269  0.269  0.000  0.000  0.000  0.000  0.000  0.538
 
band     5 # energy    9.48713412 # occ.  0.00000000
 
ion      s     py     pz     px    dxy    dyz    dz2    dxz  x2-y2    tot
    1  0.001  0.094  0.002  0.002  0.000  0.000  0.000  0.000  0.000  0.098
    2  0.087  0.000  0.007  0.007  0.000  0.000  0.000  0.000  0.000  0.101
tot    0.088  0.094  0.009  0.009  0.000  0.000  0.000  0.000  0.000  0.199
 
band     6 # energy   12.38381301 # occ.  0.00000000
 
ion      s     py     pz     px    dxy    dyz    dz2    dxz  x2-y2    tot
    1  0.246  0.000  0.003  0.003  0.000  0.000  0.000  0.000  0.000  0.252
    2  0.000  0.034  0.004  0.004  0.000  0.000  0.000  0.000  0.000  0.042
tot    0.246  0.034  0.007  0.007  0.000  0.000  0.000  0.000  0.000  0.294
 
band     7 # energy   21.67963797 # occ.  0.00000000
 
ion      s     py     pz     px    dxy    dyz    dz2    dxz  x2-y2    tot
    1  0.000  0.000  0.118  0.093  0.000  0.000  0.000  0.000  0.000  0.210
    2  0.000  0.001  0.133  0.169  0.000  0.000  0.000  0.000  0.000  0.302
tot    0.000  0.001  0.250  0.262  0.000  0.000  0.000  0.000  0.000  0.513
 
band     8 # energy   21.71859766 # occ.  0.00000000
 
ion      s     py     pz     px    dxy    dyz    dz2    dxz  x2-y2    tot
    1  0.000  0.006  0.092  0.114  0.000  0.000  0.000  0.000  0.000  0.212
    2  0.007  0.003  0.164  0.131  0.000  0.000  0.000  0.000  0.000  0.304
tot    0.007  0.009  0.256  0.245  0.000  0.000  0.000  0.000  0.000  0.516
 

 k-point   146 :   -0.53289474-0.06578947-0.53289474     weight = 0.00416667

band     1 # energy   -2.38185305 # occ.  2.00000000
 
ion      s     py     pz     px    dxy    dyz    dz2    dxz  x2-y2    tot
    1  0.000  0.130  0.001  0.001  0.000  0.000  0.000  0.000  0.000  0.132
    2  0.432  0.000  0.000  0.000  0.000  0.000  0.000  0.000  0.000  0.432
tot    0.432  0.130  0.001  0.001  0.000  0.000  0.000  0.000  0.000  0.564
 
band     2 # energy    0.23742005 # occ.  2.00000000
 
ion      s     py     pz     px    dxy    dyz    dz2    dxz  x2-y2    tot
    1  0.351  0.000  0.000  0.000  0.000  0.000  0.000  0.000  0.000  0.351
    2  0.000  0.183  0.000  0.000  0.000  0.000  0.000  0.000  0.000  0.184
tot    0.351  0.183  0.001  0.001  0.000  0.000  0.000  0.000  0.000  0.536
 
band     3 # energy    4.44245875 # occ.  2.00000000
 
ion      s     py     pz     px    dxy    dyz    dz2    dxz  x2-y2    tot
    1  0.006  0.009  0.104  0.104  0.000  0.000  0.000  0.000  0.000  0.222
    2  0.002  0.003  0.144  0.144  0.000  0.000  0.000  0.000  0.000  0.292
tot    0.008  0.011  0.247  0.247  0.000  0.000  0.000  0.000  0.000  0.514
 
band     4 # energy    4.82742625 # occ.  2.00000000
 
ion      s     py     pz     px    dxy    dyz    dz2    dxz  x2-y2    tot
    1  0.000  0.000  0.111  0.111  0.000  0.000  0.000  0.000  0.000  0.222
    2  0.000  0.000  0.158  0.158  0.000  0.000  0.000  0.000  0.000  0.316
tot    0.000  0.000  0.269  0.269  0.000  0.000  0.000  0.000  0.000  0.538
 
band     5 # energy    9.57372578 # occ.  0.00000000
 
ion      s     py     pz     px    dxy    dyz    dz2    dxz  x2-y2    tot
    1  0.002  0.092  0.002  0.002  0.000  0.000  0.000  0.000  0.000  0.098
    2  0.085  0.000  0.010  0.010  0.000  0.000  0.000  0.000  0.000  0.105
tot    0.087  0.092  0.012  0.012  0.000  0.000  0.000  0.000  0.000  0.203
 
band     6 # energy   12.48097553 # occ.  0.00000000
 
ion      s     py     pz     px    dxy    dyz    dz2    dxz  x2-y2    tot
    1  0.242  0.000  0.004  0.004  0.000  0.000  0.000  0.000  0.000  0.251
    2  0.000  0.034  0.006  0.006  0.000  0.000  0.000  0.000  0.000  0.047
tot    0.242  0.034  0.011  0.011  0.000  0.000  0.000  0.000  0.000  0.297
 
band     7 # energy   21.60683016 # occ.  0.00000000
 
ion      s     py     pz     px    dxy    dyz    dz2    dxz  x2-y2    tot
    1  0.000  0.000  0.103  0.108  0.000  0.000  0.000  0.000  0.000  0.210
    2  0.000  0.000  0.153  0.146  0.000  0.000  0.000  0.000  0.000  0.300
tot    0.000  0.000  0.256  0.254  0.000  0.000  0.000  0.000  0.000  0.510
 
band     8 # energy   21.66924116 # occ.  0.00000000
 
ion      s     py     pz     px    dxy    dyz    dz2    dxz  x2-y2    tot
    1  0.000  0.009  0.104  0.100  0.000  0.000  0.000  0.000  0.000  0.214
    2  0.010  0.003  0.142  0.148  0.000  0.000  0.000  0.000  0.000  0.303
tot    0.010  0.012  0.246  0.248  0.000  0.000  0.000  0.000  0.000  0.517
 

 k-point   147 :   -0.53947368-0.07894737-0.53947368     weight = 0.00416667

band     1 # energy   -2.37528223 # occ.  2.00000000
 
ion      s     py     pz     px    dxy    dyz    dz2    dxz  x2-y2    tot
    1  0.000  0.129  0.001  0.001  0.000  0.000  0.000  0.000  0.000  0.131
    2  0.433  0.000  0.000  0.000  0.000  0.000  0.000  0.000  0.000  0.433
tot    0.433  0.129  0.001  0.001  0.000  0.000  0.000  0.000  0.000  0.564
 
band     2 # energy    0.25651219 # occ.  2.00000000
 
ion      s     py     pz     px    dxy    dyz    dz2    dxz  x2-y2    tot
    1  0.352  0.000  0.000  0.000  0.000  0.000  0.000  0.000  0.000  0.352
    2  0.000  0.183  0.001  0.001  0.000  0.000  0.000  0.000  0.000  0.184
tot    0.352  0.183  0.001  0.001  0.000  0.000  0.000  0.000  0.000  0.537
 
band     3 # energy    4.30961510 # occ.  2.00000000
 
ion      s     py     pz     px    dxy    dyz    dz2    dxz  x2-y2    tot
    1  0.008  0.012  0.101  0.101  0.000  0.000  0.000  0.000  0.000  0.222
    2  0.003  0.004  0.139  0.139  0.000  0.000  0.000  0.000  0.000  0.284
tot    0.011  0.015  0.240  0.240  0.000  0.000  0.000  0.000  0.000  0.506
 
band     4 # energy    4.84587775 # occ.  2.00000000
 
ion      s     py     pz     px    dxy    dyz    dz2    dxz  x2-y2    tot
    1  0.000  0.000  0.111  0.111  0.000  0.000  0.000  0.000  0.000  0.222
    2  0.000  0.000  0.158  0.158  0.000  0.000  0.000  0.000  0.000  0.317
tot    0.000  0.000  0.269  0.269  0.000  0.000  0.000  0.000  0.000  0.539
 
band     5 # energy    9.67021780 # occ.  0.00000000
 
ion      s     py     pz     px    dxy    dyz    dz2    dxz  x2-y2    tot
    1  0.004  0.089  0.003  0.003  0.000  0.000  0.000  0.000  0.000  0.099
    2  0.083  0.001  0.012  0.012  0.000  0.000  0.000  0.000  0.000  0.108
tot    0.087  0.090  0.015  0.015  0.000  0.000  0.000  0.000  0.000  0.207
 
band     6 # energy   12.60010725 # occ.  0.00000000
 
ion      s     py     pz     px    dxy    dyz    dz2    dxz  x2-y2    tot
    1  0.236  0.000  0.006  0.006  0.000  0.000  0.000  0.000  0.000  0.249
    2  0.000  0.033  0.009  0.009  0.000  0.000  0.000  0.000  0.000  0.052
tot    0.237  0.034  0.016  0.016  0.000  0.000  0.000  0.000  0.000  0.301
 
band     7 # energy   21.52235618 # occ.  0.00000000
 
ion      s     py     pz     px    dxy    dyz    dz2    dxz  x2-y2    tot
    1  0.000  0.000  0.106  0.102  0.000  0.000  0.000  0.000  0.000  0.209
    2  0.000  0.000  0.145  0.150  0.000  0.000  0.000  0.000  0.000  0.295
tot    0.000  0.000  0.251  0.252  0.000  0.000  0.000  0.000  0.000  0.503
 
band     8 # energy   21.61439271 # occ.  0.00000000
 
ion      s     py     pz     px    dxy    dyz    dz2    dxz  x2-y2    tot
    1  0.000  0.013  0.098  0.100  0.000  0.000  0.000  0.000  0.000  0.211
    2  0.014  0.006  0.141  0.138  0.000  0.000  0.000  0.000  0.000  0.300
tot    0.015  0.020  0.239  0.237  0.000  0.000  0.000  0.000  0.000  0.511
 

 k-point   148 :   -0.54605263-0.09210526-0.54605263     weight = 0.00416667

band     1 # energy   -2.36804907 # occ.  2.00000000
 
ion      s     py     pz     px    dxy    dyz    dz2    dxz  x2-y2    tot
    1  0.000  0.127  0.002  0.002  0.000  0.000  0.000  0.000  0.000  0.131
    2  0.434  0.000  0.000  0.000  0.000  0.000  0.000  0.000  0.000  0.434
tot    0.434  0.127  0.002  0.002  0.000  0.000  0.000  0.000  0.000  0.565
 
band     2 # energy    0.27883356 # occ.  2.00000000
 
ion      s     py     pz     px    dxy    dyz    dz2    dxz  x2-y2    tot
    1  0.352  0.000  0.001  0.001  0.000  0.000  0.000  0.000  0.000  0.354
    2  0.000  0.183  0.001  0.001  0.000  0.000  0.000  0.000  0.000  0.184
tot    0.352  0.183  0.001  0.001  0.000  0.000  0.000  0.000  0.000  0.538
 
band     3 # energy    4.16394159 # occ.  2.00000000
 
ion      s     py     pz     px    dxy    dyz    dz2    dxz  x2-y2    tot
    1  0.009  0.015  0.098  0.098  0.000  0.000  0.000  0.000  0.000  0.222
    2  0.003  0.005  0.134  0.134  0.000  0.000  0.000  0.000  0.000  0.276
tot    0.013  0.020  0.233  0.233  0.000  0.000  0.000  0.000  0.000  0.498
 
band     4 # energy    4.86763283 # occ.  2.00000000
 
ion      s     py     pz     px    dxy    dyz    dz2    dxz  x2-y2    tot
    1  0.000  0.000  0.111  0.111  0.000  0.000  0.000  0.000  0.000  0.221
    2  0.000  0.000  0.159  0.159  0.000  0.000  0.000  0.000  0.000  0.317
tot    0.000  0.000  0.269  0.269  0.000  0.000  0.000  0.000  0.000  0.539
 
band     5 # energy    9.77317539 # occ.  0.00000000
 
ion      s     py     pz     px    dxy    dyz    dz2    dxz  x2-y2    tot
    1  0.007  0.087  0.003  0.003  0.000  0.000  0.000  0.000  0.000  0.099
    2  0.080  0.001  0.015  0.015  0.000  0.000  0.000  0.000  0.000  0.111
tot    0.087  0.088  0.017  0.017  0.000  0.000  0.000  0.000  0.000  0.210
 
band     6 # energy   12.74101211 # occ.  0.00000000
 
ion      s     py     pz     px    dxy    dyz    dz2    dxz  x2-y2    tot
    1  0.230  0.001  0.008  0.008  0.000  0.000  0.000  0.000  0.000  0.247
    2  0.000  0.033  0.013  0.013  0.000  0.000  0.000  0.000  0.000  0.059
tot    0.231  0.033  0.021  0.021  0.000  0.000  0.000  0.000  0.000  0.306
 
band     7 # energy   21.42634655 # occ.  0.00000000
 
ion      s     py     pz     px    dxy    dyz    dz2    dxz  x2-y2    tot
    1  0.000  0.000  0.103  0.104  0.000  0.000  0.000  0.000  0.000  0.208
    2  0.000  0.000  0.145  0.145  0.000  0.000  0.000  0.000  0.000  0.290
tot    0.000  0.000  0.248  0.249  0.000  0.000  0.000  0.000  0.000  0.498
 
band     8 # energy   21.54527121 # occ.  0.00000000
 
ion      s     py     pz     px    dxy    dyz    dz2    dxz  x2-y2    tot
    1  0.000  0.017  0.099  0.099  0.000  0.000  0.000  0.000  0.000  0.215
    2  0.019  0.006  0.137  0.135  0.000  0.000  0.000  0.000  0.000  0.297
tot    0.019  0.023  0.235  0.235  0.000  0.000  0.000  0.000  0.000  0.512
 

 k-point   149 :   -0.55263158-0.10526316-0.55263158     weight = 0.00416667

band     1 # energy   -2.36046580 # occ.  2.00000000
 
ion      s     py     pz     px    dxy    dyz    dz2    dxz  x2-y2    tot
    1  0.001  0.125  0.002  0.002  0.000  0.000  0.000  0.000  0.000  0.130
    2  0.435  0.000  0.000  0.000  0.000  0.000  0.000  0.000  0.000  0.435
tot    0.435  0.125  0.002  0.002  0.000  0.000  0.000  0.000  0.000  0.565
 
band     2 # energy    0.30421120 # occ.  2.00000000
 
ion      s     py     pz     px    dxy    dyz    dz2    dxz  x2-y2    tot
    1  0.353  0.000  0.001  0.001  0.000  0.000  0.000  0.000  0.000  0.355
    2  0.000  0.182  0.001  0.001  0.000  0.000  0.000  0.000  0.000  0.185
tot    0.354  0.182  0.002  0.002  0.000  0.000  0.000  0.000  0.000  0.540
 
band     3 # energy    4.00897676 # occ.  2.00000000
 
ion      s     py     pz     px    dxy    dyz    dz2    dxz  x2-y2    tot
    1  0.011  0.019  0.096  0.096  0.000  0.000  0.000  0.000  0.000  0.221
    2  0.003  0.006  0.130  0.130  0.000  0.000  0.000  0.000  0.000  0.269
tot    0.014  0.025  0.225  0.225  0.000  0.000  0.000  0.000  0.000  0.490
 
band     4 # energy    4.89265072 # occ.  2.00000000
 
ion      s     py     pz     px    dxy    dyz    dz2    dxz  x2-y2    tot
    1  0.000  0.000  0.110  0.110  0.000  0.000  0.000  0.000  0.000  0.221
    2  0.000  0.000  0.159  0.159  0.000  0.000  0.000  0.000  0.000  0.318
tot    0.000  0.000  0.269  0.269  0.000  0.000  0.000  0.000  0.000  0.539
 
band     5 # energy    9.87973508 # occ.  0.00000000
 
ion      s     py     pz     px    dxy    dyz    dz2    dxz  x2-y2    tot
    1  0.011  0.084  0.003  0.003  0.000  0.000  0.000  0.000  0.000  0.100
    2  0.078  0.002  0.017  0.017  0.000  0.000  0.000  0.000  0.000  0.113
tot    0.089  0.086  0.019  0.019  0.000  0.000  0.000  0.000  0.000  0.213
 
band     6 # energy   12.90313393 # occ.  0.00000000
 
ion      s     py     pz     px    dxy    dyz    dz2    dxz  x2-y2    tot
    1  0.223  0.001  0.010  0.010  0.000  0.000  0.000  0.000  0.000  0.244
    2  0.001  0.032  0.017  0.017  0.000  0.000  0.000  0.000  0.000  0.067
tot    0.224  0.033  0.027  0.027  0.000  0.000  0.000  0.000  0.000  0.310
 
band     7 # energy   21.31913953 # occ.  0.00000000
 
ion      s     py     pz     px    dxy    dyz    dz2    dxz  x2-y2    tot
    1  0.000  0.000  0.107  0.100  0.000  0.000  0.000  0.000  0.000  0.207
    2  0.000  0.000  0.138  0.146  0.000  0.000  0.000  0.000  0.000  0.284
tot    0.000  0.000  0.245  0.246  0.000  0.000  0.000  0.000  0.000  0.491
 
band     8 # energy   21.47151096 # occ.  0.00000000
 
ion      s     py     pz     px    dxy    dyz    dz2    dxz  x2-y2    tot
    1  0.000  0.023  0.092  0.096  0.000  0.000  0.000  0.000  0.000  0.211
    2  0.024  0.014  0.130  0.126  0.000  0.000  0.000  0.000  0.000  0.294
tot    0.024  0.037  0.222  0.222  0.000  0.000  0.000  0.000  0.000  0.505
 

 k-point   150 :   -0.55921053-0.11842105-0.55921053     weight = 0.00416667

band     1 # energy   -2.35286402 # occ.  2.00000000
 
ion      s     py     pz     px    dxy    dyz    dz2    dxz  x2-y2    tot
    1  0.001  0.123  0.003  0.003  0.000  0.000  0.000  0.000  0.000  0.130
    2  0.436  0.000  0.000  0.000  0.000  0.000  0.000  0.000  0.000  0.436
tot    0.437  0.123  0.003  0.003  0.000  0.000  0.000  0.000  0.000  0.566
 
band     2 # energy    0.33249227 # occ.  2.00000000
 
ion      s     py     pz     px    dxy    dyz    dz2    dxz  x2-y2    tot
    1  0.355  0.000  0.001  0.001  0.000  0.000  0.000  0.000  0.000  0.357
    2  0.000  0.181  0.002  0.002  0.000  0.000  0.000  0.000  0.000  0.185
tot    0.355  0.181  0.003  0.003  0.000  0.000  0.000  0.000  0.000  0.541
 
band     3 # energy    3.84799248 # occ.  2.00000000
 
ion      s     py     pz     px    dxy    dyz    dz2    dxz  x2-y2    tot
    1  0.012  0.022  0.093  0.093  0.000  0.000  0.000  0.000  0.000  0.220
    2  0.003  0.008  0.125  0.125  0.000  0.000  0.000  0.000  0.000  0.261
tot    0.015  0.030  0.218  0.218  0.000  0.000  0.000  0.000  0.000  0.481
 
band     4 # energy    4.92090320 # occ.  2.00000000
 
ion      s     py     pz     px    dxy    dyz    dz2    dxz  x2-y2    tot
    1  0.000  0.000  0.110  0.110  0.000  0.000  0.000  0.000  0.000  0.220
    2  0.000  0.000  0.159  0.159  0.000  0.000  0.000  0.000  0.000  0.319
tot    0.000  0.000  0.270  0.270  0.000  0.000  0.000  0.000  0.000  0.539
 
band     5 # energy    9.98775908 # occ.  0.00000000
 
ion      s     py     pz     px    dxy    dyz    dz2    dxz  x2-y2    tot
    1  0.015  0.082  0.002  0.002  0.000  0.000  0.000  0.000  0.000  0.101
    2  0.075  0.002  0.018  0.018  0.000  0.000  0.000  0.000  0.000  0.114
tot    0.090  0.084  0.021  0.021  0.000  0.000  0.000  0.000  0.000  0.216
 
band     6 # energy   13.08557996 # occ.  0.00000000
 
ion      s     py     pz     px    dxy    dyz    dz2    dxz  x2-y2    tot
    1  0.215  0.001  0.012  0.012  0.000  0.000  0.000  0.000  0.000  0.240
    2  0.001  0.031  0.022  0.022  0.000  0.000  0.000  0.000  0.000  0.075
tot    0.216  0.032  0.034  0.034  0.000  0.000  0.000  0.000  0.000  0.315
 
band     7 # energy   21.20032002 # occ.  0.00000000
 
ion      s     py     pz     px    dxy    dyz    dz2    dxz  x2-y2    tot
    1  0.000  0.000  0.103  0.104  0.000  0.000  0.000  0.000  0.000  0.207
    2  0.000  0.000  0.140  0.139  0.000  0.000  0.000  0.000  0.000  0.279
tot    0.000  0.000  0.243  0.243  0.000  0.000  0.000  0.000  0.000  0.486
 
band     8 # energy   21.38765376 # occ.  0.00000000
 
ion      s     py     pz     px    dxy    dyz    dz2    dxz  x2-y2    tot
    1  0.000  0.028  0.094  0.094  0.000  0.000  0.000  0.000  0.000  0.216
    2  0.030  0.012  0.124  0.123  0.000  0.000  0.000  0.000  0.000  0.289
tot    0.030  0.040  0.217  0.218  0.000  0.000  0.000  0.000  0.000  0.505
 

 k-point   151 :   -0.56578947-0.13157895-0.56578947     weight = 0.00416667

band     1 # energy   -2.34565580 # occ.  2.00000000
 
ion      s     py     pz     px    dxy    dyz    dz2    dxz  x2-y2    tot
    1  0.002  0.121  0.004  0.004  0.000  0.000  0.000  0.000  0.000  0.130
    2  0.437  0.000  0.000  0.000  0.000  0.000  0.000  0.000  0.000  0.437
tot    0.438  0.121  0.004  0.004  0.000  0.000  0.000  0.000  0.000  0.566
 
band     2 # energy    0.36346520 # occ.  2.00000000
 
ion      s     py     pz     px    dxy    dyz    dz2    dxz  x2-y2    tot
    1  0.356  0.001  0.001  0.001  0.000  0.000  0.000  0.000  0.000  0.358
    2  0.000  0.180  0.002  0.002  0.000  0.000  0.000  0.000  0.000  0.185
tot    0.356  0.180  0.003  0.003  0.000  0.000  0.000  0.000  0.000  0.543
 
band     3 # energy    3.68395264 # occ.  2.00000000
 
ion      s     py     pz     px    dxy    dyz    dz2    dxz  x2-y2    tot
    1  0.013  0.026  0.090  0.090  0.000  0.000  0.000  0.000  0.000  0.219
    2  0.003  0.010  0.121  0.121  0.000  0.000  0.000  0.000  0.000  0.254
tot    0.016  0.036  0.211  0.211  0.000  0.000  0.000  0.000  0.000  0.473
 
band     4 # energy    4.95235101 # occ.  2.00000000
 
ion      s     py     pz     px    dxy    dyz    dz2    dxz  x2-y2    tot
    1  0.000  0.000  0.110  0.110  0.000  0.000  0.000  0.000  0.000  0.220
    2  0.000  0.000  0.160  0.160  0.000  0.000  0.000  0.000  0.000  0.320
tot    0.000  0.000  0.270  0.270  0.000  0.000  0.000  0.000  0.000  0.539
 
band     5 # energy   10.09579356 # occ.  0.00000000
 
ion      s     py     pz     px    dxy    dyz    dz2    dxz  x2-y2    tot
    1  0.020  0.079  0.002  0.002  0.000  0.000  0.000  0.000  0.000  0.103
    2  0.073  0.003  0.019  0.019  0.000  0.000  0.000  0.000  0.000  0.115
tot    0.092  0.082  0.021  0.021  0.000  0.000  0.000  0.000  0.000  0.218
 
band     6 # energy   13.28707301 # occ.  0.00000000
 
ion      s     py     pz     px    dxy    dyz    dz2    dxz  x2-y2    tot
    1  0.207  0.001  0.014  0.014  0.000  0.000  0.000  0.000  0.000  0.235
    2  0.001  0.030  0.027  0.027  0.000  0.000  0.000  0.000  0.000  0.085
tot    0.208  0.031  0.041  0.041  0.000  0.000  0.000  0.000  0.000  0.320
 
band     7 # energy   21.07164585 # occ.  0.00000000
 
ion      s     py     pz     px    dxy    dyz    dz2    dxz  x2-y2    tot
    1  0.000  0.000  0.102  0.103  0.000  0.000  0.000  0.000  0.000  0.206
    2  0.000  0.000  0.137  0.135  0.000  0.000  0.000  0.000  0.000  0.272
tot    0.000  0.000  0.239  0.239  0.000  0.000  0.000  0.000  0.000  0.478
 
band     8 # energy   21.29837846 # occ.  0.00000000
 
ion      s     py     pz     px    dxy    dyz    dz2    dxz  x2-y2    tot
    1  0.000  0.034  0.091  0.089  0.000  0.000  0.000  0.000  0.000  0.214
    2  0.035  0.021  0.114  0.116  0.000  0.000  0.000  0.000  0.000  0.287
tot    0.035  0.055  0.205  0.206  0.000  0.000  0.000  0.000  0.000  0.501
 

 k-point   152 :   -0.57236842-0.14473684-0.57236842     weight = 0.00416667

band     1 # energy   -2.33933839 # occ.  2.00000000
 
ion      s     py     pz     px    dxy    dyz    dz2    dxz  x2-y2    tot
    1  0.002  0.118  0.004  0.004  0.000  0.000  0.000  0.000  0.000  0.129
    2  0.437  0.000  0.000  0.000  0.000  0.000  0.000  0.000  0.000  0.438
tot    0.440  0.118  0.004  0.004  0.000  0.000  0.000  0.000  0.000  0.567
 
band     2 # energy    0.39687807 # occ.  2.00000000
 
ion      s     py     pz     px    dxy    dyz    dz2    dxz  x2-y2    tot
    1  0.357  0.001  0.001  0.001  0.000  0.000  0.000  0.000  0.000  0.360
    2  0.000  0.178  0.003  0.003  0.000  0.000  0.000  0.000  0.000  0.185
tot    0.358  0.179  0.004  0.004  0.000  0.000  0.000  0.000  0.000  0.545
 
band     3 # energy    3.51957479 # occ.  2.00000000
 
ion      s     py     pz     px    dxy    dyz    dz2    dxz  x2-y2    tot
    1  0.013  0.030  0.088  0.088  0.000  0.000  0.000  0.000  0.000  0.218
    2  0.003  0.012  0.116  0.116  0.000  0.000  0.000  0.000  0.000  0.247
tot    0.015  0.042  0.204  0.204  0.000  0.000  0.000  0.000  0.000  0.466
 
band     4 # energy    4.98694875 # occ.  2.00000000
 
ion      s     py     pz     px    dxy    dyz    dz2    dxz  x2-y2    tot
    1  0.000  0.000  0.109  0.109  0.000  0.000  0.000  0.000  0.000  0.219
    2  0.000  0.000  0.161  0.161  0.000  0.000  0.000  0.000  0.000  0.321
tot    0.000  0.000  0.270  0.270  0.000  0.000  0.000  0.000  0.000  0.540
 
band     5 # energy   10.20299492 # occ.  0.00000000
 
ion      s     py     pz     px    dxy    dyz    dz2    dxz  x2-y2    tot
    1  0.025  0.077  0.002  0.002  0.000  0.000  0.000  0.000  0.000  0.105
    2  0.070  0.004  0.020  0.020  0.000  0.000  0.000  0.000  0.000  0.115
tot    0.095  0.081  0.022  0.022  0.000  0.000  0.000  0.000  0.000  0.220
 
band     6 # energy   13.50600082 # occ.  0.00000000
 
ion      s     py     pz     px    dxy    dyz    dz2    dxz  x2-y2    tot
    1  0.198  0.002  0.015  0.015  0.000  0.000  0.000  0.000  0.000  0.230
    2  0.001  0.029  0.032  0.032  0.000  0.000  0.000  0.000  0.000  0.095
tot    0.199  0.031  0.048  0.048  0.000  0.000  0.000  0.000  0.000  0.325
 
band     7 # energy   20.93501476 # occ.  0.00000000
 
ion      s     py     pz     px    dxy    dyz    dz2    dxz  x2-y2    tot
    1  0.000  0.000  0.105  0.100  0.000  0.000  0.000  0.000  0.000  0.205
    2  0.000  0.000  0.131  0.136  0.000  0.000  0.000  0.000  0.000  0.267
tot    0.000  0.000  0.236  0.236  0.000  0.000  0.000  0.000  0.000  0.472
 
band     8 # energy   21.20937145 # occ.  0.00000000
 
ion      s     py     pz     px    dxy    dyz    dz2    dxz  x2-y2    tot
    1  0.002  0.039  0.079  0.084  0.000  0.000  0.000  0.000  0.000  0.204
    2  0.040  0.044  0.106  0.100  0.000  0.000  0.000  0.000  0.000  0.289
tot    0.041  0.083  0.185  0.184  0.000  0.000  0.000  0.000  0.000  0.493
 

 k-point   153 :   -0.57894737-0.15789474-0.57894737     weight = 0.00416667

band     1 # energy   -2.33440145 # occ.  2.00000000
 
ion      s     py     pz     px    dxy    dyz    dz2    dxz  x2-y2    tot
    1  0.003  0.115  0.005  0.005  0.000  0.000  0.000  0.000  0.000  0.129
    2  0.438  0.000  0.000  0.000  0.000  0.000  0.000  0.000  0.000  0.439
tot    0.442  0.115  0.005  0.005  0.000  0.000  0.000  0.000  0.000  0.568
 
band     2 # energy    0.43244714 # occ.  2.00000000
 
ion      s     py     pz     px    dxy    dyz    dz2    dxz  x2-y2    tot
    1  0.359  0.001  0.001  0.001  0.000  0.000  0.000  0.000  0.000  0.363
    2  0.001  0.177  0.004  0.004  0.000  0.000  0.000  0.000  0.000  0.185
tot    0.360  0.178  0.005  0.005  0.000  0.000  0.000  0.000  0.000  0.548
 
band     3 # energy    3.35739834 # occ.  2.00000000
 
ion      s     py     pz     px    dxy    dyz    dz2    dxz  x2-y2    tot
    1  0.012  0.033  0.086  0.086  0.000  0.000  0.000  0.000  0.000  0.217
    2  0.002  0.015  0.112  0.112  0.000  0.000  0.000  0.000  0.000  0.241
tot    0.014  0.048  0.198  0.198  0.000  0.000  0.000  0.000  0.000  0.458
 
band     4 # energy    5.02465708 # occ.  2.00000000
 
ion      s     py     pz     px    dxy    dyz    dz2    dxz  x2-y2    tot
    1  0.000  0.000  0.109  0.109  0.000  0.000  0.000  0.000  0.000  0.218
    2  0.000  0.000  0.161  0.161  0.000  0.000  0.000  0.000  0.000  0.322
tot    0.000  0.000  0.270  0.270  0.000  0.000  0.000  0.000  0.000  0.540
 
band     5 # energy   10.30901449 # occ.  0.00000000
 
ion      s     py     pz     px    dxy    dyz    dz2    dxz  x2-y2    tot
    1  0.030  0.075  0.001  0.001  0.000  0.000  0.000  0.000  0.000  0.107
    2  0.068  0.005  0.021  0.021  0.000  0.000  0.000  0.000  0.000  0.114
tot    0.098  0.080  0.022  0.022  0.000  0.000  0.000  0.000  0.000  0.221
 
band     6 # energy   13.74051449 # occ.  0.00000000
 
ion      s     py     pz     px    dxy    dyz    dz2    dxz  x2-y2    tot
    1  0.189  0.002  0.017  0.017  0.000  0.000  0.000  0.000  0.000  0.225
    2  0.001  0.028  0.038  0.038  0.000  0.000  0.000  0.000  0.000  0.106
tot    0.190  0.030  0.055  0.055  0.000  0.000  0.000  0.000  0.000  0.331
 
band     7 # energy   20.79192115 # occ.  0.00000000
 
ion      s     py     pz     px    dxy    dyz    dz2    dxz  x2-y2    tot
    1  0.000  0.000  0.104  0.101  0.000  0.000  0.000  0.000  0.000  0.206
    2  0.000  0.000  0.129  0.132  0.000  0.000  0.000  0.000  0.000  0.260
tot    0.000  0.000  0.233  0.233  0.000  0.000  0.000  0.000  0.000  0.466
 
band     8 # energy   21.09927415 # occ.  0.00000000
 
ion      s     py     pz     px    dxy    dyz    dz2    dxz  x2-y2    tot
    1  0.001  0.047  0.082  0.082  0.000  0.000  0.000  0.000  0.000  0.212
    2  0.046  0.038  0.098  0.097  0.000  0.000  0.000  0.000  0.000  0.279
tot    0.047  0.085  0.180  0.179  0.000  0.000  0.000  0.000  0.000  0.491
 

 k-point   154 :   -0.58552632-0.17105263-0.58552632     weight = 0.00416667

band     1 # energy   -2.33156441 # occ.  2.00000000
 
ion      s     py     pz     px    dxy    dyz    dz2    dxz  x2-y2    tot
    1  0.005  0.112  0.006  0.006  0.000  0.000  0.000  0.000  0.000  0.129
    2  0.439  0.000  0.000  0.000  0.000  0.000  0.000  0.000  0.000  0.439
tot    0.444  0.112  0.006  0.006  0.000  0.000  0.000  0.000  0.000  0.568
 
band     2 # energy    0.46978326 # occ.  2.00000000
 
ion      s     py     pz     px    dxy    dyz    dz2    dxz  x2-y2    tot
    1  0.361  0.002  0.001  0.001  0.000  0.000  0.000  0.000  0.000  0.365
    2  0.001  0.174  0.005  0.005  0.000  0.000  0.000  0.000  0.000  0.185
tot    0.362  0.176  0.006  0.006  0.000  0.000  0.000  0.000  0.000  0.550
 
band     3 # energy    3.19978243 # occ.  2.00000000
 
ion      s     py     pz     px    dxy    dyz    dz2    dxz  x2-y2    tot
    1  0.011  0.037  0.083  0.083  0.000  0.000  0.000  0.000  0.000  0.215
    2  0.002  0.018  0.108  0.108  0.000  0.000  0.000  0.000  0.000  0.236
tot    0.013  0.056  0.191  0.191  0.000  0.000  0.000  0.000  0.000  0.451
 
band     4 # energy    5.06540682 # occ.  2.00000000
 
ion      s     py     pz     px    dxy    dyz    dz2    dxz  x2-y2    tot
    1  0.000  0.000  0.108  0.108  0.000  0.000  0.000  0.000  0.000  0.217
    2  0.000  0.000  0.162  0.162  0.000  0.000  0.000  0.000  0.000  0.324
tot    0.000  0.000  0.270  0.270  0.000  0.000  0.000  0.000  0.000  0.540
 
band     5 # energy   10.41384235 # occ.  0.00000000
 
ion      s     py     pz     px    dxy    dyz    dz2    dxz  x2-y2    tot
    1  0.035  0.073  0.001  0.001  0.000  0.000  0.000  0.000  0.000  0.110
    2  0.066  0.006  0.021  0.021  0.000  0.000  0.000  0.000  0.000  0.113
tot    0.101  0.079  0.022  0.022  0.000  0.000  0.000  0.000  0.000  0.223
 
band     6 # energy   13.98850345 # occ.  0.00000000
 
ion      s     py     pz     px    dxy    dyz    dz2    dxz  x2-y2    tot
    1  0.181  0.002  0.018  0.018  0.000  0.000  0.000  0.000  0.000  0.218
    2  0.001  0.027  0.045  0.045  0.000  0.000  0.000  0.000  0.000  0.118
tot    0.182  0.029  0.063  0.063  0.000  0.000  0.000  0.000  0.000  0.336
 
band     7 # energy   20.64129827 # occ.  0.00000000
 
ion      s     py     pz     px    dxy    dyz    dz2    dxz  x2-y2    tot
    1  0.000  0.000  0.102  0.101  0.000  0.000  0.000  0.000  0.000  0.203
    2  0.000  0.000  0.126  0.127  0.000  0.000  0.000  0.000  0.000  0.253
tot    0.000  0.000  0.228  0.228  0.000  0.000  0.000  0.000  0.000  0.456
 
band     8 # energy   20.98992343 # occ.  0.00000000
 
ion      s     py     pz     px    dxy    dyz    dz2    dxz  x2-y2    tot
    1  0.002  0.053  0.078  0.077  0.000  0.000  0.000  0.000  0.000  0.210
    2  0.051  0.053  0.087  0.087  0.000  0.000  0.000  0.000  0.000  0.278
tot    0.053  0.106  0.165  0.164  0.000  0.000  0.000  0.000  0.000  0.488
 

 k-point   155 :   -0.59210526-0.18421053-0.59210526     weight = 0.00416667

band     1 # energy   -2.33150922 # occ.  2.00000000
 
ion      s     py     pz     px    dxy    dyz    dz2    dxz  x2-y2    tot
    1  0.007  0.108  0.007  0.007  0.000  0.000  0.000  0.000  0.000  0.129
    2  0.440  0.000  0.000  0.000  0.000  0.000  0.000  0.000  0.000  0.440
tot    0.446  0.108  0.007  0.007  0.000  0.000  0.000  0.000  0.000  0.569
 
band     2 # energy    0.50848918 # occ.  2.00000000
 
ion      s     py     pz     px    dxy    dyz    dz2    dxz  x2-y2    tot
    1  0.362  0.003  0.001  0.001  0.000  0.000  0.000  0.000  0.000  0.367
    2  0.001  0.171  0.006  0.006  0.000  0.000  0.000  0.000  0.000  0.185
tot    0.363  0.174  0.007  0.007  0.000  0.000  0.000  0.000  0.000  0.553
 
band     3 # energy    3.04901145 # occ.  2.00000000
 
ion      s     py     pz     px    dxy    dyz    dz2    dxz  x2-y2    tot
    1  0.010  0.041  0.081  0.081  0.000  0.000  0.000  0.000  0.000  0.213
    2  0.001  0.022  0.104  0.104  0.000  0.000  0.000  0.000  0.000  0.231
tot    0.011  0.063  0.185  0.185  0.000  0.000  0.000  0.000  0.000  0.444
 
band     4 # energy    5.10914308 # occ.  2.00000000
 
ion      s     py     pz     px    dxy    dyz    dz2    dxz  x2-y2    tot
    1  0.000  0.000  0.108  0.108  0.000  0.000  0.000  0.000  0.000  0.216
    2  0.000  0.000  0.162  0.162  0.000  0.000  0.000  0.000  0.000  0.325
tot    0.000  0.000  0.270  0.270  0.000  0.000  0.000  0.000  0.000  0.541
 
band     5 # energy   10.51771476 # occ.  0.00000000
 
ion      s     py     pz     px    dxy    dyz    dz2    dxz  x2-y2    tot
    1  0.040  0.071  0.000  0.000  0.000  0.000  0.000  0.000  0.000  0.112
    2  0.063  0.007  0.021  0.021  0.000  0.000  0.000  0.000  0.000  0.112
tot    0.103  0.078  0.022  0.022  0.000  0.000  0.000  0.000  0.000  0.224
 
band     6 # energy   14.24774244 # occ.  0.00000000
 
ion      s     py     pz     px    dxy    dyz    dz2    dxz  x2-y2    tot
    1  0.172  0.002  0.019  0.019  0.000  0.000  0.000  0.000  0.000  0.212
    2  0.001  0.027  0.051  0.051  0.000  0.000  0.000  0.000  0.000  0.130
tot    0.173  0.028  0.070  0.070  0.000  0.000  0.000  0.000  0.000  0.342
 
band     7 # energy   20.48643748 # occ.  0.00000000
 
ion      s     py     pz     px    dxy    dyz    dz2    dxz  x2-y2    tot
    1  0.000  0.000  0.100  0.103  0.000  0.000  0.000  0.000  0.000  0.202
    2  0.000  0.000  0.124  0.122  0.000  0.000  0.000  0.000  0.000  0.246
tot    0.000  0.000  0.224  0.224  0.000  0.000  0.000  0.000  0.000  0.448
 
band     8 # energy   20.87817340 # occ.  0.00000000
 
ion      s     py     pz     px    dxy    dyz    dz2    dxz  x2-y2    tot
    1  0.005  0.060  0.070  0.069  0.000  0.000  0.000  0.000  0.000  0.204
    2  0.055  0.077  0.074  0.074  0.000  0.000  0.000  0.000  0.000  0.279
tot    0.060  0.137  0.143  0.144  0.000  0.000  0.000  0.000  0.000  0.484
 

 k-point   156 :   -0.59868421-0.19736842-0.59868421     weight = 0.00416667

band     1 # energy   -2.33502964 # occ.  2.00000000
 
ion      s     py     pz     px    dxy    dyz    dz2    dxz  x2-y2    tot
    1  0.009  0.103  0.009  0.009  0.000  0.000  0.000  0.000  0.000  0.130
    2  0.440  0.000  0.000  0.000  0.000  0.000  0.000  0.000  0.000  0.440
tot    0.449  0.104  0.009  0.009  0.000  0.000  0.000  0.000  0.000  0.570
 
band     2 # energy    0.54809562 # occ.  2.00000000
 
ion      s     py     pz     px    dxy    dyz    dz2    dxz  x2-y2    tot
    1  0.363  0.004  0.001  0.001  0.000  0.000  0.000  0.000  0.000  0.370
    2  0.002  0.168  0.008  0.008  0.000  0.000  0.000  0.000  0.000  0.185
tot    0.365  0.172  0.009  0.009  0.000  0.000  0.000  0.000  0.000  0.555
 
band     3 # energy    2.90730849 # occ.  2.00000000
 
ion      s     py     pz     px    dxy    dyz    dz2    dxz  x2-y2    tot
    1  0.008  0.045  0.079  0.079  0.000  0.000  0.000  0.000  0.000  0.210
    2  0.001  0.027  0.100  0.100  0.000  0.000  0.000  0.000  0.000  0.227
tot    0.008  0.072  0.178  0.178  0.000  0.000  0.000  0.000  0.000  0.437
 
band     4 # energy    5.15579863 # occ.  2.00000000
 
ion      s     py     pz     px    dxy    dyz    dz2    dxz  x2-y2    tot
    1  0.000  0.000  0.107  0.107  0.000  0.000  0.000  0.000  0.000  0.215
    2  0.000  0.000  0.163  0.163  0.000  0.000  0.000  0.000  0.000  0.326
tot    0.000  0.000  0.271  0.271  0.000  0.000  0.000  0.000  0.000  0.541
 
band     5 # energy   10.62099666 # occ.  0.00000000
 
ion      s     py     pz     px    dxy    dyz    dz2    dxz  x2-y2    tot
    1  0.045  0.070  0.000  0.000  0.000  0.000  0.000  0.000  0.000  0.115
    2  0.061  0.008  0.021  0.021  0.000  0.000  0.000  0.000  0.000  0.111
tot    0.106  0.077  0.021  0.021  0.000  0.000  0.000  0.000  0.000  0.226
 
band     6 # energy   14.51586135 # occ.  0.00000000
 
ion      s     py     pz     px    dxy    dyz    dz2    dxz  x2-y2    tot
    1  0.165  0.002  0.019  0.019  0.000  0.000  0.000  0.000  0.000  0.205
    2  0.001  0.026  0.058  0.058  0.000  0.000  0.000  0.000  0.000  0.143
tot    0.165  0.027  0.077  0.077  0.000  0.000  0.000  0.000  0.000  0.347
 
band     7 # energy   20.32657176 # occ.  0.00000000
 
ion      s     py     pz     px    dxy    dyz    dz2    dxz  x2-y2    tot
    1  0.000  0.000  0.102  0.101  0.000  0.000  0.000  0.000  0.000  0.203
    2  0.000  0.000  0.120  0.120  0.000  0.000  0.000  0.000  0.000  0.240
tot    0.000  0.000  0.221  0.221  0.000  0.000  0.000  0.000  0.000  0.442
 
band     8 # energy   20.75851150 # occ.  0.00000000
 
ion      s     py     pz     px    dxy    dyz    dz2    dxz  x2-y2    tot
    1  0.008  0.066  0.066  0.066  0.000  0.000  0.000  0.000  0.000  0.205
    2  0.058  0.092  0.065  0.064  0.000  0.000  0.000  0.000  0.000  0.279
tot    0.066  0.158  0.130  0.130  0.000  0.000  0.000  0.000  0.000  0.483
 

 k-point   157 :   -0.60526316-0.21052632-0.60526316     weight = 0.00416667

band     1 # energy   -2.34298800 # occ.  2.00000000
 
ion      s     py     pz     px    dxy    dyz    dz2    dxz  x2-y2    tot
    1  0.012  0.099  0.010  0.010  0.000  0.000  0.000  0.000  0.000  0.130
    2  0.439  0.000  0.000  0.000  0.000  0.000  0.000  0.000  0.000  0.440
tot    0.451  0.099  0.010  0.010  0.000  0.000  0.000  0.000  0.000  0.570
 
band     2 # energy    0.58808818 # occ.  2.00000000
 
ion      s     py     pz     px    dxy    dyz    dz2    dxz  x2-y2    tot
    1  0.364  0.006  0.001  0.001  0.000  0.000  0.000  0.000  0.000  0.372
    2  0.003  0.163  0.010  0.010  0.000  0.000  0.000  0.000  0.000  0.186
tot    0.367  0.169  0.011  0.011  0.000  0.000  0.000  0.000  0.000  0.558
 
band     3 # energy    2.77684858 # occ.  2.00000000
 
ion      s     py     pz     px    dxy    dyz    dz2    dxz  x2-y2    tot
    1  0.005  0.048  0.077  0.077  0.000  0.000  0.000  0.000  0.000  0.207
    2  0.000  0.033  0.095  0.095  0.000  0.000  0.000  0.000  0.000  0.224
tot    0.006  0.081  0.172  0.172  0.000  0.000  0.000  0.000  0.000  0.431
 
band     4 # energy    5.20530001 # occ.  2.00000000
 
ion      s     py     pz     px    dxy    dyz    dz2    dxz  x2-y2    tot
    1  0.000  0.000  0.107  0.107  0.000  0.000  0.000  0.000  0.000  0.214
    2  0.000  0.000  0.164  0.164  0.000  0.000  0.000  0.000  0.000  0.328
tot    0.000  0.000  0.271  0.271  0.000  0.000  0.000  0.000  0.000  0.542
 
band     5 # energy   10.72411286 # occ.  0.00000000
 
ion      s     py     pz     px    dxy    dyz    dz2    dxz  x2-y2    tot
    1  0.049  0.068  0.000  0.000  0.000  0.000  0.000  0.000  0.000  0.118
    2  0.059  0.008  0.021  0.021  0.000  0.000  0.000  0.000  0.000  0.110
tot    0.108  0.077  0.021  0.021  0.000  0.000  0.000  0.000  0.000  0.227
 
band     6 # energy   14.79033612 # occ.  0.00000000
 
ion      s     py     pz     px    dxy    dyz    dz2    dxz  x2-y2    tot
    1  0.157  0.001  0.019  0.019  0.000  0.000  0.000  0.000  0.000  0.197
    2  0.000  0.025  0.065  0.065  0.000  0.000  0.000  0.000  0.000  0.156
tot    0.158  0.026  0.084  0.084  0.000  0.000  0.000  0.000  0.000  0.353
 
band     7 # energy   20.16425880 # occ.  0.00000000
 
ion      s     py     pz     px    dxy    dyz    dz2    dxz  x2-y2    tot
    1  0.000  0.000  0.102  0.100  0.000  0.000  0.000  0.000  0.000  0.202
    2  0.000  0.000  0.116  0.118  0.000  0.000  0.000  0.000  0.000  0.233
tot    0.000  0.000  0.218  0.217  0.000  0.000  0.000  0.000  0.000  0.435
 
band     8 # energy   20.63588261 # occ.  0.00000000
 
ion      s     py     pz     px    dxy    dyz    dz2    dxz  x2-y2    tot
    1  0.014  0.071  0.056  0.056  0.000  0.000  0.000  0.000  0.000  0.197
    2  0.058  0.127  0.050  0.050  0.000  0.000  0.000  0.000  0.000  0.286
tot    0.072  0.198  0.106  0.106  0.000  0.000  0.000  0.000  0.000  0.482
 

 k-point   158 :   -0.61184211-0.22368421-0.61184211     weight = 0.00416667

band     1 # energy   -2.35628522 # occ.  2.00000000
 
ion      s     py     pz     px    dxy    dyz    dz2    dxz  x2-y2    tot
    1  0.015  0.093  0.011  0.011  0.000  0.000  0.000  0.000  0.000  0.132
    2  0.438  0.000  0.000  0.000  0.000  0.000  0.000  0.000  0.000  0.439
tot    0.454  0.094  0.012  0.012  0.000  0.000  0.000  0.000  0.000  0.571
 
band     2 # energy    0.62794084 # occ.  2.00000000
 
ion      s     py     pz     px    dxy    dyz    dz2    dxz  x2-y2    tot
    1  0.364  0.008  0.001  0.001  0.000  0.000  0.000  0.000  0.000  0.374
    2  0.004  0.157  0.013  0.013  0.000  0.000  0.000  0.000  0.000  0.186
tot    0.368  0.165  0.014  0.014  0.000  0.000  0.000  0.000  0.000  0.560
 
band     3 # energy    2.65974195 # occ.  2.00000000
 
ion      s     py     pz     px    dxy    dyz    dz2    dxz  x2-y2    tot
    1  0.003  0.051  0.075  0.075  0.000  0.000  0.000  0.000  0.000  0.204
    2  0.000  0.040  0.090  0.090  0.000  0.000  0.000  0.000  0.000  0.221
tot    0.003  0.091  0.165  0.165  0.000  0.000  0.000  0.000  0.000  0.425
 
band     4 # energy    5.25756974 # occ.  2.00000000
 
ion      s     py     pz     px    dxy    dyz    dz2    dxz  x2-y2    tot
    1  0.000  0.000  0.106  0.106  0.000  0.000  0.000  0.000  0.000  0.212
    2  0.000  0.000  0.165  0.165  0.000  0.000  0.000  0.000  0.000  0.330
tot    0.000  0.000  0.271  0.271  0.000  0.000  0.000  0.000  0.000  0.542
 
band     5 # energy   10.82750023 # occ.  0.00000000
 
ion      s     py     pz     px    dxy    dyz    dz2    dxz  x2-y2    tot
    1  0.053  0.067  0.000  0.000  0.000  0.000  0.000  0.000  0.000  0.120
    2  0.057  0.009  0.021  0.021  0.000  0.000  0.000  0.000  0.000  0.108
tot    0.110  0.076  0.021  0.021  0.000  0.000  0.000  0.000  0.000  0.229
 
band     6 # energy   15.06846888 # occ.  0.00000000
 
ion      s     py     pz     px    dxy    dyz    dz2    dxz  x2-y2    tot
    1  0.150  0.001  0.019  0.019  0.000  0.000  0.000  0.000  0.000  0.189
    2  0.000  0.024  0.073  0.073  0.000  0.000  0.000  0.000  0.000  0.170
tot    0.151  0.025  0.092  0.092  0.000  0.000  0.000  0.000  0.000  0.359
 
band     7 # energy   19.99835279 # occ.  0.00000000
 
ion      s     py     pz     px    dxy    dyz    dz2    dxz  x2-y2    tot
    1  0.000  0.000  0.102  0.101  0.000  0.000  0.000  0.000  0.000  0.203
    2  0.000  0.000  0.113  0.114  0.000  0.000  0.000  0.000  0.000  0.227
tot    0.000  0.000  0.215  0.215  0.000  0.000  0.000  0.000  0.000  0.430
 
band     8 # energy   20.50854416 # occ.  0.00000000
 
ion      s     py     pz     px    dxy    dyz    dz2    dxz  x2-y2    tot
    1  0.020  0.076  0.049  0.049  0.000  0.000  0.000  0.000  0.000  0.194
    2  0.058  0.154  0.039  0.039  0.000  0.000  0.000  0.000  0.000  0.290
tot    0.078  0.230  0.088  0.088  0.000  0.000  0.000  0.000  0.000  0.484
 

 k-point   159 :   -0.61842105-0.23684211-0.61842105     weight = 0.00416667

band     1 # energy   -2.37590664 # occ.  2.00000000
 
ion      s     py     pz     px    dxy    dyz    dz2    dxz  x2-y2    tot
    1  0.020  0.088  0.013  0.013  0.000  0.000  0.000  0.000  0.000  0.133
    2  0.437  0.001  0.000  0.000  0.000  0.000  0.000  0.000  0.000  0.438
tot    0.456  0.088  0.013  0.013  0.000  0.000  0.000  0.000  0.000  0.571
 
band     2 # energy    0.66711679 # occ.  2.00000000
 
ion      s     py     pz     px    dxy    dyz    dz2    dxz  x2-y2    tot
    1  0.362  0.011  0.001  0.001  0.000  0.000  0.000  0.000  0.000  0.375
    2  0.005  0.150  0.016  0.016  0.000  0.000  0.000  0.000  0.000  0.187
tot    0.368  0.161  0.016  0.016  0.000  0.000  0.000  0.000  0.000  0.562
 
band     3 # energy    2.55797870 # occ.  2.00000000
 
ion      s     py     pz     px    dxy    dyz    dz2    dxz  x2-y2    tot
    1  0.001  0.054  0.073  0.073  0.000  0.000  0.000  0.000  0.000  0.201
    2  0.000  0.048  0.085  0.085  0.000  0.000  0.000  0.000  0.000  0.219
tot    0.001  0.102  0.158  0.158  0.000  0.000  0.000  0.000  0.000  0.420
 
band     4 # energy    5.31251237 # occ.  2.00000000
 
ion      s     py     pz     px    dxy    dyz    dz2    dxz  x2-y2    tot
    1  0.000  0.000  0.106  0.106  0.000  0.000  0.000  0.000  0.000  0.211
    2  0.000  0.000  0.166  0.166  0.000  0.000  0.000  0.000  0.000  0.332
tot    0.000  0.000  0.271  0.271  0.000  0.000  0.000  0.000  0.000  0.543
 
band     5 # energy   10.93156375 # occ.  0.00000000
 
ion      s     py     pz     px    dxy    dyz    dz2    dxz  x2-y2    tot
    1  0.057  0.066  0.000  0.000  0.000  0.000  0.000  0.000  0.000  0.123
    2  0.056  0.010  0.021  0.021  0.000  0.000  0.000  0.000  0.000  0.107
tot    0.112  0.076  0.021  0.021  0.000  0.000  0.000  0.000  0.000  0.230
 
band     6 # energy   15.34717845 # occ.  0.00000000
 
ion      s     py     pz     px    dxy    dyz    dz2    dxz  x2-y2    tot
    1  0.144  0.001  0.018  0.018  0.000  0.000  0.000  0.000  0.000  0.180
    2  0.000  0.023  0.081  0.081  0.000  0.000  0.000  0.000  0.000  0.186
tot    0.144  0.024  0.099  0.099  0.000  0.000  0.000  0.000  0.000  0.365
 
band     7 # energy   19.83102793 # occ.  0.00000000
 
ion      s     py     pz     px    dxy    dyz    dz2    dxz  x2-y2    tot
    1  0.000  0.000  0.102  0.102  0.000  0.000  0.000  0.000  0.000  0.203
    2  0.000  0.000  0.110  0.110  0.000  0.000  0.000  0.000  0.000  0.220
tot    0.000  0.000  0.212  0.212  0.000  0.000  0.000  0.000  0.000  0.424
 
band     8 # energy   20.37687934 # occ.  0.00000000
 
ion      s     py     pz     px    dxy    dyz    dz2    dxz  x2-y2    tot
    1  0.028  0.078  0.041  0.041  0.000  0.000  0.000  0.000  0.000  0.188
    2  0.055  0.190  0.027  0.027  0.000  0.000  0.000  0.000  0.000  0.300
tot    0.083  0.268  0.068  0.068  0.000  0.000  0.000  0.000  0.000  0.487
 

 k-point   160 :   -0.62500000-0.25000000-0.62500000     weight = 0.00416667

band     1 # energy   -2.40272383 # occ.  2.00000000
 
ion      s     py     pz     px    dxy    dyz    dz2    dxz  x2-y2    tot
    1  0.025  0.082  0.015  0.015  0.000  0.000  0.000  0.000  0.000  0.136
    2  0.434  0.001  0.001  0.001  0.000  0.000  0.000  0.000  0.000  0.436
tot    0.459  0.083  0.015  0.015  0.000  0.000  0.000  0.000  0.000  0.571
 
band     2 # energy    0.70525502 # occ.  2.00000000
 
ion      s     py     pz     px    dxy    dyz    dz2    dxz  x2-y2    tot
    1  0.359  0.015  0.001  0.001  0.000  0.000  0.000  0.000  0.000  0.376
    2  0.008  0.142  0.019  0.019  0.000  0.000  0.000  0.000  0.000  0.188
tot    0.367  0.157  0.020  0.020  0.000  0.000  0.000  0.000  0.000  0.563
 
band     3 # energy    2.47334242 # occ.  2.00000000
 
ion      s     py     pz     px    dxy    dyz    dz2    dxz  x2-y2    tot
    1  0.000  0.056  0.071  0.071  0.000  0.000  0.000  0.000  0.000  0.198
    2  0.000  0.058  0.080  0.080  0.000  0.000  0.000  0.000  0.000  0.218
tot    0.000  0.114  0.151  0.151  0.000  0.000  0.000  0.000  0.000  0.417
 
band     4 # energy    5.37004544 # occ.  2.00000000
 
ion      s     py     pz     px    dxy    dyz    dz2    dxz  x2-y2    tot
    1  0.000  0.000  0.105  0.105  0.000  0.000  0.000  0.000  0.000  0.210
    2  0.000  0.000  0.167  0.167  0.000  0.000  0.000  0.000  0.000  0.334
tot    0.000  0.000  0.272  0.272  0.000  0.000  0.000  0.000  0.000  0.543
 
band     5 # energy   11.03669181 # occ.  0.00000000
 
ion      s     py     pz     px    dxy    dyz    dz2    dxz  x2-y2    tot
    1  0.060  0.065  0.000  0.000  0.000  0.000  0.000  0.000  0.000  0.125
    2  0.054  0.011  0.021  0.021  0.000  0.000  0.000  0.000  0.000  0.106
tot    0.114  0.076  0.021  0.021  0.000  0.000  0.000  0.000  0.000  0.232
 
band     6 # energy   15.62312209 # occ.  0.00000000
 
ion      s     py     pz     px    dxy    dyz    dz2    dxz  x2-y2    tot
    1  0.138  0.000  0.016  0.016  0.000  0.000  0.000  0.000  0.000  0.171
    2  0.000  0.022  0.090  0.090  0.000  0.000  0.000  0.000  0.000  0.202
tot    0.138  0.023  0.106  0.106  0.000  0.000  0.000  0.000  0.000  0.372
 
band     7 # energy   19.66270548 # occ.  0.00000000
 
ion      s     py     pz     px    dxy    dyz    dz2    dxz  x2-y2    tot
    1  0.000  0.000  0.102  0.102  0.000  0.000  0.000  0.000  0.000  0.204
    2  0.000  0.000  0.107  0.107  0.000  0.000  0.000  0.000  0.000  0.214
tot    0.000  0.000  0.209  0.209  0.000  0.000  0.000  0.000  0.000  0.418
 
band     8 # energy   20.24178659 # occ.  0.00000000
 
ion      s     py     pz     px    dxy    dyz    dz2    dxz  x2-y2    tot
    1  0.037  0.080  0.034  0.034  0.000  0.000  0.000  0.000  0.000  0.185
    2  0.052  0.219  0.018  0.018  0.000  0.000  0.000  0.000  0.000  0.307
tot    0.089  0.298  0.052  0.052  0.000  0.000  0.000  0.000  0.000  0.492
 

 k-point   161 :   -0.37500000-0.37500000-0.75000000     weight = 0.00416667

band     1 # energy   -2.40272383 # occ.  2.00000000
 
ion      s     py     pz     px    dxy    dyz    dz2    dxz  x2-y2    tot
    1  0.025  0.015  0.082  0.015  0.000  0.000  0.000  0.000  0.000  0.136
    2  0.434  0.001  0.001  0.001  0.000  0.000  0.000  0.000  0.000  0.436
tot    0.459  0.015  0.083  0.015  0.000  0.000  0.000  0.000  0.000  0.571
 
band     2 # energy    0.70525502 # occ.  2.00000000
 
ion      s     py     pz     px    dxy    dyz    dz2    dxz  x2-y2    tot
    1  0.359  0.001  0.015  0.001  0.000  0.000  0.000  0.000  0.000  0.376
    2  0.008  0.019  0.142  0.019  0.000  0.000  0.000  0.000  0.000  0.188
tot    0.367  0.020  0.157  0.020  0.000  0.000  0.000  0.000  0.000  0.563
 
band     3 # energy    2.47334242 # occ.  2.00000000
 
ion      s     py     pz     px    dxy    dyz    dz2    dxz  x2-y2    tot
    1  0.000  0.071  0.056  0.071  0.000  0.000  0.000  0.000  0.000  0.198
    2  0.000  0.080  0.058  0.080  0.000  0.000  0.000  0.000  0.000  0.218
tot    0.000  0.151  0.114  0.151  0.000  0.000  0.000  0.000  0.000  0.417
 
band     4 # energy    5.37004544 # occ.  2.00000000
 
ion      s     py     pz     px    dxy    dyz    dz2    dxz  x2-y2    tot
    1  0.000  0.105  0.000  0.105  0.000  0.000  0.000  0.000  0.000  0.210
    2  0.000  0.167  0.000  0.167  0.000  0.000  0.000  0.000  0.000  0.334
tot    0.000  0.272  0.000  0.272  0.000  0.000  0.000  0.000  0.000  0.543
 
band     5 # energy   11.03669181 # occ.  0.00000000
 
ion      s     py     pz     px    dxy    dyz    dz2    dxz  x2-y2    tot
    1  0.060  0.000  0.065  0.000  0.000  0.000  0.000  0.000  0.000  0.125
    2  0.054  0.021  0.011  0.021  0.000  0.000  0.000  0.000  0.000  0.106
tot    0.114  0.021  0.076  0.021  0.000  0.000  0.000  0.000  0.000  0.232
 
band     6 # energy   15.62312209 # occ.  0.00000000
 
ion      s     py     pz     px    dxy    dyz    dz2    dxz  x2-y2    tot
    1  0.138  0.016  0.000  0.016  0.000  0.000  0.000  0.000  0.000  0.171
    2  0.000  0.090  0.022  0.090  0.000  0.000  0.000  0.000  0.000  0.202
tot    0.138  0.106  0.023  0.106  0.000  0.000  0.000  0.000  0.000  0.372
 
band     7 # energy   19.66270449 # occ.  0.00000000
 
ion      s     py     pz     px    dxy    dyz    dz2    dxz  x2-y2    tot
    1  0.000  0.102  0.000  0.102  0.000  0.000  0.000  0.000  0.000  0.204
    2  0.000  0.107  0.000  0.107  0.000  0.000  0.000  0.000  0.000  0.214
tot    0.000  0.209  0.000  0.209  0.000  0.000  0.000  0.000  0.000  0.418
 
band     8 # energy   20.24169618 # occ.  0.00000000
 
ion      s     py     pz     px    dxy    dyz    dz2    dxz  x2-y2    tot
    1  0.037  0.034  0.080  0.034  0.000  0.000  0.000  0.000  0.000  0.186
    2  0.052  0.018  0.218  0.018  0.000  0.000  0.000  0.000  0.000  0.307
tot    0.089  0.052  0.298  0.052  0.000  0.000  0.000  0.000  0.000  0.492
 

 k-point   162 :   -0.35526316-0.35526316-0.71052632     weight = 0.00416667

band     1 # energy   -2.53433425 # occ.  2.00000000
 
ion      s     py     pz     px    dxy    dyz    dz2    dxz  x2-y2    tot
    1  0.044  0.019  0.063  0.019  0.000  0.000  0.000  0.000  0.000  0.146
    2  0.420  0.002  0.001  0.002  0.000  0.000  0.000  0.000  0.000  0.425
tot    0.465  0.021  0.064  0.021  0.000  0.000  0.000  0.000  0.000  0.570
 
band     2 # energy    0.81319467 # occ.  2.00000000
 
ion      s     py     pz     px    dxy    dyz    dz2    dxz  x2-y2    tot
    1  0.335  0.000  0.033  0.000  0.000  0.000  0.000  0.000  0.000  0.368
    2  0.019  0.033  0.110  0.033  0.000  0.000  0.000  0.000  0.000  0.194
tot    0.354  0.033  0.143  0.033  0.000  0.000  0.000  0.000  0.000  0.562
 
band     3 # energy    2.33395462 # occ.  2.00000000
 
ion      s     py     pz     px    dxy    dyz    dz2    dxz  x2-y2    tot
    1  0.006  0.066  0.058  0.066  0.000  0.000  0.000  0.000  0.000  0.195
    2  0.002  0.062  0.093  0.062  0.000  0.000  0.000  0.000  0.000  0.219
tot    0.007  0.128  0.151  0.128  0.000  0.000  0.000  0.000  0.000  0.414
 
band     4 # energy    5.55709495 # occ.  2.00000000
 
ion      s     py     pz     px    dxy    dyz    dz2    dxz  x2-y2    tot
    1  0.000  0.102  0.000  0.102  0.000  0.000  0.000  0.000  0.000  0.205
    2  0.000  0.170  0.000  0.170  0.000  0.000  0.000  0.000  0.000  0.341
tot    0.000  0.273  0.000  0.273  0.000  0.000  0.000  0.000  0.000  0.545
 
band     5 # energy   11.36149822 # occ.  0.00000000
 
ion      s     py     pz     px    dxy    dyz    dz2    dxz  x2-y2    tot
    1  0.068  0.001  0.063  0.001  0.000  0.000  0.000  0.000  0.000  0.133
    2  0.049  0.020  0.014  0.020  0.000  0.000  0.000  0.000  0.000  0.104
tot    0.117  0.022  0.077  0.022  0.000  0.000  0.000  0.000  0.000  0.237
 
band     6 # energy   16.39230237 # occ.  0.00000000
 
ion      s     py     pz     px    dxy    dyz    dz2    dxz  x2-y2    tot
    1  0.121  0.009  0.001  0.009  0.000  0.000  0.000  0.000  0.000  0.140
    2  0.004  0.117  0.019  0.117  0.000  0.000  0.000  0.000  0.000  0.257
tot    0.125  0.126  0.019  0.126  0.000  0.000  0.000  0.000  0.000  0.398
 
band     7 # energy   19.15735640 # occ.  0.00000000
 
ion      s     py     pz     px    dxy    dyz    dz2    dxz  x2-y2    tot
    1  0.000  0.104  0.000  0.104  0.000  0.000  0.000  0.000  0.000  0.208
    2  0.000  0.097  0.000  0.097  0.000  0.000  0.000  0.000  0.000  0.195
tot    0.000  0.202  0.000  0.202  0.000  0.000  0.000  0.000  0.000  0.403
 
band     8 # energy   19.81785760 # occ.  0.00000000
 
ion      s     py     pz     px    dxy    dyz    dz2    dxz  x2-y2    tot
    1  0.072  0.015  0.074  0.015  0.000  0.000  0.000  0.000  0.000  0.176
    2  0.033  0.001  0.304  0.001  0.000  0.000  0.000  0.000  0.000  0.339
tot    0.104  0.016  0.378  0.016  0.000  0.000  0.000  0.000  0.000  0.515
 

 k-point   163 :   -0.33552632-0.33552632-0.67105263     weight = 0.00416667

band     1 # energy   -2.75182054 # occ.  2.00000000
 
ion      s     py     pz     px    dxy    dyz    dz2    dxz  x2-y2    tot
    1  0.069  0.024  0.044  0.024  0.000  0.000  0.000  0.000  0.000  0.160
    2  0.398  0.003  0.001  0.003  0.000  0.000  0.000  0.000  0.000  0.406
tot    0.467  0.027  0.045  0.027  0.000  0.000  0.000  0.000  0.000  0.566
 
band     2 # energy    0.92573712 # occ.  2.00000000
 
ion      s     py     pz     px    dxy    dyz    dz2    dxz  x2-y2    tot
    1  0.290  0.000  0.055  0.000  0.000  0.000  0.000  0.000  0.000  0.345
    2  0.037  0.046  0.077  0.046  0.000  0.000  0.000  0.000  0.000  0.207
tot    0.327  0.046  0.133  0.046  0.000  0.000  0.000  0.000  0.000  0.553
 
band     3 # energy    2.36614091 # occ.  2.00000000
 
ion      s     py     pz     px    dxy    dyz    dz2    dxz  x2-y2    tot
    1  0.025  0.062  0.053  0.062  0.000  0.000  0.000  0.000  0.000  0.201
    2  0.003  0.044  0.132  0.044  0.000  0.000  0.000  0.000  0.000  0.223
tot    0.028  0.106  0.184  0.106  0.000  0.000  0.000  0.000  0.000  0.424
 
band     4 # energy    5.76324093 # occ.  2.00000000
 
ion      s     py     pz     px    dxy    dyz    dz2    dxz  x2-y2    tot
    1  0.000  0.100  0.000  0.100  0.000  0.000  0.000  0.000  0.000  0.199
    2  0.000  0.174  0.000  0.174  0.000  0.000  0.000  0.000  0.000  0.349
tot    0.000  0.274  0.000  0.274  0.000  0.000  0.000  0.000  0.000  0.548
 
band     5 # energy   11.70482330 # occ.  0.00000000
 
ion      s     py     pz     px    dxy    dyz    dz2    dxz  x2-y2    tot
    1  0.074  0.003  0.062  0.003  0.000  0.000  0.000  0.000  0.000  0.141
    2  0.045  0.020  0.016  0.020  0.000  0.000  0.000  0.000  0.000  0.102
tot    0.119  0.023  0.078  0.023  0.000  0.000  0.000  0.000  0.000  0.243
 
band     6 # energy   16.96210367 # occ.  0.00000000
 
ion      s     py     pz     px    dxy    dyz    dz2    dxz  x2-y2    tot
    1  0.102  0.002  0.008  0.002  0.000  0.000  0.000  0.000  0.000  0.113
    2  0.022  0.140  0.012  0.140  0.000  0.000  0.000  0.000  0.000  0.314
tot    0.123  0.142  0.020  0.142  0.000  0.000  0.000  0.000  0.000  0.427
 
band     7 # energy   18.66272293 # occ.  0.00000000
 
ion      s     py     pz     px    dxy    dyz    dz2    dxz  x2-y2    tot
    1  0.000  0.108  0.000  0.108  0.000  0.000  0.000  0.000  0.000  0.215
    2  0.000  0.088  0.000  0.088  0.000  0.000  0.000  0.000  0.000  0.176
tot    0.000  0.196  0.000  0.196  0.000  0.000  0.000  0.000  0.000  0.392
 
band     8 # energy   19.38120155 # occ.  0.00000000
 
ion      s     py     pz     px    dxy    dyz    dz2    dxz  x2-y2    tot
    1  0.105  0.005  0.062  0.005  0.000  0.000  0.000  0.000  0.000  0.177
    2  0.015  0.002  0.340  0.002  0.000  0.000  0.000  0.000  0.000  0.360
tot    0.120  0.007  0.402  0.007  0.000  0.000  0.000  0.000  0.000  0.537
 

 k-point   164 :   -0.31578947-0.31578947-0.63157895     weight = 0.00416667

band     1 # energy   -3.05090115 # occ.  2.00000000
 
ion      s     py     pz     px    dxy    dyz    dz2    dxz  x2-y2    tot
    1  0.095  0.026  0.029  0.026  0.000  0.000  0.000  0.000  0.000  0.176
    2  0.371  0.005  0.001  0.005  0.000  0.000  0.000  0.000  0.000  0.383
tot    0.466  0.031  0.030  0.031  0.000  0.000  0.000  0.000  0.000  0.559
 
band     2 # energy    1.07576916 # occ.  2.00000000
 
ion      s     py     pz     px    dxy    dyz    dz2    dxz  x2-y2    tot
    1  0.238  0.000  0.076  0.000  0.000  0.000  0.000  0.000  0.000  0.315
    2  0.061  0.057  0.052  0.057  0.000  0.000  0.000  0.000  0.000  0.227
tot    0.299  0.057  0.128  0.057  0.000  0.000  0.000  0.000  0.000  0.542
 
band     3 # energy    2.53661439 # occ.  2.00000000
 
ion      s     py     pz     px    dxy    dyz    dz2    dxz  x2-y2    tot
    1  0.048  0.060  0.045  0.060  0.000  0.000  0.000  0.000  0.000  0.212
    2  0.003  0.031  0.163  0.031  0.000  0.000  0.000  0.000  0.000  0.228
tot    0.051  0.090  0.208  0.090  0.000  0.000  0.000  0.000  0.000  0.440
 
band     4 # energy    5.98455095 # occ.  2.00000000
 
ion      s     py     pz     px    dxy    dyz    dz2    dxz  x2-y2    tot
    1  0.000  0.096  0.000  0.096  0.000  0.000  0.000  0.000  0.000  0.192
    2  0.000  0.179  0.000  0.179  0.000  0.000  0.000  0.000  0.000  0.358
tot    0.000  0.275  0.000  0.275  0.000  0.000  0.000  0.000  0.000  0.550
 
band     5 # energy   12.06954662 # occ.  0.00000000
 
ion      s     py     pz     px    dxy    dyz    dz2    dxz  x2-y2    tot
    1  0.078  0.005  0.061  0.005  0.000  0.000  0.000  0.000  0.000  0.149
    2  0.041  0.021  0.019  0.021  0.000  0.000  0.000  0.000  0.000  0.101
tot    0.119  0.026  0.081  0.026  0.000  0.000  0.000  0.000  0.000  0.251
 
band     6 # energy   17.21314572 # occ.  0.00000000
 
ion      s     py     pz     px    dxy    dyz    dz2    dxz  x2-y2    tot
    1  0.075  0.000  0.031  0.000  0.000  0.000  0.000  0.000  0.000  0.107
    2  0.056  0.142  0.003  0.142  0.000  0.000  0.000  0.000  0.000  0.342
tot    0.130  0.142  0.034  0.142  0.000  0.000  0.000  0.000  0.000  0.449
 
band     7 # energy   18.19076503 # occ.  0.00000000
 
ion      s     py     pz     px    dxy    dyz    dz2    dxz  x2-y2    tot
    1  0.000  0.113  0.000  0.113  0.000  0.000  0.000  0.000  0.000  0.225
    2  0.000  0.079  0.000  0.079  0.000  0.000  0.000  0.000  0.000  0.158
tot    0.000  0.192  0.000  0.192  0.000  0.000  0.000  0.000  0.000  0.384
 
band     8 # energy   18.94874218 # occ.  0.00000000
 
ion      s     py     pz     px    dxy    dyz    dz2    dxz  x2-y2    tot
    1  0.130  0.002  0.049  0.002  0.000  0.000  0.000  0.000  0.000  0.182
    2  0.004  0.012  0.340  0.012  0.000  0.000  0.000  0.000  0.000  0.369
tot    0.134  0.014  0.389  0.014  0.000  0.000  0.000  0.000  0.000  0.551
 

 k-point   165 :   -0.29605263-0.29605263-0.59210526     weight = 0.00416667

band     1 # energy   -3.41175342 # occ.  2.00000000
 
ion      s     py     pz     px    dxy    dyz    dz2    dxz  x2-y2    tot
    1  0.119  0.027  0.018  0.027  0.000  0.000  0.000  0.000  0.000  0.191
    2  0.345  0.007  0.001  0.007  0.000  0.000  0.000  0.000  0.000  0.360
tot    0.464  0.034  0.019  0.034  0.000  0.000  0.000  0.000  0.000  0.551
 
band     2 # energy    1.28747550 # occ.  2.00000000
 
ion      s     py     pz     px    dxy    dyz    dz2    dxz  x2-y2    tot
    1  0.194  0.000  0.091  0.000  0.000  0.000  0.000  0.000  0.000  0.286
    2  0.083  0.064  0.036  0.064  0.000  0.000  0.000  0.000  0.000  0.248
tot    0.277  0.065  0.127  0.065  0.000  0.000  0.000  0.000  0.000  0.534
 
band     3 # energy    2.80291054 # occ.  2.00000000
 
ion      s     py     pz     px    dxy    dyz    dz2    dxz  x2-y2    tot
    1  0.064  0.059  0.039  0.059  0.000  0.000  0.000  0.000  0.000  0.221
    2  0.003  0.022  0.186  0.022  0.000  0.000  0.000  0.000  0.000  0.233
tot    0.067  0.081  0.225  0.081  0.000  0.000  0.000  0.000  0.000  0.455
 
band     4 # energy    6.21628633 # occ.  2.00000000
 
ion      s     py     pz     px    dxy    dyz    dz2    dxz  x2-y2    tot
    1  0.000  0.092  0.000  0.092  0.000  0.000  0.000  0.000  0.000  0.185
    2  0.000  0.184  0.000  0.184  0.000  0.000  0.000  0.000  0.000  0.368
tot    0.000  0.277  0.000  0.277  0.000  0.000  0.000  0.000  0.000  0.553
 
band     5 # energy   12.45566850 # occ.  0.00000000
 
ion      s     py     pz     px    dxy    dyz    dz2    dxz  x2-y2    tot
    1  0.081  0.008  0.061  0.008  0.000  0.000  0.000  0.000  0.000  0.158
    2  0.037  0.021  0.023  0.021  0.000  0.000  0.000  0.000  0.000  0.102
tot    0.118  0.029  0.084  0.029  0.000  0.000  0.000  0.000  0.000  0.260
 
band     6 # energy   17.17307839 # occ.  0.00000000
 
ion      s     py     pz     px    dxy    dyz    dz2    dxz  x2-y2    tot
    1  0.049  0.005  0.062  0.005  0.000  0.000  0.000  0.000  0.000  0.120
    2  0.092  0.122  0.000  0.122  0.000  0.000  0.000  0.000  0.000  0.336
tot    0.140  0.127  0.062  0.127  0.000  0.000  0.000  0.000  0.000  0.456
 
band     7 # energy   17.75092142 # occ.  0.00000000
 
ion      s     py     pz     px    dxy    dyz    dz2    dxz  x2-y2    tot
    1  0.000  0.120  0.000  0.120  0.000  0.000  0.000  0.000  0.000  0.239
    2  0.000  0.070  0.000  0.070  0.000  0.000  0.000  0.000  0.000  0.140
tot    0.000  0.190  0.000  0.190  0.000  0.000  0.000  0.000  0.000  0.379
 
band     8 # energy   18.53197766 # occ.  0.00000000
 
ion      s     py     pz     px    dxy    dyz    dz2    dxz  x2-y2    tot
    1  0.149  0.000  0.038  0.000  0.000  0.000  0.000  0.000  0.000  0.187
    2  0.000  0.025  0.320  0.025  0.000  0.000  0.000  0.000  0.000  0.369
tot    0.149  0.025  0.357  0.025  0.000  0.000  0.000  0.000  0.000  0.556
 

 k-point   166 :   -0.27631579-0.27631579-0.55263158     weight = 0.00416667

band     1 # energy   -3.80971759 # occ.  2.00000000
 
ion      s     py     pz     px    dxy    dyz    dz2    dxz  x2-y2    tot
    1  0.139  0.026  0.011  0.026  0.000  0.000  0.000  0.000  0.000  0.203
    2  0.323  0.008  0.001  0.008  0.000  0.000  0.000  0.000  0.000  0.339
tot    0.462  0.034  0.012  0.034  0.000  0.000  0.000  0.000  0.000  0.543
 
band     2 # energy    1.56629530 # occ.  2.00000000
 
ion      s     py     pz     px    dxy    dyz    dz2    dxz  x2-y2    tot
    1  0.159  0.001  0.099  0.001  0.000  0.000  0.000  0.000  0.000  0.260
    2  0.102  0.070  0.026  0.070  0.000  0.000  0.000  0.000  0.000  0.268
tot    0.260  0.071  0.125  0.071  0.000  0.000  0.000  0.000  0.000  0.528
 
band     3 # energy    3.13450928 # occ.  2.00000000
 
ion      s     py     pz     px    dxy    dyz    dz2    dxz  x2-y2    tot
    1  0.072  0.060  0.035  0.060  0.000  0.000  0.000  0.000  0.000  0.227
    2  0.002  0.017  0.205  0.017  0.000  0.000  0.000  0.000  0.000  0.240
tot    0.075  0.077  0.240  0.077  0.000  0.000  0.000  0.000  0.000  0.468
 
band     4 # energy    6.45290107 # occ.  2.00000000
 
ion      s     py     pz     px    dxy    dyz    dz2    dxz  x2-y2    tot
    1  0.000  0.088  0.000  0.088  0.000  0.000  0.000  0.000  0.000  0.176
    2  0.000  0.190  0.000  0.190  0.000  0.000  0.000  0.000  0.000  0.380
tot    0.000  0.278  0.000  0.278  0.000  0.000  0.000  0.000  0.000  0.556
 
band     5 # energy   12.86045893 # occ.  0.00000000
 
ion      s     py     pz     px    dxy    dyz    dz2    dxz  x2-y2    tot
    1  0.084  0.011  0.062  0.011  0.000  0.000  0.000  0.000  0.000  0.169
    2  0.033  0.021  0.028  0.021  0.000  0.000  0.000  0.000  0.000  0.103
tot    0.118  0.032  0.090  0.032  0.000  0.000  0.000  0.000  0.000  0.272
 
band     6 # energy   16.96488103 # occ.  0.00000000
 
ion      s     py     pz     px    dxy    dyz    dz2    dxz  x2-y2    tot
    1  0.030  0.009  0.091  0.009  0.000  0.000  0.000  0.000  0.000  0.140
    2  0.119  0.097  0.004  0.097  0.000  0.000  0.000  0.000  0.000  0.317
tot    0.149  0.106  0.095  0.106  0.000  0.000  0.000  0.000  0.000  0.457
 
band     7 # energy   17.35022598 # occ.  0.00000000
 
ion      s     py     pz     px    dxy    dyz    dz2    dxz  x2-y2    tot
    1  0.000  0.128  0.000  0.128  0.000  0.000  0.000  0.000  0.000  0.257
    2  0.000  0.061  0.000  0.061  0.000  0.000  0.000  0.000  0.000  0.122
tot    0.000  0.190  0.000  0.190  0.000  0.000  0.000  0.000  0.000  0.379
 
band     8 # energy   18.13852650 # occ.  0.00000000
 
ion      s     py     pz     px    dxy    dyz    dz2    dxz  x2-y2    tot
    1  0.159  0.000  0.030  0.000  0.000  0.000  0.000  0.000  0.000  0.189
    2  0.001  0.037  0.289  0.037  0.000  0.000  0.000  0.000  0.000  0.364
tot    0.161  0.037  0.319  0.037  0.000  0.000  0.000  0.000  0.000  0.554
 

 k-point   167 :   -0.25657895-0.25657895-0.51315789     weight = 0.00416667

band     1 # energy   -4.22296330 # occ.  2.00000000
 
ion      s     py     pz     px    dxy    dyz    dz2    dxz  x2-y2    tot
    1  0.156  0.025  0.007  0.025  0.000  0.000  0.000  0.000  0.000  0.213
    2  0.306  0.008  0.000  0.008  0.000  0.000  0.000  0.000  0.000  0.322
tot    0.462  0.033  0.007  0.033  0.000  0.000  0.000  0.000  0.000  0.535
 
band     2 # energy    1.90737878 # occ.  2.00000000
 
ion      s     py     pz     px    dxy    dyz    dz2    dxz  x2-y2    tot
    1  0.132  0.002  0.103  0.002  0.000  0.000  0.000  0.000  0.000  0.239
    2  0.114  0.076  0.020  0.076  0.000  0.000  0.000  0.000  0.000  0.286
tot    0.246  0.078  0.123  0.078  0.000  0.000  0.000  0.000  0.000  0.525
 
band     3 # energy    3.51260037 # occ.  2.00000000
 
ion      s     py     pz     px    dxy    dyz    dz2    dxz  x2-y2    tot
    1  0.074  0.062  0.032  0.062  0.000  0.000  0.000  0.000  0.000  0.230
    2  0.002  0.013  0.221  0.013  0.000  0.000  0.000  0.000  0.000  0.249
tot    0.076  0.075  0.254  0.075  0.000  0.000  0.000  0.000  0.000  0.479
 
band     4 # energy    6.68814178 # occ.  2.00000000
 
ion      s     py     pz     px    dxy    dyz    dz2    dxz  x2-y2    tot
    1  0.000  0.083  0.000  0.083  0.000  0.000  0.000  0.000  0.000  0.166
    2  0.000  0.196  0.000  0.196  0.000  0.000  0.000  0.000  0.000  0.393
tot    0.000  0.279  0.000  0.279  0.000  0.000  0.000  0.000  0.000  0.559
 
band     5 # energy   13.27817265 # occ.  0.00000000
 
ion      s     py     pz     px    dxy    dyz    dz2    dxz  x2-y2    tot
    1  0.088  0.016  0.062  0.016  0.000  0.000  0.000  0.000  0.000  0.182
    2  0.030  0.021  0.034  0.021  0.000  0.000  0.000  0.000  0.000  0.106
tot    0.118  0.037  0.096  0.037  0.000  0.000  0.000  0.000  0.000  0.287
 
band     6 # energy   16.68260195 # occ.  0.00000000
 
ion      s     py     pz     px    dxy    dyz    dz2    dxz  x2-y2    tot
    1  0.019  0.013  0.116  0.013  0.000  0.000  0.000  0.000  0.000  0.160
    2  0.138  0.075  0.010  0.075  0.000  0.000  0.000  0.000  0.000  0.299
tot    0.157  0.088  0.126  0.088  0.000  0.000  0.000  0.000  0.000  0.459
 
band     7 # energy   16.99369603 # occ.  0.00000000
 
ion      s     py     pz     px    dxy    dyz    dz2    dxz  x2-y2    tot
    1  0.000  0.140  0.000  0.140  0.000  0.000  0.000  0.000  0.000  0.279
    2  0.000  0.053  0.000  0.053  0.000  0.000  0.000  0.000  0.000  0.105
tot    0.000  0.192  0.000  0.192  0.000  0.000  0.000  0.000  0.000  0.384
 
band     8 # energy   17.77513184 # occ.  0.00000000
 
ion      s     py     pz     px    dxy    dyz    dz2    dxz  x2-y2    tot
    1  0.163  0.000  0.025  0.000  0.000  0.000  0.000  0.000  0.000  0.189
    2  0.006  0.047  0.254  0.047  0.000  0.000  0.000  0.000  0.000  0.355
tot    0.169  0.047  0.280  0.047  0.000  0.000  0.000  0.000  0.000  0.544
 

 k-point   168 :   -0.23684211-0.23684211-0.47368421     weight = 0.00416667

band     1 # energy   -4.63515100 # occ.  2.00000000
 
ion      s     py     pz     px    dxy    dyz    dz2    dxz  x2-y2    tot
    1  0.171  0.023  0.004  0.023  0.000  0.000  0.000  0.000  0.000  0.220
    2  0.292  0.008  0.000  0.008  0.000  0.000  0.000  0.000  0.000  0.308
tot    0.463  0.030  0.005  0.030  0.000  0.000  0.000  0.000  0.000  0.528
 
band     2 # energy    2.30317164 # occ.  2.00000000
 
ion      s     py     pz     px    dxy    dyz    dz2    dxz  x2-y2    tot
    1  0.111  0.003  0.103  0.003  0.000  0.000  0.000  0.000  0.000  0.221
    2  0.122  0.082  0.015  0.082  0.000  0.000  0.000  0.000  0.000  0.302
tot    0.233  0.086  0.119  0.086  0.000  0.000  0.000  0.000  0.000  0.523
 
band     3 # energy    3.92479527 # occ.  2.00000000
 
ion      s     py     pz     px    dxy    dyz    dz2    dxz  x2-y2    tot
    1  0.070  0.063  0.031  0.063  0.000  0.000  0.000  0.000  0.000  0.228
    2  0.002  0.010  0.237  0.010  0.000  0.000  0.000  0.000  0.000  0.259
tot    0.072  0.074  0.268  0.074  0.000  0.000  0.000  0.000  0.000  0.488
 
band     4 # energy    6.91524872 # occ.  2.00000000
 
ion      s     py     pz     px    dxy    dyz    dz2    dxz  x2-y2    tot
    1  0.000  0.078  0.000  0.078  0.000  0.000  0.000  0.000  0.000  0.156
    2  0.000  0.203  0.000  0.203  0.000  0.000  0.000  0.000  0.000  0.406
tot    0.000  0.281  0.000  0.281  0.000  0.000  0.000  0.000  0.000  0.561
 
band     5 # energy   13.69876197 # occ.  0.00000000
 
ion      s     py     pz     px    dxy    dyz    dz2    dxz  x2-y2    tot
    1  0.094  0.021  0.062  0.021  0.000  0.000  0.000  0.000  0.000  0.198
    2  0.026  0.020  0.044  0.020  0.000  0.000  0.000  0.000  0.000  0.110
tot    0.120  0.041  0.105  0.041  0.000  0.000  0.000  0.000  0.000  0.308
 
band     6 # energy   16.37648021 # occ.  0.00000000
 
ion      s     py     pz     px    dxy    dyz    dz2    dxz  x2-y2    tot
    1  0.014  0.015  0.135  0.015  0.000  0.000  0.000  0.000  0.000  0.179
    2  0.153  0.058  0.015  0.058  0.000  0.000  0.000  0.000  0.000  0.284
tot    0.167  0.073  0.150  0.073  0.000  0.000  0.000  0.000  0.000  0.463
 
band     7 # energy   16.68358489 # occ.  0.00000000
 
ion      s     py     pz     px    dxy    dyz    dz2    dxz  x2-y2    tot
    1  0.000  0.153  0.000  0.153  0.000  0.000  0.000  0.000  0.000  0.306
    2  0.000  0.044  0.000  0.044  0.000  0.000  0.000  0.000  0.000  0.088
tot    0.000  0.197  0.000  0.197  0.000  0.000  0.000  0.000  0.000  0.394
 
band     8 # energy   17.44904273 # occ.  0.00000000
 
ion      s     py     pz     px    dxy    dyz    dz2    dxz  x2-y2    tot
    1  0.161  0.000  0.025  0.000  0.000  0.000  0.000  0.000  0.000  0.186
    2  0.011  0.056  0.219  0.056  0.000  0.000  0.000  0.000  0.000  0.342
tot    0.172  0.056  0.243  0.056  0.000  0.000  0.000  0.000  0.000  0.528
 

 k-point   169 :   -0.21710526-0.21710526-0.43421053     weight = 0.00416667

band     1 # energy   -5.03466979 # occ.  2.00000000
 
ion      s     py     pz     px    dxy    dyz    dz2    dxz  x2-y2    tot
    1  0.184  0.020  0.003  0.020  0.000  0.000  0.000  0.000  0.000  0.226
    2  0.282  0.007  0.000  0.007  0.000  0.000  0.000  0.000  0.000  0.296
tot    0.465  0.027  0.003  0.027  0.000  0.000  0.000  0.000  0.000  0.522
 
band     2 # energy    2.74650988 # occ.  2.00000000
 
ion      s     py     pz     px    dxy    dyz    dz2    dxz  x2-y2    tot
    1  0.095  0.005  0.101  0.005  0.000  0.000  0.000  0.000  0.000  0.206
    2  0.125  0.089  0.012  0.089  0.000  0.000  0.000  0.000  0.000  0.316
tot    0.220  0.094  0.113  0.094  0.000  0.000  0.000  0.000  0.000  0.522
 
band     3 # energy    4.36158254 # occ.  2.00000000
 
ion      s     py     pz     px    dxy    dyz    dz2    dxz  x2-y2    tot
    1  0.064  0.064  0.031  0.064  0.000  0.000  0.000  0.000  0.000  0.224
    2  0.001  0.009  0.253  0.009  0.000  0.000  0.000  0.000  0.000  0.272
tot    0.065  0.073  0.284  0.073  0.000  0.000  0.000  0.000  0.000  0.495
 
band     4 # energy    7.12741574 # occ.  2.00000000
 
ion      s     py     pz     px    dxy    dyz    dz2    dxz  x2-y2    tot
    1  0.000  0.072  0.000  0.072  0.000  0.000  0.000  0.000  0.000  0.144
    2  0.000  0.209  0.000  0.209  0.000  0.000  0.000  0.000  0.000  0.419
tot    0.000  0.281  0.000  0.281  0.000  0.000  0.000  0.000  0.000  0.562
 
band     5 # energy   14.10579285 # occ.  0.00000000
 
ion      s     py     pz     px    dxy    dyz    dz2    dxz  x2-y2    tot
    1  0.102  0.028  0.060  0.028  0.000  0.000  0.000  0.000  0.000  0.219
    2  0.022  0.019  0.057  0.019  0.000  0.000  0.000  0.000  0.000  0.116
tot    0.124  0.047  0.117  0.047  0.000  0.000  0.000  0.000  0.000  0.335
 
band     6 # energy   16.07279958 # occ.  0.00000000
 
ion      s     py     pz     px    dxy    dyz    dz2    dxz  x2-y2    tot
    1  0.012  0.017  0.152  0.017  0.000  0.000  0.000  0.000  0.000  0.198
    2  0.167  0.045  0.016  0.045  0.000  0.000  0.000  0.000  0.000  0.274
tot    0.179  0.062  0.168  0.062  0.000  0.000  0.000  0.000  0.000  0.471
 
band     7 # energy   16.41904642 # occ.  0.00000000
 
ion      s     py     pz     px    dxy    dyz    dz2    dxz  x2-y2    tot
    1  0.000  0.168  0.000  0.168  0.000  0.000  0.000  0.000  0.000  0.337
    2  0.000  0.036  0.000  0.036  0.000  0.000  0.000  0.000  0.000  0.072
tot    0.000  0.204  0.000  0.204  0.000  0.000  0.000  0.000  0.000  0.409
 
band     8 # energy   17.17071465 # occ.  0.00000000
 
ion      s     py     pz     px    dxy    dyz    dz2    dxz  x2-y2    tot
    1  0.150  0.000  0.030  0.000  0.000  0.000  0.000  0.000  0.000  0.180
    2  0.016  0.065  0.181  0.065  0.000  0.000  0.000  0.000  0.000  0.326
tot    0.166  0.065  0.211  0.065  0.000  0.000  0.000  0.000  0.000  0.507
 

 k-point   170 :   -0.19736842-0.19736842-0.39473684     weight = 0.00416667

band     1 # energy   -5.41345620 # occ.  2.00000000
 
ion      s     py     pz     px    dxy    dyz    dz2    dxz  x2-y2    tot
    1  0.195  0.017  0.001  0.017  0.000  0.000  0.000  0.000  0.000  0.231
    2  0.274  0.006  0.000  0.006  0.000  0.000  0.000  0.000  0.000  0.286
tot    0.469  0.023  0.002  0.023  0.000  0.000  0.000  0.000  0.000  0.517
 
band     2 # energy    3.23094060 # occ.  2.00000000
 
ion      s     py     pz     px    dxy    dyz    dz2    dxz  x2-y2    tot
    1  0.082  0.007  0.097  0.007  0.000  0.000  0.000  0.000  0.000  0.192
    2  0.125  0.097  0.010  0.097  0.000  0.000  0.000  0.000  0.000  0.330
tot    0.206  0.104  0.107  0.104  0.000  0.000  0.000  0.000  0.000  0.521
 
band     3 # energy    4.81434635 # occ.  2.00000000
 
ion      s     py     pz     px    dxy    dyz    dz2    dxz  x2-y2    tot
    1  0.055  0.065  0.031  0.065  0.000  0.000  0.000  0.000  0.000  0.216
    2  0.001  0.007  0.271  0.007  0.000  0.000  0.000  0.000  0.000  0.286
tot    0.056  0.072  0.303  0.072  0.000  0.000  0.000  0.000  0.000  0.502
 
band     4 # energy    7.31842543 # occ.  2.00000000
 
ion      s     py     pz     px    dxy    dyz    dz2    dxz  x2-y2    tot
    1  0.000  0.066  0.000  0.066  0.000  0.000  0.000  0.000  0.000  0.132
    2  0.000  0.216  0.000  0.216  0.000  0.000  0.000  0.000  0.000  0.431
tot    0.000  0.281  0.000  0.281  0.000  0.000  0.000  0.000  0.000  0.563
 
band     5 # energy   14.47328052 # occ.  0.00000000
 
ion      s     py     pz     px    dxy    dyz    dz2    dxz  x2-y2    tot
    1  0.115  0.038  0.053  0.038  0.000  0.000  0.000  0.000  0.000  0.245
    2  0.018  0.015  0.077  0.015  0.000  0.000  0.000  0.000  0.000  0.125
tot    0.133  0.054  0.130  0.054  0.000  0.000  0.000  0.000  0.000  0.370
 
band     6 # energy   15.78588125 # occ.  0.00000000
 
ion      s     py     pz     px    dxy    dyz    dz2    dxz  x2-y2    tot
    1  0.013  0.018  0.165  0.018  0.000  0.000  0.000  0.000  0.000  0.215
    2  0.183  0.036  0.014  0.036  0.000  0.000  0.000  0.000  0.000  0.267
tot    0.196  0.054  0.179  0.054  0.000  0.000  0.000  0.000  0.000  0.483
 
band     7 # energy   16.19571797 # occ.  0.00000000
 
ion      s     py     pz     px    dxy    dyz    dz2    dxz  x2-y2    tot
    1  0.000  0.185  0.000  0.185  0.000  0.000  0.000  0.000  0.000  0.370
    2  0.000  0.029  0.000  0.029  0.000  0.000  0.000  0.000  0.000  0.057
tot    0.000  0.214  0.000  0.214  0.000  0.000  0.000  0.000  0.000  0.427
 
band     8 # energy   16.95428951 # occ.  0.00000000
 
ion      s     py     pz     px    dxy    dyz    dz2    dxz  x2-y2    tot
    1  0.131  0.000  0.042  0.000  0.000  0.000  0.000  0.000  0.000  0.174
    2  0.019  0.073  0.141  0.073  0.000  0.000  0.000  0.000  0.000  0.306
tot    0.150  0.074  0.183  0.074  0.000  0.000  0.000  0.000  0.000  0.480
 

 k-point   171 :   -0.17763158-0.17763158-0.35526316     weight = 0.00416667

band     1 # energy   -5.76588864 # occ.  2.00000000
 
ion      s     py     pz     px    dxy    dyz    dz2    dxz  x2-y2    tot
    1  0.205  0.014  0.001  0.014  0.000  0.000  0.000  0.000  0.000  0.234
    2  0.268  0.005  0.000  0.005  0.000  0.000  0.000  0.000  0.000  0.279
tot    0.472  0.020  0.001  0.020  0.000  0.000  0.000  0.000  0.000  0.513
 
band     2 # energy    3.75047922 # occ.  2.00000000
 
ion      s     py     pz     px    dxy    dyz    dz2    dxz  x2-y2    tot
    1  0.070  0.008  0.092  0.008  0.000  0.000  0.000  0.000  0.000  0.178
    2  0.121  0.106  0.008  0.106  0.000  0.000  0.000  0.000  0.000  0.343
tot    0.191  0.115  0.100  0.115  0.000  0.000  0.000  0.000  0.000  0.521
 
band     3 # energy    5.27428553 # occ.  2.00000000
 
ion      s     py     pz     px    dxy    dyz    dz2    dxz  x2-y2    tot
    1  0.045  0.063  0.033  0.063  0.000  0.000  0.000  0.000  0.000  0.205
    2  0.001  0.006  0.291  0.006  0.000  0.000  0.000  0.000  0.000  0.303
tot    0.046  0.069  0.323  0.069  0.000  0.000  0.000  0.000  0.000  0.508
 
band     4 # energy    7.48340618 # occ.  2.00000000
 
ion      s     py     pz     px    dxy    dyz    dz2    dxz  x2-y2    tot
    1  0.000  0.060  0.000  0.060  0.000  0.000  0.000  0.000  0.000  0.119
    2  0.000  0.221  0.000  0.221  0.000  0.000  0.000  0.000  0.000  0.442
tot    0.000  0.281  0.000  0.281  0.000  0.000  0.000  0.000  0.000  0.561
 
band     5 # energy   14.76506022 # occ.  0.00000000
 
ion      s     py     pz     px    dxy    dyz    dz2    dxz  x2-y2    tot
    1  0.129  0.053  0.038  0.053  0.000  0.000  0.000  0.000  0.000  0.274
    2  0.012  0.011  0.103  0.011  0.000  0.000  0.000  0.000  0.000  0.136
tot    0.141  0.064  0.142  0.064  0.000  0.000  0.000  0.000  0.000  0.410
 
band     6 # energy   15.52430842 # occ.  0.00000000
 
ion      s     py     pz     px    dxy    dyz    dz2    dxz  x2-y2    tot
    1  0.020  0.017  0.178  0.017  0.000  0.000  0.000  0.000  0.000  0.232
    2  0.202  0.029  0.008  0.029  0.000  0.000  0.000  0.000  0.000  0.267
tot    0.223  0.046  0.185  0.046  0.000  0.000  0.000  0.000  0.000  0.499
 
band     7 # energy   16.00623704 # occ.  0.00000000
 
ion      s     py     pz     px    dxy    dyz    dz2    dxz  x2-y2    tot
    1  0.000  0.201  0.000  0.201  0.000  0.000  0.000  0.000  0.000  0.403
    2  0.000  0.022  0.000  0.022  0.000  0.000  0.000  0.000  0.000  0.045
tot    0.000  0.224  0.000  0.224  0.000  0.000  0.000  0.000  0.000  0.447
 
band     8 # energy   16.81561927 # occ.  0.00000000
 
ion      s     py     pz     px    dxy    dyz    dz2    dxz  x2-y2    tot
    1  0.103  0.000  0.068  0.000  0.000  0.000  0.000  0.000  0.000  0.171
    2  0.019  0.083  0.096  0.083  0.000  0.000  0.000  0.000  0.000  0.282
tot    0.122  0.083  0.164  0.083  0.000  0.000  0.000  0.000  0.000  0.453
 

 k-point   172 :   -0.15789474-0.15789474-0.31578947     weight = 0.00416667

band     1 # energy   -6.08800375 # occ.  2.00000000
 
ion      s     py     pz     px    dxy    dyz    dz2    dxz  x2-y2    tot
    1  0.213  0.012  0.000  0.012  0.000  0.000  0.000  0.000  0.000  0.237
    2  0.263  0.004  0.000  0.004  0.000  0.000  0.000  0.000  0.000  0.272
tot    0.476  0.016  0.001  0.016  0.000  0.000  0.000  0.000  0.000  0.509
 
band     2 # energy    4.29884980 # occ.  2.00000000
 
ion      s     py     pz     px    dxy    dyz    dz2    dxz  x2-y2    tot
    1  0.060  0.010  0.085  0.010  0.000  0.000  0.000  0.000  0.000  0.165
    2  0.115  0.117  0.007  0.117  0.000  0.000  0.000  0.000  0.000  0.355
tot    0.175  0.127  0.092  0.127  0.000  0.000  0.000  0.000  0.000  0.521
 
band     3 # energy    5.73176092 # occ.  2.00000000
 
ion      s     py     pz     px    dxy    dyz    dz2    dxz  x2-y2    tot
    1  0.035  0.061  0.035  0.061  0.000  0.000  0.000  0.000  0.000  0.190
    2  0.001  0.005  0.312  0.005  0.000  0.000  0.000  0.000  0.000  0.323
tot    0.035  0.065  0.347  0.065  0.000  0.000  0.000  0.000  0.000  0.513
 
band     4 # energy    7.61952952 # occ.  2.00000000
 
ion      s     py     pz     px    dxy    dyz    dz2    dxz  x2-y2    tot
    1  0.000  0.053  0.000  0.053  0.000  0.000  0.000  0.000  0.000  0.107
    2  0.000  0.226  0.000  0.226  0.000  0.000  0.000  0.000  0.000  0.452
tot    0.000  0.279  0.000  0.279  0.000  0.000  0.000  0.000  0.000  0.559
 
band     5 # energy   14.94605441 # occ.  0.00000000
 
ion      s     py     pz     px    dxy    dyz    dz2    dxz  x2-y2    tot
    1  0.129  0.077  0.013  0.077  0.000  0.000  0.000  0.000  0.000  0.295
    2  0.002  0.007  0.128  0.007  0.000  0.000  0.000  0.000  0.000  0.144
tot    0.131  0.084  0.140  0.084  0.000  0.000  0.000  0.000  0.000  0.439
 
band     6 # energy   15.29473056 # occ.  0.00000000
 
ion      s     py     pz     px    dxy    dyz    dz2    dxz  x2-y2    tot
    1  0.043  0.010  0.189  0.010  0.000  0.000  0.000  0.000  0.000  0.252
    2  0.228  0.023  0.000  0.023  0.000  0.000  0.000  0.000  0.000  0.275
tot    0.272  0.033  0.189  0.033  0.000  0.000  0.000  0.000  0.000  0.527
 
band     7 # energy   15.84199276 # occ.  0.00000000
 
ion      s     py     pz     px    dxy    dyz    dz2    dxz  x2-y2    tot
    1  0.000  0.216  0.000  0.216  0.000  0.000  0.000  0.000  0.000  0.432
    2  0.000  0.017  0.000  0.017  0.000  0.000  0.000  0.000  0.000  0.034
tot    0.000  0.233  0.000  0.233  0.000  0.000  0.000  0.000  0.000  0.467
 
band     8 # energy   16.75385759 # occ.  0.00000000
 
ion      s     py     pz     px    dxy    dyz    dz2    dxz  x2-y2    tot
    1  0.071  0.000  0.111  0.000  0.000  0.000  0.000  0.000  0.000  0.182
    2  0.020  0.092  0.053  0.092  0.000  0.000  0.000  0.000  0.000  0.256
tot    0.091  0.092  0.164  0.092  0.000  0.000  0.000  0.000  0.000  0.438
 

 k-point   173 :   -0.13815789-0.13815789-0.27631579     weight = 0.00416667

band     1 # energy   -6.37687605 # occ.  2.00000000
 
ion      s     py     pz     px    dxy    dyz    dz2    dxz  x2-y2    tot
    1  0.220  0.009  0.000  0.009  0.000  0.000  0.000  0.000  0.000  0.239
    2  0.260  0.004  0.000  0.004  0.000  0.000  0.000  0.000  0.000  0.267
tot    0.480  0.013  0.000  0.013  0.000  0.000  0.000  0.000  0.000  0.506
 
band     2 # energy    4.86884693 # occ.  2.00000000
 
ion      s     py     pz     px    dxy    dyz    dz2    dxz  x2-y2    tot
    1  0.051  0.012  0.077  0.012  0.000  0.000  0.000  0.000  0.000  0.152
    2  0.106  0.129  0.006  0.129  0.000  0.000  0.000  0.000  0.000  0.369
tot    0.157  0.141  0.082  0.141  0.000  0.000  0.000  0.000  0.000  0.521
 
band     3 # energy    6.17605949 # occ.  2.00000000
 
ion      s     py     pz     px    dxy    dyz    dz2    dxz  x2-y2    tot
    1  0.025  0.055  0.037  0.055  0.000  0.000  0.000  0.000  0.000  0.173
    2  0.000  0.004  0.336  0.004  0.000  0.000  0.000  0.000  0.000  0.345
tot    0.025  0.060  0.373  0.060  0.000  0.000  0.000  0.000  0.000  0.518
 
band     4 # energy    7.72637717 # occ.  2.00000000
 
ion      s     py     pz     px    dxy    dyz    dz2    dxz  x2-y2    tot
    1  0.000  0.048  0.000  0.048  0.000  0.000  0.000  0.000  0.000  0.096
    2  0.000  0.229  0.000  0.229  0.000  0.000  0.000  0.000  0.000  0.459
tot    0.000  0.277  0.000  0.277  0.000  0.000  0.000  0.000  0.000  0.554
 
band     5 # energy   14.98978356 # occ.  0.00000000
 
ion      s     py     pz     px    dxy    dyz    dz2    dxz  x2-y2    tot
    1  0.042  0.102  0.019  0.102  0.000  0.000  0.000  0.000  0.000  0.264
    2  0.044  0.013  0.100  0.013  0.000  0.000  0.000  0.000  0.000  0.170
tot    0.086  0.114  0.119  0.114  0.000  0.000  0.000  0.000  0.000  0.434
 
band     6 # energy   15.12486875 # occ.  0.00000000
 
ion      s     py     pz     px    dxy    dyz    dz2    dxz  x2-y2    tot
    1  0.144  0.005  0.160  0.005  0.000  0.000  0.000  0.000  0.000  0.313
    2  0.204  0.012  0.032  0.012  0.000  0.000  0.000  0.000  0.000  0.261
tot    0.348  0.017  0.192  0.017  0.000  0.000  0.000  0.000  0.000  0.574
 
band     7 # energy   15.69577687 # occ.  0.00000000
 
ion      s     py     pz     px    dxy    dyz    dz2    dxz  x2-y2    tot
    1  0.000  0.228  0.000  0.228  0.000  0.000  0.000  0.000  0.000  0.456
    2  0.000  0.013  0.000  0.013  0.000  0.000  0.000  0.000  0.000  0.026
tot    0.000  0.241  0.000  0.241  0.000  0.000  0.000  0.000  0.000  0.482
 
band     8 # energy   16.71992866 # occ.  0.00000000
 
ion      s     py     pz     px    dxy    dyz    dz2    dxz  x2-y2    tot
    1  0.046  0.000  0.168  0.000  0.000  0.000  0.000  0.000  0.000  0.215
    2  0.022  0.095  0.021  0.095  0.000  0.000  0.000  0.000  0.000  0.234
tot    0.068  0.096  0.189  0.096  0.000  0.000  0.000  0.000  0.000  0.449
 

 k-point   174 :   -0.11842105-0.11842105-0.23684211     weight = 0.00416667

band     1 # energy   -6.63043298 # occ.  2.00000000
 
ion      s     py     pz     px    dxy    dyz    dz2    dxz  x2-y2    tot
    1  0.226  0.007  0.000  0.007  0.000  0.000  0.000  0.000  0.000  0.240
    2  0.257  0.003  0.000  0.003  0.000  0.000  0.000  0.000  0.000  0.263
tot    0.484  0.009  0.000  0.009  0.000  0.000  0.000  0.000  0.000  0.503
 
band     2 # energy    5.45121525 # occ.  2.00000000
 
ion      s     py     pz     px    dxy    dyz    dz2    dxz  x2-y2    tot
    1  0.042  0.015  0.067  0.015  0.000  0.000  0.000  0.000  0.000  0.138
    2  0.094  0.142  0.005  0.142  0.000  0.000  0.000  0.000  0.000  0.383
tot    0.136  0.157  0.072  0.157  0.000  0.000  0.000  0.000  0.000  0.521
 
band     3 # energy    6.59535998 # occ.  2.00000000
 
ion      s     py     pz     px    dxy    dyz    dz2    dxz  x2-y2    tot
    1  0.016  0.048  0.040  0.048  0.000  0.000  0.000  0.000  0.000  0.153
    2  0.000  0.003  0.362  0.003  0.000  0.000  0.000  0.000  0.000  0.368
tot    0.016  0.051  0.402  0.051  0.000  0.000  0.000  0.000  0.000  0.521
 
band     4 # energy    7.80584427 # occ.  2.00000000
 
ion      s     py     pz     px    dxy    dyz    dz2    dxz  x2-y2    tot
    1  0.000  0.043  0.000  0.043  0.000  0.000  0.000  0.000  0.000  0.085
    2  0.000  0.232  0.000  0.232  0.000  0.000  0.000  0.000  0.000  0.464
tot    0.000  0.275  0.000  0.275  0.000  0.000  0.000  0.000  0.000  0.549
 
band     5 # energy   14.86344212 # occ.  0.00000000
 
ion      s     py     pz     px    dxy    dyz    dz2    dxz  x2-y2    tot
    1  0.006  0.054  0.111  0.054  0.000  0.000  0.000  0.000  0.000  0.225
    2  0.206  0.020  0.018  0.020  0.000  0.000  0.000  0.000  0.000  0.264
tot    0.212  0.074  0.129  0.074  0.000  0.000  0.000  0.000  0.000  0.489
 
band     6 # energy   15.08316726 # occ.  0.00000000
 
ion      s     py     pz     px    dxy    dyz    dz2    dxz  x2-y2    tot
    1  0.180  0.074  0.044  0.074  0.000  0.000  0.000  0.000  0.000  0.371
    2  0.064  0.003  0.102  0.003  0.000  0.000  0.000  0.000  0.000  0.171
tot    0.244  0.077  0.145  0.077  0.000  0.000  0.000  0.000  0.000  0.543
 
band     7 # energy   15.56370913 # occ.  0.00000000
 
ion      s     py     pz     px    dxy    dyz    dz2    dxz  x2-y2    tot
    1  0.000  0.237  0.000  0.237  0.000  0.000  0.000  0.000  0.000  0.473
    2  0.000  0.010  0.000  0.010  0.000  0.000  0.000  0.000  0.000  0.021
tot    0.000  0.247  0.000  0.247  0.000  0.000  0.000  0.000  0.000  0.494
 
band     8 # energy   16.62199745 # occ.  0.00000000
 
ion      s     py     pz     px    dxy    dyz    dz2    dxz  x2-y2    tot
    1  0.031  0.001  0.232  0.001  0.000  0.000  0.000  0.000  0.000  0.265
    2  0.027  0.091  0.005  0.091  0.000  0.000  0.000  0.000  0.000  0.214
tot    0.058  0.092  0.237  0.092  0.000  0.000  0.000  0.000  0.000  0.479
 

 k-point   175 :   -0.09868421-0.09868421-0.19736842     weight = 0.00416667

band     1 # energy   -6.84709028 # occ.  2.00000000
 
ion      s     py     pz     px    dxy    dyz    dz2    dxz  x2-y2    tot
    1  0.232  0.005  0.000  0.005  0.000  0.000  0.000  0.000  0.000  0.241
    2  0.256  0.002  0.000  0.002  0.000  0.000  0.000  0.000  0.000  0.259
tot    0.487  0.007  0.000  0.007  0.000  0.000  0.000  0.000  0.000  0.501
 
band     2 # energy    6.03318969 # occ.  2.00000000
 
ion      s     py     pz     px    dxy    dyz    dz2    dxz  x2-y2    tot
    1  0.033  0.017  0.056  0.017  0.000  0.000  0.000  0.000  0.000  0.124
    2  0.080  0.158  0.004  0.158  0.000  0.000  0.000  0.000  0.000  0.399
tot    0.113  0.175  0.059  0.175  0.000  0.000  0.000  0.000  0.000  0.522
 
band     3 # energy    6.97710065 # occ.  2.00000000
 
ion      s     py     pz     px    dxy    dyz    dz2    dxz  x2-y2    tot
    1  0.009  0.039  0.044  0.039  0.000  0.000  0.000  0.000  0.000  0.131
    2  0.000  0.002  0.388  0.002  0.000  0.000  0.000  0.000  0.000  0.393
tot    0.009  0.041  0.432  0.041  0.000  0.000  0.000  0.000  0.000  0.524
 
band     4 # energy    7.86160225 # occ.  2.00000000
 
ion      s     py     pz     px    dxy    dyz    dz2    dxz  x2-y2    tot
    1  0.000  0.038  0.000  0.038  0.000  0.000  0.000  0.000  0.000  0.077
    2  0.000  0.234  0.000  0.234  0.000  0.000  0.000  0.000  0.000  0.467
tot    0.000  0.272  0.000  0.272  0.000  0.000  0.000  0.000  0.000  0.544
 
band     5 # energy   14.70312916 # occ.  0.00000000
 
ion      s     py     pz     px    dxy    dyz    dz2    dxz  x2-y2    tot
    1  0.032  0.034  0.112  0.034  0.000  0.000  0.000  0.000  0.000  0.212
    2  0.268  0.020  0.003  0.020  0.000  0.000  0.000  0.000  0.000  0.311
tot    0.300  0.054  0.115  0.054  0.000  0.000  0.000  0.000  0.000  0.523
 
band     6 # energy   15.07119763 # occ.  0.00000000
 
ion      s     py     pz     px    dxy    dyz    dz2    dxz  x2-y2    tot
    1  0.145  0.119  0.013  0.119  0.000  0.000  0.000  0.000  0.000  0.397
    2  0.028  0.003  0.094  0.003  0.000  0.000  0.000  0.000  0.000  0.128
tot    0.172  0.122  0.107  0.122  0.000  0.000  0.000  0.000  0.000  0.524
 
band     7 # energy   15.44546190 # occ.  0.00000000
 
ion      s     py     pz     px    dxy    dyz    dz2    dxz  x2-y2    tot
    1  0.000  0.242  0.000  0.242  0.000  0.000  0.000  0.000  0.000  0.484
    2  0.000  0.008  0.000  0.008  0.000  0.000  0.000  0.000  0.000  0.017
tot    0.000  0.251  0.000  0.251  0.000  0.000  0.000  0.000  0.000  0.501
 
band     8 # energy   16.39593719 # occ.  0.00000000
 
ion      s     py     pz     px    dxy    dyz    dz2    dxz  x2-y2    tot
    1  0.023  0.001  0.297  0.001  0.000  0.000  0.000  0.000  0.000  0.322
    2  0.032  0.077  0.000  0.077  0.000  0.000  0.000  0.000  0.000  0.185
tot    0.054  0.078  0.297  0.078  0.000  0.000  0.000  0.000  0.000  0.507
 

 k-point   176 :   -0.07894737-0.07894737-0.15789474     weight = 0.00416667

band     1 # energy   -7.02571674 # occ.  2.00000000
 
ion      s     py     pz     px    dxy    dyz    dz2    dxz  x2-y2    tot
    1  0.236  0.003  0.000  0.003  0.000  0.000  0.000  0.000  0.000  0.242
    2  0.254  0.001  0.000  0.001  0.000  0.000  0.000  0.000  0.000  0.257
tot    0.490  0.004  0.000  0.004  0.000  0.000  0.000  0.000  0.000  0.499
 
band     2 # energy    6.59623325 # occ.  2.00000000
 
ion      s     py     pz     px    dxy    dyz    dz2    dxz  x2-y2    tot
    1  0.025  0.020  0.043  0.020  0.000  0.000  0.000  0.000  0.000  0.108
    2  0.062  0.175  0.003  0.175  0.000  0.000  0.000  0.000  0.000  0.416
tot    0.087  0.195  0.046  0.195  0.000  0.000  0.000  0.000  0.000  0.523
 
band     3 # energy    7.30875679 # occ.  2.00000000
 
ion      s     py     pz     px    dxy    dyz    dz2    dxz  x2-y2    tot
    1  0.004  0.028  0.048  0.028  0.000  0.000  0.000  0.000  0.000  0.109
    2  0.000  0.002  0.414  0.002  0.000  0.000  0.000  0.000  0.000  0.417
tot    0.004  0.030  0.461  0.030  0.000  0.000  0.000  0.000  0.000  0.526
 
band     4 # energy    7.89831823 # occ.  2.00000000
 
ion      s     py     pz     px    dxy    dyz    dz2    dxz  x2-y2    tot
    1  0.000  0.035  0.000  0.035  0.000  0.000  0.000  0.000  0.000  0.069
    2  0.000  0.235  0.000  0.235  0.000  0.000  0.000  0.000  0.000  0.469
tot    0.000  0.269  0.000  0.269  0.000  0.000  0.000  0.000  0.000  0.539
 
band     5 # energy   14.54396177 # occ.  0.00000000
 
ion      s     py     pz     px    dxy    dyz    dz2    dxz  x2-y2    tot
    1  0.059  0.022  0.085  0.022  0.000  0.000  0.000  0.000  0.000  0.189
    2  0.316  0.019  0.000  0.019  0.000  0.000  0.000  0.000  0.000  0.355
tot    0.375  0.042  0.086  0.042  0.000  0.000  0.000  0.000  0.000  0.544
 
band     6 # energy   15.07130372 # occ.  0.00000000
 
ion      s     py     pz     px    dxy    dyz    dz2    dxz  x2-y2    tot
    1  0.105  0.158  0.004  0.158  0.000  0.000  0.000  0.000  0.000  0.425
    2  0.013  0.003  0.070  0.003  0.000  0.000  0.000  0.000  0.000  0.090
tot    0.118  0.162  0.074  0.162  0.000  0.000  0.000  0.000  0.000  0.515
 
band     7 # energy   15.34308814 # occ.  0.00000000
 
ion      s     py     pz     px    dxy    dyz    dz2    dxz  x2-y2    tot
    1  0.000  0.246  0.000  0.246  0.000  0.000  0.000  0.000  0.000  0.491
    2  0.000  0.007  0.000  0.007  0.000  0.000  0.000  0.000  0.000  0.014
tot    0.000  0.253  0.000  0.253  0.000  0.000  0.000  0.000  0.000  0.505
 
band     8 # energy   16.05987554 # occ.  0.00000000
 
ion      s     py     pz     px    dxy    dyz    dz2    dxz  x2-y2    tot
    1  0.016  0.001  0.360  0.001  0.000  0.000  0.000  0.000  0.000  0.377
    2  0.030  0.055  0.001  0.055  0.000  0.000  0.000  0.000  0.000  0.141
tot    0.046  0.056  0.361  0.056  0.000  0.000  0.000  0.000  0.000  0.518
 

 k-point   177 :   -0.05921053-0.05921053-0.11842105     weight = 0.00416667

band     1 # energy   -7.16541674 # occ.  2.00000000
 
ion      s     py     pz     px    dxy    dyz    dz2    dxz  x2-y2    tot
    1  0.239  0.002  0.000  0.002  0.000  0.000  0.000  0.000  0.000  0.243
    2  0.253  0.001  0.000  0.001  0.000  0.000  0.000  0.000  0.000  0.255
tot    0.493  0.002  0.000  0.002  0.000  0.000  0.000  0.000  0.000  0.498
 
band     2 # energy    7.11290936 # occ.  2.00000000
 
ion      s     py     pz     px    dxy    dyz    dz2    dxz  x2-y2    tot
    1  0.016  0.023  0.029  0.023  0.000  0.000  0.000  0.000  0.000  0.091
    2  0.043  0.195  0.002  0.195  0.000  0.000  0.000  0.000  0.000  0.434
tot    0.059  0.217  0.031  0.217  0.000  0.000  0.000  0.000  0.000  0.525
 
band     3 # energy    7.57892524 # occ.  2.00000000
 
ion      s     py     pz     px    dxy    dyz    dz2    dxz  x2-y2    tot
    1  0.002  0.018  0.051  0.018  0.000  0.000  0.000  0.000  0.000  0.088
    2  0.000  0.001  0.437  0.001  0.000  0.000  0.000  0.000  0.000  0.439
tot    0.002  0.019  0.488  0.019  0.000  0.000  0.000  0.000  0.000  0.527
 
band     4 # energy    7.92083914 # occ.  2.00000000
 
ion      s     py     pz     px    dxy    dyz    dz2    dxz  x2-y2    tot
    1  0.000  0.032  0.000  0.032  0.000  0.000  0.000  0.000  0.000  0.064
    2  0.000  0.235  0.000  0.235  0.000  0.000  0.000  0.000  0.000  0.470
tot    0.000  0.267  0.000  0.267  0.000  0.000  0.000  0.000  0.000  0.534
 
band     5 # energy   14.37937509 # occ.  0.00000000
 
ion      s     py     pz     px    dxy    dyz    dz2    dxz  x2-y2    tot
    1  0.086  0.013  0.047  0.013  0.000  0.000  0.000  0.000  0.000  0.159
    2  0.364  0.018  0.000  0.018  0.000  0.000  0.000  0.000  0.000  0.400
tot    0.450  0.031  0.047  0.031  0.000  0.000  0.000  0.000  0.000  0.559
 
band     6 # energy   15.08743186 # occ.  0.00000000
 
ion      s     py     pz     px    dxy    dyz    dz2    dxz  x2-y2    tot
    1  0.065  0.193  0.001  0.193  0.000  0.000  0.000  0.000  0.000  0.453
    2  0.006  0.004  0.044  0.004  0.000  0.000  0.000  0.000  0.000  0.058
tot    0.071  0.197  0.045  0.197  0.000  0.000  0.000  0.000  0.000  0.510
 
band     7 # energy   15.25956309 # occ.  0.00000000
 
ion      s     py     pz     px    dxy    dyz    dz2    dxz  x2-y2    tot
    1  0.000  0.248  0.000  0.248  0.000  0.000  0.000  0.000  0.000  0.495
    2  0.000  0.006  0.000  0.006  0.000  0.000  0.000  0.000  0.000  0.012
tot    0.000  0.254  0.000  0.254  0.000  0.000  0.000  0.000  0.000  0.507
 
band     8 # energy   15.69496333 # occ.  0.00000000
 
ion      s     py     pz     px    dxy    dyz    dz2    dxz  x2-y2    tot
    1  0.009  0.000  0.421  0.000  0.000  0.000  0.000  0.000  0.000  0.430
    2  0.019  0.032  0.003  0.032  0.000  0.000  0.000  0.000  0.000  0.086
tot    0.028  0.032  0.424  0.032  0.000  0.000  0.000  0.000  0.000  0.517
 

 k-point   178 :   -0.03947368-0.03947368-0.07894737     weight = 0.00416667

band     1 # energy   -7.26555409 # occ.  2.00000000
 
ion      s     py     pz     px    dxy    dyz    dz2    dxz  x2-y2    tot
    1  0.242  0.001  0.000  0.001  0.000  0.000  0.000  0.000  0.000  0.243
    2  0.253  0.000  0.000  0.000  0.000  0.000  0.000  0.000  0.000  0.253
tot    0.495  0.001  0.000  0.001  0.000  0.000  0.000  0.000  0.000  0.497
 
band     2 # energy    7.54349122 # occ.  2.00000000
 
ion      s     py     pz     px    dxy    dyz    dz2    dxz  x2-y2    tot
    1  0.008  0.026  0.015  0.026  0.000  0.000  0.000  0.000  0.000  0.075
    2  0.023  0.214  0.001  0.214  0.000  0.000  0.000  0.000  0.000  0.451
tot    0.031  0.239  0.016  0.239  0.000  0.000  0.000  0.000  0.000  0.526
 
band     3 # energy    7.77832532 # occ.  2.00000000
 
ion      s     py     pz     px    dxy    dyz    dz2    dxz  x2-y2    tot
    1  0.000  0.009  0.054  0.009  0.000  0.000  0.000  0.000  0.000  0.072
    2  0.000  0.000  0.455  0.000  0.000  0.000  0.000  0.000  0.000  0.456
tot    0.000  0.009  0.509  0.009  0.000  0.000  0.000  0.000  0.000  0.528
 
band     4 # energy    7.93351179 # occ.  2.00000000
 
ion      s     py     pz     px    dxy    dyz    dz2    dxz  x2-y2    tot
    1  0.000  0.030  0.000  0.030  0.000  0.000  0.000  0.000  0.000  0.060
    2  0.000  0.235  0.000  0.235  0.000  0.000  0.000  0.000  0.000  0.471
tot    0.000  0.265  0.000  0.265  0.000  0.000  0.000  0.000  0.000  0.531
 
band     5 # energy   14.20821671 # occ.  0.00000000
 
ion      s     py     pz     px    dxy    dyz    dz2    dxz  x2-y2    tot
    1  0.108  0.006  0.014  0.006  0.000  0.000  0.000  0.000  0.000  0.135
    2  0.409  0.012  0.000  0.012  0.000  0.000  0.000  0.000  0.000  0.433
tot    0.516  0.019  0.014  0.019  0.000  0.000  0.000  0.000  0.000  0.568
 
band     6 # energy   15.11360998 # occ.  0.00000000
 
ion      s     py     pz     px    dxy    dyz    dz2    dxz  x2-y2    tot
    1  0.031  0.223  0.000  0.223  0.000  0.000  0.000  0.000  0.000  0.477
    2  0.002  0.004  0.021  0.004  0.000  0.000  0.000  0.000  0.000  0.032
tot    0.033  0.227  0.021  0.227  0.000  0.000  0.000  0.000  0.000  0.509
 
band     7 # energy   15.19772561 # occ.  0.00000000
 
ion      s     py     pz     px    dxy    dyz    dz2    dxz  x2-y2    tot
    1  0.000  0.249  0.000  0.249  0.000  0.000  0.000  0.000  0.000  0.497
    2  0.000  0.005  0.000  0.005  0.000  0.000  0.000  0.000  0.000  0.011
tot    0.000  0.254  0.000  0.254  0.000  0.000  0.000  0.000  0.000  0.508
 
band     8 # energy   15.39231658 # occ.  0.00000000
 
ion      s     py     pz     px    dxy    dyz    dz2    dxz  x2-y2    tot
    1  0.003  0.000  0.470  0.000  0.000  0.000  0.000  0.000  0.000  0.473
    2  0.006  0.013  0.007  0.013  0.000  0.000  0.000  0.000  0.000  0.039
tot    0.009  0.013  0.476  0.013  0.000  0.000  0.000  0.000  0.000  0.512
 

 k-point   179 :   -0.01973684-0.01973684-0.03947368     weight = 0.00416667

band     1 # energy   -7.32583042 # occ.  2.00000000
 
ion      s     py     pz     px    dxy    dyz    dz2    dxz  x2-y2    tot
    1  0.243  0.000  0.000  0.000  0.000  0.000  0.000  0.000  0.000  0.244
    2  0.252  0.000  0.000  0.000  0.000  0.000  0.000  0.000  0.000  0.253
tot    0.496  0.000  0.000  0.000  0.000  0.000  0.000  0.000  0.000  0.496
 
band     2 # energy    7.83646715 # occ.  2.00000000
 
ion      s     py     pz     px    dxy    dyz    dz2    dxz  x2-y2    tot
    1  0.002  0.028  0.004  0.028  0.000  0.000  0.000  0.000  0.000  0.062
    2  0.007  0.229  0.000  0.229  0.000  0.000  0.000  0.000  0.000  0.465
tot    0.009  0.257  0.005  0.257  0.000  0.000  0.000  0.000  0.000  0.527
 
band     3 # energy    7.90042660 # occ.  2.00000000
 
ion      s     py     pz     px    dxy    dyz    dz2    dxz  x2-y2    tot
    1  0.000  0.002  0.056  0.002  0.000  0.000  0.000  0.000  0.000  0.061
    2  0.000  0.000  0.467  0.000  0.000  0.000  0.000  0.000  0.000  0.467
tot    0.000  0.002  0.523  0.002  0.000  0.000  0.000  0.000  0.000  0.528
 
band     4 # energy    7.93969850 # occ.  2.00000000
 
ion      s     py     pz     px    dxy    dyz    dz2    dxz  x2-y2    tot
    1  0.000  0.029  0.000  0.029  0.000  0.000  0.000  0.000  0.000  0.058
    2  0.000  0.235  0.000  0.235  0.000  0.000  0.000  0.000  0.000  0.471
tot    0.000  0.264  0.000  0.264  0.000  0.000  0.000  0.000  0.000  0.529
 
band     5 # energy   14.06193542 # occ.  0.00000000
 
ion      s     py     pz     px    dxy    dyz    dz2    dxz  x2-y2    tot
    1  0.122  0.002  0.001  0.002  0.000  0.000  0.000  0.000  0.000  0.126
    2  0.437  0.004  0.000  0.004  0.000  0.000  0.000  0.000  0.000  0.445
tot    0.558  0.006  0.001  0.006  0.000  0.000  0.000  0.000  0.000  0.571
 
band     6 # energy   15.13736227 # occ.  0.00000000
 
ion      s     py     pz     px    dxy    dyz    dz2    dxz  x2-y2    tot
    1  0.008  0.242  0.000  0.242  0.000  0.000  0.000  0.000  0.000  0.493
    2  0.000  0.005  0.005  0.005  0.000  0.000  0.000  0.000  0.000  0.016
tot    0.009  0.247  0.005  0.247  0.000  0.000  0.000  0.000  0.000  0.509
 
band     7 # energy   15.15971464 # occ.  0.00000000
 
ion      s     py     pz     px    dxy    dyz    dz2    dxz  x2-y2    tot
    1  0.000  0.249  0.000  0.249  0.000  0.000  0.000  0.000  0.000  0.498
    2  0.000  0.005  0.000  0.005  0.000  0.000  0.000  0.000  0.000  0.010
tot    0.000  0.254  0.000  0.254  0.000  0.000  0.000  0.000  0.000  0.509
 
band     8 # energy   15.20701704 # occ.  0.00000000
 
ion      s     py     pz     px    dxy    dyz    dz2    dxz  x2-y2    tot
    1  0.000  0.000  0.494  0.000  0.000  0.000  0.000  0.000  0.000  0.494
    2  0.001  0.003  0.009  0.003  0.000  0.000  0.000  0.000  0.000  0.015
tot    0.001  0.003  0.503  0.003  0.000  0.000  0.000  0.000  0.000  0.509
 

 k-point   180 :    0.00000000 0.00000000 0.00000000     weight = 0.00416667

band     1 # energy   -7.34592252 # occ.  2.00000000
 
ion      s     py     pz     px    dxy    dyz    dz2    dxz  x2-y2    tot
    1  0.244  0.000  0.000  0.000  0.000  0.000  0.000  0.000  0.000  0.244
    2  0.252  0.000  0.000  0.000  0.000  0.000  0.000  0.000  0.000  0.252
tot    0.496  0.000  0.000  0.000  0.000  0.000  0.000  0.000  0.000  0.496
 
band     2 # energy    7.94152032 # occ.  2.00000000
 
ion      s     py     pz     px    dxy    dyz    dz2    dxz  x2-y2    tot
    1  0.000  0.024  0.001  0.032  0.000  0.000  0.000  0.000  0.000  0.057
    2  0.000  0.200  0.006  0.264  0.000  0.000  0.000  0.000  0.000  0.471
tot    0.000  0.224  0.007  0.296  0.000  0.000  0.000  0.000  0.000  0.528
 
band     3 # energy    7.94152032 # occ.  2.00000000
 
ion      s     py     pz     px    dxy    dyz    dz2    dxz  x2-y2    tot
    1  0.000  0.014  0.037  0.006  0.000  0.000  0.000  0.000  0.000  0.057
    2  0.000  0.114  0.308  0.049  0.000  0.000  0.000  0.000  0.000  0.471
tot    0.000  0.128  0.345  0.055  0.000  0.000  0.000  0.000  0.000  0.528
 
band     4 # energy    7.94152090 # occ.  2.00000000
 
ion      s     py     pz     px    dxy    dyz    dz2    dxz  x2-y2    tot
    1  0.000  0.019  0.019  0.019  0.000  0.000  0.000  0.000  0.000  0.057
    2  0.000  0.157  0.157  0.157  0.000  0.000  0.000  0.000  0.000  0.471
tot    0.000  0.176  0.176  0.176  0.000  0.000  0.000  0.000  0.000  0.528
 
band     5 # energy   14.00215207 # occ.  0.00000000
 
ion      s     py     pz     px    dxy    dyz    dz2    dxz  x2-y2    tot
    1  0.126  0.000  0.000  0.000  0.000  0.000  0.000  0.000  0.000  0.126
    2  0.446  0.000  0.000  0.000  0.000  0.000  0.000  0.000  0.000  0.446
tot    0.572  0.000  0.000  0.000  0.000  0.000  0.000  0.000  0.000  0.572
 
band     6 # energy   15.14689590 # occ.  0.00000000
 
ion      s     py     pz     px    dxy    dyz    dz2    dxz  x2-y2    tot
    1  0.000  0.192  0.164  0.143  0.000  0.000  0.000  0.000  0.000  0.499
    2  0.000  0.004  0.003  0.003  0.000  0.000  0.000  0.000  0.000  0.010
tot    0.000  0.196  0.167  0.146  0.000  0.000  0.000  0.000  0.000  0.509
 
band     7 # energy   15.14689595 # occ.  0.00000000
 
ion      s     py     pz     px    dxy    dyz    dz2    dxz  x2-y2    tot
    1  0.000  0.006  0.209  0.284  0.000  0.000  0.000  0.000  0.000  0.499
    2  0.000  0.000  0.004  0.006  0.000  0.000  0.000  0.000  0.000  0.010
tot    0.000  0.006  0.213  0.290  0.000  0.000  0.000  0.000  0.000  0.509
 
band     8 # energy   15.14689595 # occ.  0.00000000
 
ion      s     py     pz     px    dxy    dyz    dz2    dxz  x2-y2    tot
    1  0.000  0.301  0.126  0.072  0.000  0.000  0.000  0.000  0.000  0.499
    2  0.000  0.006  0.003  0.001  0.000  0.000  0.000  0.000  0.000  0.010
tot    0.000  0.307  0.129  0.073  0.000  0.000  0.000  0.000  0.000  0.509
 

 k-point   181 :    0.00000000 0.00000000 0.00000000     weight = 0.00416667

band     1 # energy   -7.34592252 # occ.  2.00000000
 
ion      s     py     pz     px    dxy    dyz    dz2    dxz  x2-y2    tot
    1  0.244  0.000  0.000  0.000  0.000  0.000  0.000  0.000  0.000  0.244
    2  0.252  0.000  0.000  0.000  0.000  0.000  0.000  0.000  0.000  0.252
tot    0.496  0.000  0.000  0.000  0.000  0.000  0.000  0.000  0.000  0.496
 
band     2 # energy    7.94152032 # occ.  2.00000000
 
ion      s     py     pz     px    dxy    dyz    dz2    dxz  x2-y2    tot
    1  0.000  0.029  0.000  0.029  0.000  0.000  0.000  0.000  0.000  0.057
    2  0.000  0.235  0.000  0.236  0.000  0.000  0.000  0.000  0.000  0.471
tot    0.000  0.264  0.000  0.264  0.000  0.000  0.000  0.000  0.000  0.528
 
band     3 # energy    7.94152032 # occ.  2.00000000
 
ion      s     py     pz     px    dxy    dyz    dz2    dxz  x2-y2    tot
    1  0.000  0.010  0.038  0.009  0.000  0.000  0.000  0.000  0.000  0.057
    2  0.000  0.079  0.314  0.078  0.000  0.000  0.000  0.000  0.000  0.471
tot    0.000  0.088  0.352  0.088  0.000  0.000  0.000  0.000  0.000  0.528
 
band     4 # energy    7.94152090 # occ.  2.00000000
 
ion      s     py     pz     px    dxy    dyz    dz2    dxz  x2-y2    tot
    1  0.000  0.019  0.019  0.019  0.000  0.000  0.000  0.000  0.000  0.057
    2  0.000  0.157  0.157  0.157  0.000  0.000  0.000  0.000  0.000  0.471
tot    0.000  0.176  0.176  0.176  0.000  0.000  0.000  0.000  0.000  0.528
 
band     5 # energy   14.00215207 # occ.  0.00000000
 
ion      s     py     pz     px    dxy    dyz    dz2    dxz  x2-y2    tot
    1  0.126  0.000  0.000  0.000  0.000  0.000  0.000  0.000  0.000  0.126
    2  0.446  0.000  0.000  0.000  0.000  0.000  0.000  0.000  0.000  0.446
tot    0.572  0.000  0.000  0.000  0.000  0.000  0.000  0.000  0.000  0.572
 
band     6 # energy   15.14689590 # occ.  0.00000000
 
ion      s     py     pz     px    dxy    dyz    dz2    dxz  x2-y2    tot
    1  0.000  0.171  0.167  0.161  0.000  0.000  0.000  0.000  0.000  0.499
    2  0.000  0.003  0.003  0.003  0.000  0.000  0.000  0.000  0.000  0.010
tot    0.000  0.175  0.170  0.164  0.000  0.000  0.000  0.000  0.000  0.509
 
band     7 # energy   15.14689594 # occ.  0.00000000
 
ion      s     py     pz     px    dxy    dyz    dz2    dxz  x2-y2    tot
    1  0.000  0.299  0.155  0.045  0.000  0.000  0.000  0.000  0.000  0.499
    2  0.000  0.006  0.003  0.001  0.000  0.000  0.000  0.000  0.000  0.010
tot    0.000  0.305  0.158  0.045  0.000  0.000  0.000  0.000  0.000  0.509
 
band     8 # energy   15.14689595 # occ.  0.00000000
 
ion      s     py     pz     px    dxy    dyz    dz2    dxz  x2-y2    tot
    1  0.000  0.029  0.177  0.294  0.000  0.000  0.000  0.000  0.000  0.499
    2  0.000  0.001  0.004  0.006  0.000  0.000  0.000  0.000  0.000  0.010
tot    0.000  0.029  0.180  0.299  0.000  0.000  0.000  0.000  0.000  0.509
 

 k-point   182 :   -0.02631579-0.02631579-0.02631579     weight = 0.00416667

band     1 # energy   -7.33252162 # occ.  2.00000000
 
ion      s     py     pz     px    dxy    dyz    dz2    dxz  x2-y2    tot
    1  0.243  0.000  0.000  0.000  0.000  0.000  0.000  0.000  0.000  0.244
    2  0.252  0.000  0.000  0.000  0.000  0.000  0.000  0.000  0.000  0.252
tot    0.496  0.000  0.000  0.000  0.000  0.000  0.000  0.000  0.000  0.496
 
band     2 # energy    7.86225366 # occ.  2.00000000
 
ion      s     py     pz     px    dxy    dyz    dz2    dxz  x2-y2    tot
    1  0.002  0.020  0.020  0.020  0.000  0.000  0.000  0.000  0.000  0.061
    2  0.004  0.154  0.154  0.154  0.000  0.000  0.000  0.000  0.000  0.466
tot    0.006  0.174  0.174  0.174  0.000  0.000  0.000  0.000  0.000  0.527
 
band     3 # energy    7.93163657 # occ.  2.00000000
 
ion      s     py     pz     px    dxy    dyz    dz2    dxz  x2-y2    tot
    1  0.000  0.032  0.000  0.026  0.000  0.000  0.000  0.000  0.000  0.058
    2  0.000  0.257  0.002  0.211  0.000  0.000  0.000  0.000  0.000  0.470
tot    0.000  0.289  0.003  0.237  0.000  0.000  0.000  0.000  0.000  0.528
 
band     4 # energy    7.93163657 # occ.  2.00000000
 
ion      s     py     pz     px    dxy    dyz    dz2    dxz  x2-y2    tot
    1  0.000  0.007  0.039  0.013  0.000  0.000  0.000  0.000  0.000  0.058
    2  0.000  0.056  0.311  0.103  0.000  0.000  0.000  0.000  0.000  0.470
tot    0.000  0.063  0.350  0.116  0.000  0.000  0.000  0.000  0.000  0.528
 
band     5 # energy   14.04240511 # occ.  0.00000000
 
ion      s     py     pz     px    dxy    dyz    dz2    dxz  x2-y2    tot
    1  0.123  0.001  0.001  0.001  0.000  0.000  0.000  0.000  0.000  0.126
    2  0.440  0.002  0.002  0.002  0.000  0.000  0.000  0.000  0.000  0.445
tot    0.563  0.003  0.003  0.003  0.000  0.000  0.000  0.000  0.000  0.571
 
band     6 # energy   15.15161884 # occ.  0.00000000
 
ion      s     py     pz     px    dxy    dyz    dz2    dxz  x2-y2    tot
    1  0.006  0.163  0.163  0.163  0.000  0.000  0.000  0.000  0.000  0.494
    2  0.001  0.005  0.005  0.005  0.000  0.000  0.000  0.000  0.000  0.015
tot    0.006  0.168  0.168  0.168  0.000  0.000  0.000  0.000  0.000  0.509
 
band     7 # energy   15.16565942 # occ.  0.00000000
 
ion      s     py     pz     px    dxy    dyz    dz2    dxz  x2-y2    tot
    1  0.000  0.017  0.177  0.303  0.000  0.000  0.000  0.000  0.000  0.498
    2  0.000  0.000  0.004  0.007  0.000  0.000  0.000  0.000  0.000  0.011
tot    0.000  0.017  0.181  0.310  0.000  0.000  0.000  0.000  0.000  0.509
 
band     8 # energy   15.16565942 # occ.  0.00000000
 
ion      s     py     pz     px    dxy    dyz    dz2    dxz  x2-y2    tot
    1  0.000  0.315  0.154  0.028  0.000  0.000  0.000  0.000  0.000  0.498
    2  0.000  0.007  0.003  0.001  0.000  0.000  0.000  0.000  0.000  0.011
tot    0.000  0.322  0.158  0.029  0.000  0.000  0.000  0.000  0.000  0.509
 

 k-point   183 :   -0.05263158-0.05263158-0.05263158     weight = 0.00416667

band     1 # energy   -7.29234663 # occ.  2.00000000
 
ion      s     py     pz     px    dxy    dyz    dz2    dxz  x2-y2    tot
    1  0.242  0.000  0.000  0.000  0.000  0.000  0.000  0.000  0.000  0.244
    2  0.253  0.000  0.000  0.000  0.000  0.000  0.000  0.000  0.000  0.253
tot    0.495  0.000  0.000  0.000  0.000  0.000  0.000  0.000  0.000  0.496
 
band     2 # energy    7.63465671 # occ.  2.00000000
 
ion      s     py     pz     px    dxy    dyz    dz2    dxz  x2-y2    tot
    1  0.006  0.022  0.022  0.022  0.000  0.000  0.000  0.000  0.000  0.072
    2  0.016  0.146  0.146  0.146  0.000  0.000  0.000  0.000  0.000  0.454
tot    0.022  0.168  0.168  0.168  0.000  0.000  0.000  0.000  0.000  0.526
 
band     3 # energy    7.90259961 # occ.  2.00000000
 
ion      s     py     pz     px    dxy    dyz    dz2    dxz  x2-y2    tot
    1  0.000  0.036  0.002  0.024  0.000  0.000  0.000  0.000  0.000  0.062
    2  0.000  0.271  0.011  0.185  0.000  0.000  0.000  0.000  0.000  0.468
tot    0.000  0.307  0.013  0.209  0.000  0.000  0.000  0.000  0.000  0.529
 
band     4 # energy    7.90259961 # occ.  2.00000000
 
ion      s     py     pz     px    dxy    dyz    dz2    dxz  x2-y2    tot
    1  0.000  0.005  0.040  0.017  0.000  0.000  0.000  0.000  0.000  0.062
    2  0.000  0.041  0.300  0.127  0.000  0.000  0.000  0.000  0.000  0.468
tot    0.000  0.046  0.340  0.143  0.000  0.000  0.000  0.000  0.000  0.529
 
band     5 # energy   14.14209092 # occ.  0.00000000
 
ion      s     py     pz     px    dxy    dyz    dz2    dxz  x2-y2    tot
    1  0.114  0.006  0.006  0.006  0.000  0.000  0.000  0.000  0.000  0.133
    2  0.419  0.006  0.006  0.006  0.000  0.000  0.000  0.000  0.000  0.436
tot    0.534  0.012  0.012  0.012  0.000  0.000  0.000  0.000  0.000  0.569
 
band     6 # energy   15.17840325 # occ.  0.00000000
 
ion      s     py     pz     px    dxy    dyz    dz2    dxz  x2-y2    tot
    1  0.022  0.150  0.150  0.150  0.000  0.000  0.000  0.000  0.000  0.472
    2  0.007  0.010  0.010  0.010  0.000  0.000  0.000  0.000  0.000  0.038
tot    0.029  0.160  0.160  0.160  0.000  0.000  0.000  0.000  0.000  0.510
 
band     7 # energy   15.22009786 # occ.  0.00000000
 
ion      s     py     pz     px    dxy    dyz    dz2    dxz  x2-y2    tot
    1  0.000  0.226  0.262  0.006  0.000  0.000  0.000  0.000  0.000  0.494
    2  0.000  0.006  0.008  0.000  0.000  0.000  0.000  0.000  0.000  0.014
tot    0.000  0.232  0.270  0.006  0.000  0.000  0.000  0.000  0.000  0.509
 
band     8 # energy   15.22009786 # occ.  0.00000000
 
ion      s     py     pz     px    dxy    dyz    dz2    dxz  x2-y2    tot
    1  0.000  0.104  0.067  0.324  0.000  0.000  0.000  0.000  0.000  0.494
    2  0.000  0.003  0.002  0.009  0.000  0.000  0.000  0.000  0.000  0.014
tot    0.000  0.107  0.069  0.333  0.000  0.000  0.000  0.000  0.000  0.509
 

 k-point   184 :   -0.07894737-0.07894737-0.07894737     weight = 0.00416667

band     1 # energy   -7.22546706 # occ.  2.00000000
 
ion      s     py     pz     px    dxy    dyz    dz2    dxz  x2-y2    tot
    1  0.241  0.001  0.001  0.001  0.000  0.000  0.000  0.000  0.000  0.243
    2  0.253  0.000  0.000  0.000  0.000  0.000  0.000  0.000  0.000  0.254
tot    0.494  0.001  0.001  0.001  0.000  0.000  0.000  0.000  0.000  0.497
 
band     2 # energy    7.28397804 # occ.  2.00000000
 
ion      s     py     pz     px    dxy    dyz    dz2    dxz  x2-y2    tot
    1  0.012  0.025  0.025  0.025  0.000  0.000  0.000  0.000  0.000  0.088
    2  0.031  0.135  0.135  0.135  0.000  0.000  0.000  0.000  0.000  0.436
tot    0.043  0.160  0.160  0.160  0.000  0.000  0.000  0.000  0.000  0.524
 
band     3 # energy    7.85615934 # occ.  2.00000000
 
ion      s     py     pz     px    dxy    dyz    dz2    dxz  x2-y2    tot
    1  0.000  0.034  0.000  0.034  0.000  0.000  0.000  0.000  0.000  0.067
    2  0.000  0.232  0.000  0.232  0.000  0.000  0.000  0.000  0.000  0.464
tot    0.000  0.265  0.000  0.265  0.000  0.000  0.000  0.000  0.000  0.531
 
band     4 # energy    7.85615934 # occ.  2.00000000
 
ion      s     py     pz     px    dxy    dyz    dz2    dxz  x2-y2    tot
    1  0.000  0.011  0.045  0.011  0.000  0.000  0.000  0.000  0.000  0.067
    2  0.000  0.077  0.309  0.077  0.000  0.000  0.000  0.000  0.000  0.464
tot    0.000  0.088  0.354  0.089  0.000  0.000  0.000  0.000  0.000  0.531
 
band     5 # energy   14.24386691 # occ.  0.00000000
 
ion      s     py     pz     px    dxy    dyz    dz2    dxz  x2-y2    tot
    1  0.101  0.021  0.021  0.021  0.000  0.000  0.000  0.000  0.000  0.164
    2  0.376  0.007  0.007  0.007  0.000  0.000  0.000  0.000  0.000  0.398
tot    0.478  0.028  0.028  0.028  0.000  0.000  0.000  0.000  0.000  0.562
 
band     6 # energy   15.26425321 # occ.  0.00000000
 
ion      s     py     pz     px    dxy    dyz    dz2    dxz  x2-y2    tot
    1  0.048  0.124  0.124  0.124  0.000  0.000  0.000  0.000  0.000  0.421
    2  0.030  0.022  0.022  0.022  0.000  0.000  0.000  0.000  0.000  0.096
tot    0.078  0.146  0.146  0.146  0.000  0.000  0.000  0.000  0.000  0.517
 
band     7 # energy   15.30468749 # occ.  0.00000000
 
ion      s     py     pz     px    dxy    dyz    dz2    dxz  x2-y2    tot
    1  0.000  0.078  0.112  0.299  0.000  0.000  0.000  0.000  0.000  0.489
    2  0.000  0.003  0.004  0.012  0.000  0.000  0.000  0.000  0.000  0.019
tot    0.000  0.081  0.116  0.311  0.000  0.000  0.000  0.000  0.000  0.508
 
band     8 # energy   15.30468749 # occ.  0.00000000
 
ion      s     py     pz     px    dxy    dyz    dz2    dxz  x2-y2    tot
    1  0.000  0.248  0.214  0.027  0.000  0.000  0.000  0.000  0.000  0.489
    2  0.000  0.010  0.008  0.001  0.000  0.000  0.000  0.000  0.000  0.019
tot    0.000  0.258  0.223  0.028  0.000  0.000  0.000  0.000  0.000  0.508
 

 k-point   185 :   -0.10526316-0.10526316-0.10526316     weight = 0.00416667

band     1 # energy   -7.13213922 # occ.  2.00000000
 
ion      s     py     pz     px    dxy    dyz    dz2    dxz  x2-y2    tot
    1  0.239  0.001  0.001  0.001  0.000  0.000  0.000  0.000  0.000  0.243
    2  0.254  0.001  0.001  0.001  0.000  0.000  0.000  0.000  0.000  0.255
tot    0.492  0.002  0.002  0.002  0.000  0.000  0.000  0.000  0.000  0.498
 
band     2 # energy    6.83994343 # occ.  2.00000000
 
ion      s     py     pz     px    dxy    dyz    dz2    dxz  x2-y2    tot
    1  0.020  0.028  0.028  0.028  0.000  0.000  0.000  0.000  0.000  0.105
    2  0.046  0.124  0.124  0.124  0.000  0.000  0.000  0.000  0.000  0.417
tot    0.066  0.152  0.152  0.152  0.000  0.000  0.000  0.000  0.000  0.521
 
band     3 # energy    7.79494223 # occ.  2.00000000
 
ion      s     py     pz     px    dxy    dyz    dz2    dxz  x2-y2    tot
    1  0.000  0.037  0.000  0.037  0.000  0.000  0.000  0.000  0.000  0.074
    2  0.000  0.230  0.000  0.229  0.000  0.000  0.000  0.000  0.000  0.459
tot    0.000  0.266  0.000  0.266  0.000  0.000  0.000  0.000  0.000  0.533
 
band     4 # energy    7.79494223 # occ.  2.00000000
 
ion      s     py     pz     px    dxy    dyz    dz2    dxz  x2-y2    tot
    1  0.000  0.012  0.049  0.012  0.000  0.000  0.000  0.000  0.000  0.074
    2  0.000  0.076  0.306  0.077  0.000  0.000  0.000  0.000  0.000  0.459
tot    0.000  0.089  0.355  0.089  0.000  0.000  0.000  0.000  0.000  0.533
 
band     5 # energy   14.28715682 # occ.  0.00000000
 
ion      s     py     pz     px    dxy    dyz    dz2    dxz  x2-y2    tot
    1  0.093  0.041  0.041  0.041  0.000  0.000  0.000  0.000  0.000  0.217
    2  0.316  0.005  0.005  0.005  0.000  0.000  0.000  0.000  0.000  0.331
tot    0.409  0.047  0.047  0.047  0.000  0.000  0.000  0.000  0.000  0.548
 
band     6 # energy   15.41025929 # occ.  0.00000000
 
ion      s     py     pz     px    dxy    dyz    dz2    dxz  x2-y2    tot
    1  0.000  0.156  0.055  0.271  0.000  0.000  0.000  0.000  0.000  0.482
    2  0.000  0.008  0.003  0.014  0.000  0.000  0.000  0.000  0.000  0.025
tot    0.000  0.164  0.058  0.285  0.000  0.000  0.000  0.000  0.000  0.507
 
band     7 # energy   15.41025929 # occ.  0.00000000
 
ion      s     py     pz     px    dxy    dyz    dz2    dxz  x2-y2    tot
    1  0.000  0.165  0.266  0.050  0.000  0.000  0.000  0.000  0.000  0.482
    2  0.000  0.009  0.014  0.003  0.000  0.000  0.000  0.000  0.000  0.025
tot    0.000  0.174  0.280  0.053  0.000  0.000  0.000  0.000  0.000  0.507
 
band     8 # energy   15.44683492 # occ.  0.00000000
 
ion      s     py     pz     px    dxy    dyz    dz2    dxz  x2-y2    tot
    1  0.072  0.091  0.091  0.091  0.000  0.000  0.000  0.000  0.000  0.345
    2  0.069  0.038  0.038  0.038  0.000  0.000  0.000  0.000  0.000  0.184
tot    0.142  0.129  0.129  0.129  0.000  0.000  0.000  0.000  0.000  0.529
 

 k-point   186 :   -0.13157895-0.13157895-0.13157895     weight = 0.00416667

band     1 # energy   -7.01258445 # occ.  2.00000000
 
ion      s     py     pz     px    dxy    dyz    dz2    dxz  x2-y2    tot
    1  0.236  0.002  0.002  0.002  0.000  0.000  0.000  0.000  0.000  0.242
    2  0.254  0.001  0.001  0.001  0.000  0.000  0.000  0.000  0.000  0.257
tot    0.490  0.003  0.003  0.003  0.000  0.000  0.000  0.000  0.000  0.499
 
band     2 # energy    6.32934063 # occ.  2.00000000
 
ion      s     py     pz     px    dxy    dyz    dz2    dxz  x2-y2    tot
    1  0.028  0.031  0.031  0.031  0.000  0.000  0.000  0.000  0.000  0.122
    2  0.059  0.112  0.112  0.112  0.000  0.000  0.000  0.000  0.000  0.397
tot    0.087  0.144  0.144  0.144  0.000  0.000  0.000  0.000  0.000  0.519
 
band     3 # energy    7.72212287 # occ.  2.00000000
 
ion      s     py     pz     px    dxy    dyz    dz2    dxz  x2-y2    tot
    1  0.000  0.041  0.000  0.041  0.000  0.000  0.000  0.000  0.000  0.082
    2  0.000  0.227  0.000  0.227  0.000  0.000  0.000  0.000  0.000  0.453
tot    0.000  0.268  0.000  0.268  0.000  0.000  0.000  0.000  0.000  0.535
 
band     4 # energy    7.72212287 # occ.  2.00000000
 
ion      s     py     pz     px    dxy    dyz    dz2    dxz  x2-y2    tot
    1  0.000  0.014  0.054  0.014  0.000  0.000  0.000  0.000  0.000  0.082
    2  0.000  0.076  0.302  0.076  0.000  0.000  0.000  0.000  0.000  0.453
tot    0.000  0.089  0.357  0.089  0.000  0.000  0.000  0.000  0.000  0.535
 
band     5 # energy   14.25882511 # occ.  0.00000000
 
ion      s     py     pz     px    dxy    dyz    dz2    dxz  x2-y2    tot
    1  0.096  0.055  0.055  0.055  0.000  0.000  0.000  0.000  0.000  0.262
    2  0.264  0.003  0.003  0.003  0.000  0.000  0.000  0.000  0.000  0.272
tot    0.360  0.058  0.058  0.058  0.000  0.000  0.000  0.000  0.000  0.534
 
band     6 # energy   15.52428334 # occ.  0.00000000
 
ion      s     py     pz     px    dxy    dyz    dz2    dxz  x2-y2    tot
    1  0.000  0.080  0.112  0.279  0.000  0.000  0.000  0.000  0.000  0.472
    2  0.000  0.005  0.007  0.019  0.000  0.000  0.000  0.000  0.000  0.032
tot    0.000  0.086  0.119  0.298  0.000  0.000  0.000  0.000  0.000  0.503
 
band     7 # energy   15.52428335 # occ.  0.00000000
 
ion      s     py     pz     px    dxy    dyz    dz2    dxz  x2-y2    tot
    1  0.000  0.234  0.203  0.035  0.000  0.000  0.000  0.000  0.000  0.472
    2  0.000  0.016  0.014  0.002  0.000  0.000  0.000  0.000  0.000  0.032
tot    0.000  0.250  0.216  0.037  0.000  0.000  0.000  0.000  0.000  0.503
 
band     8 # energy   15.71971914 # occ.  0.00000000
 
ion      s     py     pz     px    dxy    dyz    dz2    dxz  x2-y2    tot
    1  0.086  0.063  0.063  0.063  0.000  0.000  0.000  0.000  0.000  0.276
    2  0.099  0.055  0.055  0.055  0.000  0.000  0.000  0.000  0.000  0.265
tot    0.185  0.118  0.118  0.118  0.000  0.000  0.000  0.000  0.000  0.541
 

 k-point   187 :   -0.15789474-0.15789474-0.15789474     weight = 0.00416667

band     1 # energy   -6.86727533 # occ.  2.00000000
 
ion      s     py     pz     px    dxy    dyz    dz2    dxz  x2-y2    tot
    1  0.232  0.003  0.003  0.003  0.000  0.000  0.000  0.000  0.000  0.242
    2  0.255  0.001  0.001  0.001  0.000  0.000  0.000  0.000  0.000  0.259
tot    0.488  0.004  0.004  0.004  0.000  0.000  0.000  0.000  0.000  0.501
 
band     2 # energy    5.77354430 # occ.  2.00000000
 
ion      s     py     pz     px    dxy    dyz    dz2    dxz  x2-y2    tot
    1  0.036  0.034  0.034  0.034  0.000  0.000  0.000  0.000  0.000  0.139
    2  0.070  0.102  0.102  0.102  0.000  0.000  0.000  0.000  0.000  0.377
tot    0.107  0.136  0.136  0.136  0.000  0.000  0.000  0.000  0.000  0.516
 
band     3 # energy    7.64107429 # occ.  2.00000000
 
ion      s     py     pz     px    dxy    dyz    dz2    dxz  x2-y2    tot
    1  0.000  0.045  0.000  0.045  0.000  0.000  0.000  0.000  0.000  0.090
    2  0.000  0.224  0.000  0.224  0.000  0.000  0.000  0.000  0.000  0.448
tot    0.000  0.269  0.000  0.269  0.000  0.000  0.000  0.000  0.000  0.538
 
band     4 # energy    7.64107429 # occ.  2.00000000
 
ion      s     py     pz     px    dxy    dyz    dz2    dxz  x2-y2    tot
    1  0.000  0.015  0.060  0.015  0.000  0.000  0.000  0.000  0.000  0.090
    2  0.000  0.075  0.299  0.075  0.000  0.000  0.000  0.000  0.000  0.448
tot    0.000  0.090  0.359  0.090  0.000  0.000  0.000  0.000  0.000  0.538
 
band     5 # energy   14.18232956 # occ.  0.00000000
 
ion      s     py     pz     px    dxy    dyz    dz2    dxz  x2-y2    tot
    1  0.109  0.060  0.060  0.060  0.000  0.000  0.000  0.000  0.000  0.289
    2  0.231  0.001  0.001  0.001  0.000  0.000  0.000  0.000  0.000  0.235
tot    0.341  0.061  0.061  0.061  0.000  0.000  0.000  0.000  0.000  0.524
 
band     6 # energy   15.63157194 # occ.  0.00000000
 
ion      s     py     pz     px    dxy    dyz    dz2    dxz  x2-y2    tot
    1  0.000  0.112  0.061  0.286  0.000  0.000  0.000  0.000  0.000  0.458
    2  0.000  0.009  0.005  0.024  0.000  0.000  0.000  0.000  0.000  0.038
tot    0.000  0.121  0.066  0.309  0.000  0.000  0.000  0.000  0.000  0.496
 
band     7 # energy   15.63157198 # occ.  0.00000000
 
ion      s     py     pz     px    dxy    dyz    dz2    dxz  x2-y2    tot
    1  0.000  0.194  0.245  0.020  0.000  0.000  0.000  0.000  0.000  0.458
    2  0.000  0.016  0.020  0.002  0.000  0.000  0.000  0.000  0.000  0.038
tot    0.000  0.210  0.265  0.022  0.000  0.000  0.000  0.000  0.000  0.496
 
band     8 # energy   16.04430001 # occ.  0.00000000
 
ion      s     py     pz     px    dxy    dyz    dz2    dxz  x2-y2    tot
    1  0.090  0.045  0.045  0.045  0.000  0.000  0.000  0.000  0.000  0.225
    2  0.110  0.071  0.071  0.071  0.000  0.000  0.000  0.000  0.000  0.322
tot    0.200  0.116  0.116  0.116  0.000  0.000  0.000  0.000  0.000  0.547
 

 k-point   188 :   -0.18421053-0.18421053-0.18421053     weight = 0.00416667

band     1 # energy   -6.69667409 # occ.  2.00000000
 
ion      s     py     pz     px    dxy    dyz    dz2    dxz  x2-y2    tot
    1  0.228  0.004  0.004  0.004  0.000  0.000  0.000  0.000  0.000  0.241
    2  0.257  0.002  0.002  0.002  0.000  0.000  0.000  0.000  0.000  0.262
tot    0.485  0.006  0.006  0.006  0.000  0.000  0.000  0.000  0.000  0.502
 
band     2 # energy    5.18889012 # occ.  2.00000000
 
ion      s     py     pz     px    dxy    dyz    dz2    dxz  x2-y2    tot
    1  0.045  0.036  0.036  0.036  0.000  0.000  0.000  0.000  0.000  0.154
    2  0.079  0.093  0.093  0.093  0.000  0.000  0.000  0.000  0.000  0.358
tot    0.124  0.129  0.129  0.129  0.000  0.000  0.000  0.000  0.000  0.513
 
band     3 # energy    7.55510110 # occ.  2.00000000
 
ion      s     py     pz     px    dxy    dyz    dz2    dxz  x2-y2    tot
    1  0.000  0.050  0.000  0.049  0.000  0.000  0.000  0.000  0.000  0.099
    2  0.000  0.222  0.000  0.220  0.000  0.000  0.000  0.000  0.000  0.442
tot    0.000  0.272  0.000  0.269  0.000  0.000  0.000  0.000  0.000  0.541
 
band     4 # energy    7.55510110 # occ.  2.00000000
 
ion      s     py     pz     px    dxy    dyz    dz2    dxz  x2-y2    tot
    1  0.000  0.016  0.066  0.017  0.000  0.000  0.000  0.000  0.000  0.099
    2  0.000  0.073  0.295  0.075  0.000  0.000  0.000  0.000  0.000  0.442
tot    0.000  0.089  0.361  0.091  0.000  0.000  0.000  0.000  0.000  0.541
 
band     5 # energy   14.08089143 # occ.  0.00000000
 
ion      s     py     pz     px    dxy    dyz    dz2    dxz  x2-y2    tot
    1  0.127  0.058  0.058  0.058  0.000  0.000  0.000  0.000  0.000  0.301
    2  0.213  0.001  0.001  0.001  0.000  0.000  0.000  0.000  0.000  0.215
tot    0.340  0.059  0.059  0.059  0.000  0.000  0.000  0.000  0.000  0.516
 
band     6 # energy   15.71626105 # occ.  0.00000000
 
ion      s     py     pz     px    dxy    dyz    dz2    dxz  x2-y2    tot
    1  0.000  0.173  0.027  0.241  0.000  0.000  0.000  0.000  0.000  0.441
    2  0.000  0.017  0.003  0.023  0.000  0.000  0.000  0.000  0.000  0.043
tot    0.000  0.189  0.030  0.265  0.000  0.000  0.000  0.000  0.000  0.484
 
band     7 # energy   15.71626107 # occ.  0.00000000
 
ion      s     py     pz     px    dxy    dyz    dz2    dxz  x2-y2    tot
    1  0.000  0.121  0.267  0.053  0.000  0.000  0.000  0.000  0.000  0.441
    2  0.000  0.012  0.026  0.005  0.000  0.000  0.000  0.000  0.000  0.043
tot    0.000  0.133  0.293  0.058  0.000  0.000  0.000  0.000  0.000  0.484
 
band     8 # energy   16.38544731 # occ.  0.00000000
 
ion      s     py     pz     px    dxy    dyz    dz2    dxz  x2-y2    tot
    1  0.088  0.034  0.034  0.034  0.000  0.000  0.000  0.000  0.000  0.189
    2  0.108  0.084  0.084  0.084  0.000  0.000  0.000  0.000  0.000  0.360
tot    0.196  0.118  0.118  0.118  0.000  0.000  0.000  0.000  0.000  0.549
 

 k-point   189 :   -0.21052632-0.21052632-0.21052632     weight = 0.00416667

band     1 # energy   -6.50152803 # occ.  2.00000000
 
ion      s     py     pz     px    dxy    dyz    dz2    dxz  x2-y2    tot
    1  0.223  0.005  0.005  0.005  0.000  0.000  0.000  0.000  0.000  0.239
    2  0.259  0.002  0.002  0.002  0.000  0.000  0.000  0.000  0.000  0.265
tot    0.482  0.007  0.007  0.007  0.000  0.000  0.000  0.000  0.000  0.504
 
band     2 # energy    4.58781470 # occ.  2.00000000
 
ion      s     py     pz     px    dxy    dyz    dz2    dxz  x2-y2    tot
    1  0.054  0.038  0.038  0.038  0.000  0.000  0.000  0.000  0.000  0.169
    2  0.085  0.085  0.085  0.085  0.000  0.000  0.000  0.000  0.000  0.340
tot    0.140  0.123  0.123  0.123  0.000  0.000  0.000  0.000  0.000  0.509
 
band     3 # energy    7.46725314 # occ.  2.00000000
 
ion      s     py     pz     px    dxy    dyz    dz2    dxz  x2-y2    tot
    1  0.000  0.053  0.000  0.053  0.000  0.000  0.000  0.000  0.000  0.107
    2  0.000  0.218  0.000  0.218  0.000  0.000  0.000  0.000  0.000  0.437
tot    0.000  0.272  0.000  0.272  0.000  0.000  0.000  0.000  0.000  0.544
 
band     4 # energy    7.46725314 # occ.  2.00000000
 
ion      s     py     pz     px    dxy    dyz    dz2    dxz  x2-y2    tot
    1  0.000  0.018  0.071  0.018  0.000  0.000  0.000  0.000  0.000  0.107
    2  0.000  0.073  0.291  0.073  0.000  0.000  0.000  0.000  0.000  0.437
tot    0.000  0.091  0.363  0.091  0.000  0.000  0.000  0.000  0.000  0.544
 
band     5 # energy   13.96912380 # occ.  0.00000000
 
ion      s     py     pz     px    dxy    dyz    dz2    dxz  x2-y2    tot
    1  0.145  0.053  0.053  0.053  0.000  0.000  0.000  0.000  0.000  0.305
    2  0.203  0.000  0.000  0.000  0.000  0.000  0.000  0.000  0.000  0.204
tot    0.348  0.054  0.054  0.054  0.000  0.000  0.000  0.000  0.000  0.510
 
band     6 # energy   15.76501074 # occ.  0.00000000
 
ion      s     py     pz     px    dxy    dyz    dz2    dxz  x2-y2    tot
    1  0.000  0.120  0.042  0.257  0.000  0.000  0.000  0.000  0.000  0.420
    2  0.000  0.013  0.005  0.028  0.000  0.000  0.000  0.000  0.000  0.046
tot    0.000  0.134  0.046  0.285  0.000  0.000  0.000  0.000  0.000  0.465
 
band     7 # energy   15.76501074 # occ.  0.00000000
 
ion      s     py     pz     px    dxy    dyz    dz2    dxz  x2-y2    tot
    1  0.000  0.159  0.238  0.022  0.000  0.000  0.000  0.000  0.000  0.420
    2  0.000  0.017  0.026  0.002  0.000  0.000  0.000  0.000  0.000  0.046
tot    0.000  0.177  0.264  0.025  0.000  0.000  0.000  0.000  0.000  0.465
 
band     8 # energy   16.71829016 # occ.  0.00000000
 
ion      s     py     pz     px    dxy    dyz    dz2    dxz  x2-y2    tot
    1  0.082  0.026  0.026  0.026  0.000  0.000  0.000  0.000  0.000  0.161
    2  0.098  0.095  0.095  0.095  0.000  0.000  0.000  0.000  0.000  0.384
tot    0.180  0.122  0.122  0.122  0.000  0.000  0.000  0.000  0.000  0.545
 

 k-point   190 :   -0.23684211-0.23684211-0.23684211     weight = 0.00416667

band     1 # energy   -6.28279900 # occ.  2.00000000
 
ion      s     py     pz     px    dxy    dyz    dz2    dxz  x2-y2    tot
    1  0.218  0.007  0.007  0.007  0.000  0.000  0.000  0.000  0.000  0.238
    2  0.261  0.003  0.003  0.003  0.000  0.000  0.000  0.000  0.000  0.269
tot    0.479  0.009  0.009  0.009  0.000  0.000  0.000  0.000  0.000  0.507
 
band     2 # energy    3.98002927 # occ.  2.00000000
 
ion      s     py     pz     px    dxy    dyz    dz2    dxz  x2-y2    tot
    1  0.064  0.039  0.039  0.039  0.000  0.000  0.000  0.000  0.000  0.182
    2  0.090  0.078  0.078  0.078  0.000  0.000  0.000  0.000  0.000  0.324
tot    0.154  0.117  0.117  0.117  0.000  0.000  0.000  0.000  0.000  0.506
 
band     3 # energy    7.38021956 # occ.  2.00000000
 
ion      s     py     pz     px    dxy    dyz    dz2    dxz  x2-y2    tot
    1  0.000  0.057  0.000  0.058  0.000  0.000  0.000  0.000  0.000  0.115
    2  0.000  0.216  0.000  0.217  0.000  0.000  0.000  0.000  0.000  0.432
tot    0.000  0.273  0.000  0.274  0.000  0.000  0.000  0.000  0.000  0.547
 
band     4 # energy    7.38021956 # occ.  2.00000000
 
ion      s     py     pz     px    dxy    dyz    dz2    dxz  x2-y2    tot
    1  0.000  0.019  0.077  0.019  0.000  0.000  0.000  0.000  0.000  0.115
    2  0.000  0.072  0.288  0.072  0.000  0.000  0.000  0.000  0.000  0.432
tot    0.000  0.092  0.365  0.091  0.000  0.000  0.000  0.000  0.000  0.547
 
band     5 # energy   13.85579842 # occ.  0.00000000
 
ion      s     py     pz     px    dxy    dyz    dz2    dxz  x2-y2    tot
    1  0.163  0.047  0.047  0.047  0.000  0.000  0.000  0.000  0.000  0.306
    2  0.198  0.000  0.000  0.000  0.000  0.000  0.000  0.000  0.000  0.199
tot    0.362  0.048  0.048  0.048  0.000  0.000  0.000  0.000  0.000  0.505
 
band     6 # energy   15.77088489 # occ.  0.00000000
 
ion      s     py     pz     px    dxy    dyz    dz2    dxz  x2-y2    tot
    1  0.000  0.232  0.039  0.125  0.000  0.000  0.000  0.000  0.000  0.396
    2  0.000  0.027  0.005  0.015  0.000  0.000  0.000  0.000  0.000  0.047
tot    0.000  0.259  0.043  0.140  0.000  0.000  0.000  0.000  0.000  0.442
 
band     7 # energy   15.77088491 # occ.  0.00000000
 
ion      s     py     pz     px    dxy    dyz    dz2    dxz  x2-y2    tot
    1  0.000  0.032  0.225  0.138  0.000  0.000  0.000  0.000  0.000  0.396
    2  0.000  0.004  0.027  0.016  0.000  0.000  0.000  0.000  0.000  0.047
tot    0.000  0.036  0.252  0.155  0.000  0.000  0.000  0.000  0.000  0.442
 
band     8 # energy   17.02464360 # occ.  0.00000000
 
ion      s     py     pz     px    dxy    dyz    dz2    dxz  x2-y2    tot
    1  0.073  0.022  0.022  0.022  0.000  0.000  0.000  0.000  0.000  0.137
    2  0.084  0.104  0.104  0.104  0.000  0.000  0.000  0.000  0.000  0.398
tot    0.157  0.126  0.126  0.126  0.000  0.000  0.000  0.000  0.000  0.535
 

 k-point   191 :   -0.26315789-0.26315789-0.26315789     weight = 0.00416667

band     1 # energy   -6.04183346 # occ.  2.00000000
 
ion      s     py     pz     px    dxy    dyz    dz2    dxz  x2-y2    tot
    1  0.212  0.008  0.008  0.008  0.000  0.000  0.000  0.000  0.000  0.236
    2  0.265  0.003  0.003  0.003  0.000  0.000  0.000  0.000  0.000  0.274
tot    0.477  0.011  0.011  0.011  0.000  0.000  0.000  0.000  0.000  0.510
 
band     2 # energy    3.37345781 # occ.  2.00000000
 
ion      s     py     pz     px    dxy    dyz    dz2    dxz  x2-y2    tot
    1  0.074  0.040  0.040  0.040  0.000  0.000  0.000  0.000  0.000  0.195
    2  0.092  0.072  0.072  0.072  0.000  0.000  0.000  0.000  0.000  0.308
tot    0.166  0.112  0.112  0.112  0.000  0.000  0.000  0.000  0.000  0.502
 
band     3 # energy    7.29628740 # occ.  2.00000000
 
ion      s     py     pz     px    dxy    dyz    dz2    dxz  x2-y2    tot
    1  0.000  0.061  0.000  0.061  0.000  0.000  0.000  0.000  0.000  0.122
    2  0.000  0.215  0.000  0.213  0.000  0.000  0.000  0.000  0.000  0.428
tot    0.000  0.276  0.000  0.274  0.000  0.000  0.000  0.000  0.000  0.550
 
band     4 # energy    7.29628740 # occ.  2.00000000
 
ion      s     py     pz     px    dxy    dyz    dz2    dxz  x2-y2    tot
    1  0.000  0.020  0.082  0.021  0.000  0.000  0.000  0.000  0.000  0.122
    2  0.000  0.070  0.285  0.072  0.000  0.000  0.000  0.000  0.000  0.428
tot    0.000  0.091  0.367  0.093  0.000  0.000  0.000  0.000  0.000  0.550
 
band     5 # energy   13.74634631 # occ.  0.00000000
 
ion      s     py     pz     px    dxy    dyz    dz2    dxz  x2-y2    tot
    1  0.181  0.041  0.041  0.041  0.000  0.000  0.000  0.000  0.000  0.304
    2  0.196  0.000  0.000  0.000  0.000  0.000  0.000  0.000  0.000  0.197
tot    0.377  0.041  0.041  0.041  0.000  0.000  0.000  0.000  0.000  0.501
 
band     6 # energy   15.73527192 # occ.  0.00000000
 
ion      s     py     pz     px    dxy    dyz    dz2    dxz  x2-y2    tot
    1  0.000  0.029  0.218  0.124  0.000  0.000  0.000  0.000  0.000  0.371
    2  0.000  0.004  0.027  0.015  0.000  0.000  0.000  0.000  0.000  0.046
tot    0.000  0.033  0.244  0.139  0.000  0.000  0.000  0.000  0.000  0.416
 
band     7 # energy   15.73527195 # occ.  0.00000000
 
ion      s     py     pz     px    dxy    dyz    dz2    dxz  x2-y2    tot
    1  0.000  0.218  0.030  0.123  0.000  0.000  0.000  0.000  0.000  0.371
    2  0.000  0.027  0.004  0.015  0.000  0.000  0.000  0.000  0.000  0.046
tot    0.000  0.245  0.033  0.138  0.000  0.000  0.000  0.000  0.000  0.416
 
band     8 # energy   17.29068256 # occ.  0.00000000
 
ion      s     py     pz     px    dxy    dyz    dz2    dxz  x2-y2    tot
    1  0.062  0.018  0.018  0.018  0.000  0.000  0.000  0.000  0.000  0.116
    2  0.069  0.111  0.111  0.111  0.000  0.000  0.000  0.000  0.000  0.402
tot    0.131  0.129  0.129  0.129  0.000  0.000  0.000  0.000  0.000  0.519
 

 k-point   192 :   -0.28947368-0.28947368-0.28947368     weight = 0.00416667

band     1 # energy   -5.78037142 # occ.  2.00000000
 
ion      s     py     pz     px    dxy    dyz    dz2    dxz  x2-y2    tot
    1  0.206  0.009  0.009  0.009  0.000  0.000  0.000  0.000  0.000  0.234
    2  0.269  0.003  0.003  0.003  0.000  0.000  0.000  0.000  0.000  0.279
tot    0.474  0.013  0.013  0.013  0.000  0.000  0.000  0.000  0.000  0.513
 
band     2 # energy    2.77500096 # occ.  2.00000000
 
ion      s     py     pz     px    dxy    dyz    dz2    dxz  x2-y2    tot
    1  0.084  0.041  0.041  0.041  0.000  0.000  0.000  0.000  0.000  0.206
    2  0.092  0.067  0.067  0.067  0.000  0.000  0.000  0.000  0.000  0.293
tot    0.176  0.107  0.107  0.107  0.000  0.000  0.000  0.000  0.000  0.498
 
band     3 # energy    7.21735776 # occ.  2.00000000
 
ion      s     py     pz     px    dxy    dyz    dz2    dxz  x2-y2    tot
    1  0.000  0.065  0.000  0.065  0.000  0.000  0.000  0.000  0.000  0.129
    2  0.000  0.212  0.000  0.212  0.000  0.000  0.000  0.000  0.000  0.424
tot    0.000  0.277  0.000  0.277  0.000  0.000  0.000  0.000  0.000  0.553
 
band     4 # energy    7.21735776 # occ.  2.00000000
 
ion      s     py     pz     px    dxy    dyz    dz2    dxz  x2-y2    tot
    1  0.000  0.022  0.086  0.022  0.000  0.000  0.000  0.000  0.000  0.129
    2  0.000  0.071  0.283  0.071  0.000  0.000  0.000  0.000  0.000  0.424
tot    0.000  0.092  0.369  0.092  0.000  0.000  0.000  0.000  0.000  0.553
 
band     5 # energy   13.64428435 # occ.  0.00000000
 
ion      s     py     pz     px    dxy    dyz    dz2    dxz  x2-y2    tot
    1  0.196  0.035  0.035  0.035  0.000  0.000  0.000  0.000  0.000  0.301
    2  0.196  0.000  0.000  0.000  0.000  0.000  0.000  0.000  0.000  0.197
tot    0.392  0.035  0.035  0.035  0.000  0.000  0.000  0.000  0.000  0.498
 
band     6 # energy   15.66652358 # occ.  0.00000000
 
ion      s     py     pz     px    dxy    dyz    dz2    dxz  x2-y2    tot
    1  0.000  0.016  0.135  0.196  0.000  0.000  0.000  0.000  0.000  0.347
    2  0.000  0.002  0.017  0.025  0.000  0.000  0.000  0.000  0.000  0.044
tot    0.000  0.018  0.152  0.220  0.000  0.000  0.000  0.000  0.000  0.391
 
band     7 # energy   15.66652371 # occ.  0.00000000
 
ion      s     py     pz     px    dxy    dyz    dz2    dxz  x2-y2    tot
    1  0.000  0.215  0.096  0.036  0.000  0.000  0.000  0.000  0.000  0.347
    2  0.000  0.027  0.012  0.004  0.000  0.000  0.000  0.000  0.000  0.044
tot    0.000  0.242  0.108  0.040  0.000  0.000  0.000  0.000  0.000  0.391
 
band     8 # energy   17.50739183 # occ.  0.00000000
 
ion      s     py     pz     px    dxy    dyz    dz2    dxz  x2-y2    tot
    1  0.050  0.015  0.015  0.015  0.000  0.000  0.000  0.000  0.000  0.096
    2  0.055  0.115  0.115  0.115  0.000  0.000  0.000  0.000  0.000  0.399
tot    0.105  0.130  0.130  0.130  0.000  0.000  0.000  0.000  0.000  0.496
 

 k-point   193 :   -0.31578947-0.31578947-0.31578947     weight = 0.00416667

band     1 # energy   -5.50102047 # occ.  2.00000000
 
ion      s     py     pz     px    dxy    dyz    dz2    dxz  x2-y2    tot
    1  0.198  0.011  0.011  0.011  0.000  0.000  0.000  0.000  0.000  0.231
    2  0.274  0.004  0.004  0.004  0.000  0.000  0.000  0.000  0.000  0.286
tot    0.472  0.015  0.015  0.015  0.000  0.000  0.000  0.000  0.000  0.517
 
band     2 # energy    2.19110961 # occ.  2.00000000
 
ion      s     py     pz     px    dxy    dyz    dz2    dxz  x2-y2    tot
    1  0.095  0.041  0.041  0.041  0.000  0.000  0.000  0.000  0.000  0.217
    2  0.090  0.062  0.062  0.062  0.000  0.000  0.000  0.000  0.000  0.278
tot    0.185  0.103  0.103  0.103  0.000  0.000  0.000  0.000  0.000  0.494
 
band     3 # energy    7.14495677 # occ.  2.00000000
 
ion      s     py     pz     px    dxy    dyz    dz2    dxz  x2-y2    tot
    1  0.000  0.068  0.000  0.068  0.000  0.000  0.000  0.000  0.000  0.135
    2  0.000  0.210  0.000  0.211  0.000  0.000  0.000  0.000  0.000  0.421
tot    0.000  0.278  0.000  0.278  0.000  0.000  0.000  0.000  0.000  0.556
 
band     4 # energy    7.14495677 # occ.  2.00000000
 
ion      s     py     pz     px    dxy    dyz    dz2    dxz  x2-y2    tot
    1  0.000  0.023  0.090  0.022  0.000  0.000  0.000  0.000  0.000  0.135
    2  0.000  0.070  0.281  0.070  0.000  0.000  0.000  0.000  0.000  0.421
tot    0.000  0.093  0.371  0.093  0.000  0.000  0.000  0.000  0.000  0.556
 
band     5 # energy   13.55183162 # occ.  0.00000000
 
ion      s     py     pz     px    dxy    dyz    dz2    dxz  x2-y2    tot
    1  0.210  0.029  0.029  0.029  0.000  0.000  0.000  0.000  0.000  0.298
    2  0.197  0.000  0.000  0.000  0.000  0.000  0.000  0.000  0.000  0.197
tot    0.407  0.029  0.029  0.029  0.000  0.000  0.000  0.000  0.000  0.495
 
band     6 # energy   15.57639273 # occ.  0.00000000
 
ion      s     py     pz     px    dxy    dyz    dz2    dxz  x2-y2    tot
    1  0.000  0.117  0.119  0.091  0.000  0.000  0.000  0.000  0.000  0.327
    2  0.000  0.015  0.015  0.011  0.000  0.000  0.000  0.000  0.000  0.041
tot    0.000  0.132  0.133  0.102  0.000  0.000  0.000  0.000  0.000  0.368
 
band     7 # energy   15.57639274 # occ.  0.00000000
 
ion      s     py     pz     px    dxy    dyz    dz2    dxz  x2-y2    tot
    1  0.000  0.101  0.099  0.127  0.000  0.000  0.000  0.000  0.000  0.327
    2  0.000  0.013  0.012  0.016  0.000  0.000  0.000  0.000  0.000  0.041
tot    0.000  0.113  0.112  0.143  0.000  0.000  0.000  0.000  0.000  0.368
 
band     8 # energy   17.67091577 # occ.  0.00000000
 
ion      s     py     pz     px    dxy    dyz    dz2    dxz  x2-y2    tot
    1  0.039  0.013  0.013  0.013  0.000  0.000  0.000  0.000  0.000  0.078
    2  0.042  0.116  0.116  0.116  0.000  0.000  0.000  0.000  0.000  0.390
tot    0.081  0.129  0.129  0.129  0.000  0.000  0.000  0.000  0.000  0.468
 

 k-point   194 :   -0.34210526-0.34210526-0.34210526     weight = 0.00416667

band     1 # energy   -5.20756271 # occ.  2.00000000
 
ion      s     py     pz     px    dxy    dyz    dz2    dxz  x2-y2    tot
    1  0.190  0.012  0.012  0.012  0.000  0.000  0.000  0.000  0.000  0.228
    2  0.281  0.004  0.004  0.004  0.000  0.000  0.000  0.000  0.000  0.294
tot    0.472  0.017  0.017  0.017  0.000  0.000  0.000  0.000  0.000  0.521
 
band     2 # energy    1.62866620 # occ.  2.00000000
 
ion      s     py     pz     px    dxy    dyz    dz2    dxz  x2-y2    tot
    1  0.105  0.040  0.040  0.040  0.000  0.000  0.000  0.000  0.000  0.227
    2  0.086  0.059  0.059  0.059  0.000  0.000  0.000  0.000  0.000  0.263
tot    0.191  0.099  0.099  0.099  0.000  0.000  0.000  0.000  0.000  0.489
 
band     3 # energy    7.08029270 # occ.  2.00000000
 
ion      s     py     pz     px    dxy    dyz    dz2    dxz  x2-y2    tot
    1  0.000  0.070  0.000  0.070  0.000  0.000  0.000  0.000  0.000  0.140
    2  0.000  0.210  0.000  0.209  0.000  0.000  0.000  0.000  0.000  0.418
tot    0.000  0.280  0.000  0.279  0.000  0.000  0.000  0.000  0.000  0.559
 
band     4 # energy    7.08029270 # occ.  2.00000000
 
ion      s     py     pz     px    dxy    dyz    dz2    dxz  x2-y2    tot
    1  0.000  0.023  0.094  0.024  0.000  0.000  0.000  0.000  0.000  0.140
    2  0.000  0.069  0.279  0.070  0.000  0.000  0.000  0.000  0.000  0.418
tot    0.000  0.092  0.372  0.094  0.000  0.000  0.000  0.000  0.000  0.559
 
band     5 # energy   13.47042898 # occ.  0.00000000
 
ion      s     py     pz     px    dxy    dyz    dz2    dxz  x2-y2    tot
    1  0.223  0.024  0.024  0.024  0.000  0.000  0.000  0.000  0.000  0.295
    2  0.198  0.000  0.000  0.000  0.000  0.000  0.000  0.000  0.000  0.199
tot    0.421  0.024  0.024  0.024  0.000  0.000  0.000  0.000  0.000  0.494
 
band     6 # energy   15.47677836 # occ.  0.00000000
 
ion      s     py     pz     px    dxy    dyz    dz2    dxz  x2-y2    tot
    1  0.000  0.096  0.023  0.191  0.000  0.000  0.000  0.000  0.000  0.310
    2  0.000  0.012  0.003  0.024  0.000  0.000  0.000  0.000  0.000  0.038
tot    0.000  0.107  0.026  0.215  0.000  0.000  0.000  0.000  0.000  0.348
 
band     7 # energy   15.47677836 # occ.  0.00000000
 
ion      s     py     pz     px    dxy    dyz    dz2    dxz  x2-y2    tot
    1  0.000  0.111  0.184  0.015  0.000  0.000  0.000  0.000  0.000  0.310
    2  0.000  0.014  0.023  0.002  0.000  0.000  0.000  0.000  0.000  0.038
tot    0.000  0.125  0.206  0.017  0.000  0.000  0.000  0.000  0.000  0.348
 
band     8 # energy   17.78402151 # occ.  0.00000000
 
ion      s     py     pz     px    dxy    dyz    dz2    dxz  x2-y2    tot
    1  0.029  0.011  0.011  0.011  0.000  0.000  0.000  0.000  0.000  0.062
    2  0.032  0.115  0.115  0.115  0.000  0.000  0.000  0.000  0.000  0.377
tot    0.061  0.126  0.126  0.126  0.000  0.000  0.000  0.000  0.000  0.439
 

 k-point   195 :   -0.36842105-0.36842105-0.36842105     weight = 0.00416667

band     1 # energy   -4.90581081 # occ.  2.00000000
 
ion      s     py     pz     px    dxy    dyz    dz2    dxz  x2-y2    tot
    1  0.182  0.014  0.014  0.014  0.000  0.000  0.000  0.000  0.000  0.224
    2  0.290  0.004  0.004  0.004  0.000  0.000  0.000  0.000  0.000  0.303
tot    0.472  0.018  0.018  0.018  0.000  0.000  0.000  0.000  0.000  0.527
 
band     2 # energy    1.09576549 # occ.  2.00000000
 
ion      s     py     pz     px    dxy    dyz    dz2    dxz  x2-y2    tot
    1  0.116  0.040  0.040  0.040  0.000  0.000  0.000  0.000  0.000  0.237
    2  0.079  0.056  0.056  0.056  0.000  0.000  0.000  0.000  0.000  0.247
tot    0.195  0.096  0.096  0.096  0.000  0.000  0.000  0.000  0.000  0.484
 
band     3 # energy    7.02429709 # occ.  2.00000000
 
ion      s     py     pz     px    dxy    dyz    dz2    dxz  x2-y2    tot
    1  0.000  0.072  0.000  0.072  0.000  0.000  0.000  0.000  0.000  0.145
    2  0.000  0.208  0.000  0.208  0.000  0.000  0.000  0.000  0.000  0.416
tot    0.000  0.281  0.000  0.280  0.000  0.000  0.000  0.000  0.000  0.561
 
band     4 # energy    7.02429709 # occ.  2.00000000
 
ion      s     py     pz     px    dxy    dyz    dz2    dxz  x2-y2    tot
    1  0.000  0.024  0.097  0.024  0.000  0.000  0.000  0.000  0.000  0.145
    2  0.000  0.069  0.277  0.070  0.000  0.000  0.000  0.000  0.000  0.416
tot    0.000  0.093  0.374  0.094  0.000  0.000  0.000  0.000  0.000  0.561
 
band     5 # energy   13.40090337 # occ.  0.00000000
 
ion      s     py     pz     px    dxy    dyz    dz2    dxz  x2-y2    tot
    1  0.233  0.020  0.020  0.020  0.000  0.000  0.000  0.000  0.000  0.292
    2  0.200  0.000  0.000  0.000  0.000  0.000  0.000  0.000  0.000  0.200
tot    0.433  0.020  0.020  0.020  0.000  0.000  0.000  0.000  0.000  0.492
 
band     6 # energy   15.37787677 # occ.  0.00000000
 
ion      s     py     pz     px    dxy    dyz    dz2    dxz  x2-y2    tot
    1  0.000  0.050  0.049  0.198  0.000  0.000  0.000  0.000  0.000  0.297
    2  0.000  0.006  0.006  0.024  0.000  0.000  0.000  0.000  0.000  0.035
tot    0.000  0.056  0.054  0.221  0.000  0.000  0.000  0.000  0.000  0.332
 
band     7 # energy   15.37787677 # occ.  0.00000000
 
ion      s     py     pz     px    dxy    dyz    dz2    dxz  x2-y2    tot
    1  0.000  0.147  0.149  0.000  0.000  0.000  0.000  0.000  0.000  0.297
    2  0.000  0.018  0.018  0.000  0.000  0.000  0.000  0.000  0.000  0.035
tot    0.000  0.165  0.167  0.000  0.000  0.000  0.000  0.000  0.000  0.332
 
band     8 # energy   17.85404086 # occ.  0.00000000
 
ion      s     py     pz     px    dxy    dyz    dz2    dxz  x2-y2    tot
    1  0.021  0.010  0.010  0.010  0.000  0.000  0.000  0.000  0.000  0.049
    2  0.025  0.112  0.112  0.112  0.000  0.000  0.000  0.000  0.000  0.361
tot    0.046  0.122  0.122  0.122  0.000  0.000  0.000  0.000  0.000  0.411
 

 k-point   196 :   -0.39473684-0.39473684-0.39473684     weight = 0.00416667

band     1 # energy   -4.60473337 # occ.  2.00000000
 
ion      s     py     pz     px    dxy    dyz    dz2    dxz  x2-y2    tot
    1  0.173  0.015  0.015  0.015  0.000  0.000  0.000  0.000  0.000  0.219
    2  0.302  0.004  0.004  0.004  0.000  0.000  0.000  0.000  0.000  0.314
tot    0.475  0.019  0.019  0.019  0.000  0.000  0.000  0.000  0.000  0.533
 
band     2 # energy    0.60337740 # occ.  2.00000000
 
ion      s     py     pz     px    dxy    dyz    dz2    dxz  x2-y2    tot
    1  0.128  0.040  0.040  0.040  0.000  0.000  0.000  0.000  0.000  0.246
    2  0.069  0.054  0.054  0.054  0.000  0.000  0.000  0.000  0.000  0.231
tot    0.196  0.094  0.094  0.094  0.000  0.000  0.000  0.000  0.000  0.477
 
band     3 # energy    6.97767875 # occ.  2.00000000
 
ion      s     py     pz     px    dxy    dyz    dz2    dxz  x2-y2    tot
    1  0.000  0.074  0.000  0.074  0.000  0.000  0.000  0.000  0.000  0.148
    2  0.000  0.207  0.000  0.207  0.000  0.000  0.000  0.000  0.000  0.414
tot    0.000  0.282  0.000  0.281  0.000  0.000  0.000  0.000  0.000  0.563
 
band     4 # energy    6.97767875 # occ.  2.00000000
 
ion      s     py     pz     px    dxy    dyz    dz2    dxz  x2-y2    tot
    1  0.000  0.025  0.099  0.025  0.000  0.000  0.000  0.000  0.000  0.148
    2  0.000  0.069  0.276  0.069  0.000  0.000  0.000  0.000  0.000  0.414
tot    0.000  0.094  0.375  0.094  0.000  0.000  0.000  0.000  0.000  0.563
 
band     5 # energy   13.34376369 # occ.  0.00000000
 
ion      s     py     pz     px    dxy    dyz    dz2    dxz  x2-y2    tot
    1  0.242  0.016  0.016  0.016  0.000  0.000  0.000  0.000  0.000  0.290
    2  0.201  0.000  0.000  0.000  0.000  0.000  0.000  0.000  0.000  0.201
tot    0.443  0.016  0.016  0.016  0.000  0.000  0.000  0.000  0.000  0.491
 
band     6 # energy   15.28773046 # occ.  0.00000000
 
ion      s     py     pz     px    dxy    dyz    dz2    dxz  x2-y2    tot
    1  0.000  0.106  0.013  0.167  0.000  0.000  0.000  0.000  0.000  0.287
    2  0.000  0.012  0.002  0.019  0.000  0.000  0.000  0.000  0.000  0.033
tot    0.000  0.118  0.015  0.187  0.000  0.000  0.000  0.000  0.000  0.320
 
band     7 # energy   15.28773046 # occ.  0.00000000
 
ion      s     py     pz     px    dxy    dyz    dz2    dxz  x2-y2    tot
    1  0.000  0.085  0.178  0.024  0.000  0.000  0.000  0.000  0.000  0.287
    2  0.000  0.010  0.021  0.003  0.000  0.000  0.000  0.000  0.000  0.033
tot    0.000  0.095  0.198  0.026  0.000  0.000  0.000  0.000  0.000  0.320
 
band     8 # energy   17.89211951 # occ.  0.00000000
 
ion      s     py     pz     px    dxy    dyz    dz2    dxz  x2-y2    tot
    1  0.014  0.008  0.008  0.008  0.000  0.000  0.000  0.000  0.000  0.039
    2  0.020  0.109  0.109  0.109  0.000  0.000  0.000  0.000  0.000  0.347
tot    0.035  0.117  0.117  0.117  0.000  0.000  0.000  0.000  0.000  0.386
 

 k-point   197 :   -0.42105263-0.42105263-0.42105263     weight = 0.00416667

band     1 # energy   -4.31908587 # occ.  2.00000000
 
ion      s     py     pz     px    dxy    dyz    dz2    dxz  x2-y2    tot
    1  0.164  0.016  0.016  0.016  0.000  0.000  0.000  0.000  0.000  0.213
    2  0.317  0.003  0.003  0.003  0.000  0.000  0.000  0.000  0.000  0.328
tot    0.481  0.020  0.020  0.020  0.000  0.000  0.000  0.000  0.000  0.540
 
band     2 # energy    0.16756573 # occ.  2.00000000
 
ion      s     py     pz     px    dxy    dyz    dz2    dxz  x2-y2    tot
    1  0.139  0.039  0.039  0.039  0.000  0.000  0.000  0.000  0.000  0.256
    2  0.055  0.053  0.053  0.053  0.000  0.000  0.000  0.000  0.000  0.214
tot    0.194  0.092  0.092  0.092  0.000  0.000  0.000  0.000  0.000  0.470
 
band     3 # energy    6.94095210 # occ.  2.00000000
 
ion      s     py     pz     px    dxy    dyz    dz2    dxz  x2-y2    tot
    1  0.000  0.075  0.000  0.076  0.000  0.000  0.000  0.000  0.000  0.151
    2  0.000  0.206  0.000  0.207  0.000  0.000  0.000  0.000  0.000  0.413
tot    0.000  0.281  0.000  0.283  0.000  0.000  0.000  0.000  0.000  0.564
 
band     4 # energy    6.94095210 # occ.  2.00000000
 
ion      s     py     pz     px    dxy    dyz    dz2    dxz  x2-y2    tot
    1  0.000  0.025  0.101  0.025  0.000  0.000  0.000  0.000  0.000  0.151
    2  0.000  0.070  0.275  0.068  0.000  0.000  0.000  0.000  0.000  0.413
tot    0.000  0.095  0.376  0.093  0.000  0.000  0.000  0.000  0.000  0.564
 
band     5 # energy   13.29924362 # occ.  0.00000000
 
ion      s     py     pz     px    dxy    dyz    dz2    dxz  x2-y2    tot
    1  0.248  0.013  0.013  0.013  0.000  0.000  0.000  0.000  0.000  0.288
    2  0.202  0.000  0.000  0.000  0.000  0.000  0.000  0.000  0.000  0.203
tot    0.451  0.013  0.013  0.013  0.000  0.000  0.000  0.000  0.000  0.491
 
band     6 # energy   15.21226559 # occ.  0.00000000
 
ion      s     py     pz     px    dxy    dyz    dz2    dxz  x2-y2    tot
    1  0.000  0.132  0.136  0.011  0.000  0.000  0.000  0.000  0.000  0.279
    2  0.000  0.015  0.015  0.001  0.000  0.000  0.000  0.000  0.000  0.031
tot    0.000  0.147  0.151  0.012  0.000  0.000  0.000  0.000  0.000  0.311
 
band     7 # energy   15.21226559 # occ.  0.00000000
 
ion      s     py     pz     px    dxy    dyz    dz2    dxz  x2-y2    tot
    1  0.000  0.054  0.050  0.175  0.000  0.000  0.000  0.000  0.000  0.279
    2  0.000  0.006  0.006  0.020  0.000  0.000  0.000  0.000  0.000  0.031
tot    0.000  0.060  0.056  0.195  0.000  0.000  0.000  0.000  0.000  0.311
 
band     8 # energy   17.90898937 # occ.  0.00000000
 
ion      s     py     pz     px    dxy    dyz    dz2    dxz  x2-y2    tot
    1  0.010  0.007  0.007  0.007  0.000  0.000  0.000  0.000  0.000  0.031
    2  0.017  0.106  0.106  0.106  0.000  0.000  0.000  0.000  0.000  0.335
tot    0.027  0.113  0.113  0.113  0.000  0.000  0.000  0.000  0.000  0.366
 

 k-point   198 :   -0.44736842-0.44736842-0.44736842     weight = 0.00416667

band     1 # energy   -4.07225786 # occ.  2.00000000
 
ion      s     py     pz     px    dxy    dyz    dz2    dxz  x2-y2    tot
    1  0.154  0.017  0.017  0.017  0.000  0.000  0.000  0.000  0.000  0.206
    2  0.334  0.003  0.003  0.003  0.000  0.000  0.000  0.000  0.000  0.342
tot    0.489  0.020  0.020  0.020  0.000  0.000  0.000  0.000  0.000  0.548
 
band     2 # energy   -0.18721332 # occ.  2.00000000
 
ion      s     py     pz     px    dxy    dyz    dz2    dxz  x2-y2    tot
    1  0.149  0.039  0.039  0.039  0.000  0.000  0.000  0.000  0.000  0.265
    2  0.039  0.053  0.053  0.053  0.000  0.000  0.000  0.000  0.000  0.197
tot    0.188  0.091  0.091  0.091  0.000  0.000  0.000  0.000  0.000  0.462
 
band     3 # energy    6.91448431 # occ.  2.00000000
 
ion      s     py     pz     px    dxy    dyz    dz2    dxz  x2-y2    tot
    1  0.000  0.077  0.000  0.077  0.000  0.000  0.000  0.000  0.000  0.153
    2  0.000  0.206  0.000  0.206  0.000  0.000  0.000  0.000  0.000  0.412
tot    0.000  0.283  0.000  0.283  0.000  0.000  0.000  0.000  0.000  0.566
 
band     4 # energy    6.91448431 # occ.  2.00000000
 
ion      s     py     pz     px    dxy    dyz    dz2    dxz  x2-y2    tot
    1  0.000  0.026  0.102  0.026  0.000  0.000  0.000  0.000  0.000  0.153
    2  0.000  0.069  0.275  0.069  0.000  0.000  0.000  0.000  0.000  0.412
tot    0.000  0.094  0.377  0.094  0.000  0.000  0.000  0.000  0.000  0.566
 
band     5 # energy   13.26744354 # occ.  0.00000000
 
ion      s     py     pz     px    dxy    dyz    dz2    dxz  x2-y2    tot
    1  0.253  0.011  0.011  0.011  0.000  0.000  0.000  0.000  0.000  0.287
    2  0.203  0.000  0.000  0.000  0.000  0.000  0.000  0.000  0.000  0.204
tot    0.456  0.011  0.011  0.011  0.000  0.000  0.000  0.000  0.000  0.490
 
band     6 # energy   15.15566239 # occ.  0.00000000
 
ion      s     py     pz     px    dxy    dyz    dz2    dxz  x2-y2    tot
    1  0.000  0.175  0.082  0.018  0.000  0.000  0.000  0.000  0.000  0.274
    2  0.000  0.019  0.009  0.002  0.000  0.000  0.000  0.000  0.000  0.030
tot    0.000  0.194  0.091  0.020  0.000  0.000  0.000  0.000  0.000  0.304
 
band     7 # energy   15.15566239 # occ.  0.00000000
 
ion      s     py     pz     px    dxy    dyz    dz2    dxz  x2-y2    tot
    1  0.000  0.008  0.101  0.165  0.000  0.000  0.000  0.000  0.000  0.274
    2  0.000  0.001  0.011  0.018  0.000  0.000  0.000  0.000  0.000  0.030
tot    0.000  0.009  0.112  0.183  0.000  0.000  0.000  0.000  0.000  0.304
 
band     8 # energy   17.91401331 # occ.  0.00000000
 
ion      s     py     pz     px    dxy    dyz    dz2    dxz  x2-y2    tot
    1  0.007  0.006  0.006  0.006  0.000  0.000  0.000  0.000  0.000  0.026
    2  0.016  0.103  0.103  0.103  0.000  0.000  0.000  0.000  0.000  0.326
tot    0.023  0.110  0.110  0.110  0.000  0.000  0.000  0.000  0.000  0.351
 

 k-point   199 :   -0.47368421-0.47368421-0.47368421     weight = 0.00416667

band     1 # energy   -3.89833132 # occ.  2.00000000
 
ion      s     py     pz     px    dxy    dyz    dz2    dxz  x2-y2    tot
    1  0.147  0.018  0.018  0.018  0.000  0.000  0.000  0.000  0.000  0.200
    2  0.350  0.002  0.002  0.002  0.000  0.000  0.000  0.000  0.000  0.354
tot    0.497  0.019  0.019  0.019  0.000  0.000  0.000  0.000  0.000  0.554
 
band     2 # energy   -0.42618552 # occ.  2.00000000
 
ion      s     py     pz     px    dxy    dyz    dz2    dxz  x2-y2    tot
    1  0.157  0.038  0.038  0.038  0.000  0.000  0.000  0.000  0.000  0.272
    2  0.024  0.053  0.053  0.053  0.000  0.000  0.000  0.000  0.000  0.183
tot    0.181  0.092  0.092  0.092  0.000  0.000  0.000  0.000  0.000  0.455
 
band     3 # energy    6.89851420 # occ.  2.00000000
 
ion      s     py     pz     px    dxy    dyz    dz2    dxz  x2-y2    tot
    1  0.000  0.077  0.000  0.077  0.000  0.000  0.000  0.000  0.000  0.154
    2  0.000  0.206  0.000  0.206  0.000  0.000  0.000  0.000  0.000  0.412
tot    0.000  0.283  0.000  0.283  0.000  0.000  0.000  0.000  0.000  0.566
 
band     4 # energy    6.89851420 # occ.  2.00000000
 
ion      s     py     pz     px    dxy    dyz    dz2    dxz  x2-y2    tot
    1  0.000  0.026  0.103  0.026  0.000  0.000  0.000  0.000  0.000  0.154
    2  0.000  0.069  0.275  0.069  0.000  0.000  0.000  0.000  0.000  0.412
tot    0.000  0.094  0.378  0.094  0.000  0.000  0.000  0.000  0.000  0.566
 
band     5 # energy   13.24837144 # occ.  0.00000000
 
ion      s     py     pz     px    dxy    dyz    dz2    dxz  x2-y2    tot
    1  0.256  0.010  0.010  0.010  0.000  0.000  0.000  0.000  0.000  0.286
    2  0.204  0.000  0.000  0.000  0.000  0.000  0.000  0.000  0.000  0.204
tot    0.460  0.010  0.010  0.010  0.000  0.000  0.000  0.000  0.000  0.490
 
band     6 # energy   15.12066976 # occ.  0.00000000
 
ion      s     py     pz     px    dxy    dyz    dz2    dxz  x2-y2    tot
    1  0.000  0.162  0.018  0.091  0.000  0.000  0.000  0.000  0.000  0.271
    2  0.000  0.018  0.002  0.010  0.000  0.000  0.000  0.000  0.000  0.029
tot    0.000  0.180  0.020  0.100  0.000  0.000  0.000  0.000  0.000  0.301
 
band     7 # energy   15.12066976 # occ.  0.00000000
 
ion      s     py     pz     px    dxy    dyz    dz2    dxz  x2-y2    tot
    1  0.000  0.019  0.163  0.090  0.000  0.000  0.000  0.000  0.000  0.271
    2  0.000  0.002  0.018  0.010  0.000  0.000  0.000  0.000  0.000  0.029
tot    0.000  0.021  0.180  0.100  0.000  0.000  0.000  0.000  0.000  0.301
 
band     8 # energy   17.91423593 # occ.  0.00000000
 
ion      s     py     pz     px    dxy    dyz    dz2    dxz  x2-y2    tot
    1  0.005  0.006  0.006  0.006  0.000  0.000  0.000  0.000  0.000  0.023
    2  0.015  0.102  0.102  0.102  0.000  0.000  0.000  0.000  0.000  0.320
tot    0.020  0.108  0.108  0.108  0.000  0.000  0.000  0.000  0.000  0.343
 

 k-point   200 :   -0.50000000-0.50000000-0.50000000     weight = 0.00416667

band     1 # energy   -3.83448245 # occ.  2.00000000
 
ion      s     py     pz     px    dxy    dyz    dz2    dxz  x2-y2    tot
    1  0.144  0.018  0.018  0.018  0.000  0.000  0.000  0.000  0.000  0.198
    2  0.356  0.001  0.001  0.001  0.000  0.000  0.000  0.000  0.000  0.359
tot    0.501  0.019  0.019  0.019  0.000  0.000  0.000  0.000  0.000  0.557
 
band     2 # energy   -0.51174913 # occ.  2.00000000
 
ion      s     py     pz     px    dxy    dyz    dz2    dxz  x2-y2    tot
    1  0.160  0.038  0.038  0.038  0.000  0.000  0.000  0.000  0.000  0.275
    2  0.017  0.053  0.053  0.053  0.000  0.000  0.000  0.000  0.000  0.178
tot    0.177  0.092  0.092  0.092  0.000  0.000  0.000  0.000  0.000  0.453
 
band     3 # energy    6.89317922 # occ.  2.00000000
 
ion      s     py     pz     px    dxy    dyz    dz2    dxz  x2-y2    tot
    1  0.000  0.077  0.000  0.078  0.000  0.000  0.000  0.000  0.000  0.155
    2  0.000  0.205  0.000  0.207  0.000  0.000  0.000  0.000  0.000  0.412
tot    0.000  0.281  0.000  0.285  0.000  0.000  0.000  0.000  0.000  0.566
 
band     4 # energy    6.89317922 # occ.  2.00000000
 
ion      s     py     pz     px    dxy    dyz    dz2    dxz  x2-y2    tot
    1  0.000  0.026  0.103  0.025  0.000  0.000  0.000  0.000  0.000  0.155
    2  0.000  0.070  0.274  0.067  0.000  0.000  0.000  0.000  0.000  0.412
tot    0.000  0.096  0.378  0.093  0.000  0.000  0.000  0.000  0.000  0.566
 
band     5 # energy   13.24201722 # occ.  0.00000000
 
ion      s     py     pz     px    dxy    dyz    dz2    dxz  x2-y2    tot
    1  0.257  0.009  0.009  0.009  0.000  0.000  0.000  0.000  0.000  0.286
    2  0.204  0.000  0.000  0.000  0.000  0.000  0.000  0.000  0.000  0.204
tot    0.461  0.010  0.010  0.010  0.000  0.000  0.000  0.000  0.000  0.490
 
band     6 # energy   15.10884409 # occ.  0.00000000
 
ion      s     py     pz     px    dxy    dyz    dz2    dxz  x2-y2    tot
    1  0.000  0.087  0.161  0.022  0.000  0.000  0.000  0.000  0.000  0.270
    2  0.000  0.009  0.017  0.002  0.000  0.000  0.000  0.000  0.000  0.029
tot    0.000  0.097  0.178  0.024  0.000  0.000  0.000  0.000  0.000  0.299
 
band     7 # energy   15.10884409 # occ.  0.00000000
 
ion      s     py     pz     px    dxy    dyz    dz2    dxz  x2-y2    tot
    1  0.000  0.093  0.019  0.158  0.000  0.000  0.000  0.000  0.000  0.270
    2  0.000  0.010  0.002  0.017  0.000  0.000  0.000  0.000  0.000  0.029
tot    0.000  0.103  0.021  0.175  0.000  0.000  0.000  0.000  0.000  0.299
 
band     8 # energy   17.91386177 # occ.  0.00000000
 
ion      s     py     pz     px    dxy    dyz    dz2    dxz  x2-y2    tot
    1  0.005  0.006  0.006  0.006  0.000  0.000  0.000  0.000  0.000  0.022
    2  0.014  0.101  0.101  0.101  0.000  0.000  0.000  0.000  0.000  0.318
tot    0.019  0.107  0.107  0.107  0.000  0.000  0.000  0.000  0.000  0.340
 

 k-point   201 :   -0.50000000-0.50000000-0.50000000     weight = 0.00416667

band     1 # energy   -3.83448245 # occ.  2.00000000
 
ion      s     py     pz     px    dxy    dyz    dz2    dxz  x2-y2    tot
    1  0.144  0.018  0.018  0.018  0.000  0.000  0.000  0.000  0.000  0.198
    2  0.356  0.001  0.001  0.001  0.000  0.000  0.000  0.000  0.000  0.359
tot    0.501  0.019  0.019  0.019  0.000  0.000  0.000  0.000  0.000  0.557
 
band     2 # energy   -0.51174913 # occ.  2.00000000
 
ion      s     py     pz     px    dxy    dyz    dz2    dxz  x2-y2    tot
    1  0.160  0.038  0.038  0.038  0.000  0.000  0.000  0.000  0.000  0.275
    2  0.017  0.053  0.053  0.053  0.000  0.000  0.000  0.000  0.000  0.178
tot    0.177  0.092  0.092  0.092  0.000  0.000  0.000  0.000  0.000  0.453
 
band     3 # energy    6.89317922 # occ.  2.00000000
 
ion      s     py     pz     px    dxy    dyz    dz2    dxz  x2-y2    tot
    1  0.000  0.077  0.000  0.077  0.000  0.000  0.000  0.000  0.000  0.155
    2  0.000  0.206  0.000  0.206  0.000  0.000  0.000  0.000  0.000  0.412
tot    0.000  0.283  0.000  0.283  0.000  0.000  0.000  0.000  0.000  0.566
 
band     4 # energy    6.89317922 # occ.  2.00000000
 
ion      s     py     pz     px    dxy    dyz    dz2    dxz  x2-y2    tot
    1  0.000  0.026  0.103  0.026  0.000  0.000  0.000  0.000  0.000  0.155
    2  0.000  0.069  0.274  0.069  0.000  0.000  0.000  0.000  0.000  0.412
tot    0.000  0.094  0.378  0.094  0.000  0.000  0.000  0.000  0.000  0.566
 
band     5 # energy   13.24201722 # occ.  0.00000000
 
ion      s     py     pz     px    dxy    dyz    dz2    dxz  x2-y2    tot
    1  0.257  0.009  0.009  0.009  0.000  0.000  0.000  0.000  0.000  0.286
    2  0.204  0.000  0.000  0.000  0.000  0.000  0.000  0.000  0.000  0.204
tot    0.461  0.010  0.010  0.010  0.000  0.000  0.000  0.000  0.000  0.490
 
band     6 # energy   15.10884409 # occ.  0.00000000
 
ion      s     py     pz     px    dxy    dyz    dz2    dxz  x2-y2    tot
    1  0.000  0.144  0.001  0.125  0.000  0.000  0.000  0.000  0.000  0.270
    2  0.000  0.015  0.000  0.013  0.000  0.000  0.000  0.000  0.000  0.029
tot    0.000  0.159  0.001  0.139  0.000  0.000  0.000  0.000  0.000  0.299
 
band     7 # energy   15.10884409 # occ.  0.00000000
 
ion      s     py     pz     px    dxy    dyz    dz2    dxz  x2-y2    tot
    1  0.000  0.036  0.179  0.055  0.000  0.000  0.000  0.000  0.000  0.270
    2  0.000  0.004  0.019  0.006  0.000  0.000  0.000  0.000  0.000  0.029
tot    0.000  0.040  0.198  0.061  0.000  0.000  0.000  0.000  0.000  0.299
 
band     8 # energy   17.91386171 # occ.  0.00000000
 
ion      s     py     pz     px    dxy    dyz    dz2    dxz  x2-y2    tot
    1  0.005  0.006  0.006  0.006  0.000  0.000  0.000  0.000  0.000  0.022
    2  0.014  0.101  0.101  0.101  0.000  0.000  0.000  0.000  0.000  0.318
tot    0.019  0.107  0.107  0.107  0.000  0.000  0.000  0.000  0.000  0.340
 

 k-point   202 :   -0.50000000-0.48684211-0.51315789     weight = 0.00416667

band     1 # energy   -3.82698175 # occ.  2.00000000
 
ion      s     py     pz     px    dxy    dyz    dz2    dxz  x2-y2    tot
    1  0.144  0.018  0.018  0.018  0.000  0.000  0.000  0.000  0.000  0.198
    2  0.356  0.001  0.001  0.001  0.000  0.000  0.000  0.000  0.000  0.360
tot    0.501  0.019  0.019  0.019  0.000  0.000  0.000  0.000  0.000  0.557
 
band     2 # energy   -0.50360008 # occ.  2.00000000
 
ion      s     py     pz     px    dxy    dyz    dz2    dxz  x2-y2    tot
    1  0.160  0.038  0.038  0.038  0.000  0.000  0.000  0.000  0.000  0.275
    2  0.017  0.054  0.054  0.053  0.000  0.000  0.000  0.000  0.000  0.178
tot    0.177  0.092  0.092  0.092  0.000  0.000  0.000  0.000  0.000  0.453
 
band     3 # energy    6.84450154 # occ.  2.00000000
 
ion      s     py     pz     px    dxy    dyz    dz2    dxz  x2-y2    tot
    1  0.002  0.077  0.077  0.001  0.000  0.000  0.000  0.000  0.000  0.157
    2  0.002  0.203  0.203  0.000  0.000  0.000  0.000  0.000  0.000  0.409
tot    0.004  0.280  0.280  0.001  0.000  0.000  0.000  0.000  0.000  0.565
 
band     4 # energy    6.88051092 # occ.  2.00000000
 
ion      s     py     pz     px    dxy    dyz    dz2    dxz  x2-y2    tot
    1  0.000  0.026  0.026  0.103  0.000  0.000  0.000  0.000  0.000  0.155
    2  0.000  0.069  0.069  0.273  0.000  0.000  0.000  0.000  0.000  0.411
tot    0.000  0.095  0.095  0.376  0.000  0.000  0.000  0.000  0.000  0.566
 
band     5 # energy   13.27551378 # occ.  0.00000000
 
ion      s     py     pz     px    dxy    dyz    dz2    dxz  x2-y2    tot
    1  0.255  0.010  0.010  0.008  0.000  0.000  0.000  0.000  0.000  0.283
    2  0.200  0.003  0.003  0.000  0.000  0.000  0.000  0.000  0.000  0.205
tot    0.455  0.013  0.013  0.008  0.000  0.000  0.000  0.000  0.000  0.489
 
band     6 # energy   15.06173203 # occ.  0.00000000
 
ion      s     py     pz     px    dxy    dyz    dz2    dxz  x2-y2    tot
    1  0.000  0.131  0.131  0.001  0.000  0.000  0.000  0.000  0.000  0.264
    2  0.003  0.014  0.014  0.003  0.000  0.000  0.000  0.000  0.000  0.034
tot    0.003  0.145  0.145  0.004  0.000  0.000  0.000  0.000  0.000  0.297
 
band     7 # energy   15.13793079 # occ.  0.00000000
 
ion      s     py     pz     px    dxy    dyz    dz2    dxz  x2-y2    tot
    1  0.000  0.045  0.045  0.180  0.000  0.000  0.000  0.000  0.000  0.270
    2  0.000  0.005  0.005  0.020  0.000  0.000  0.000  0.000  0.000  0.030
tot    0.000  0.050  0.050  0.200  0.000  0.000  0.000  0.000  0.000  0.300
 
band     8 # energy   17.96988197 # occ.  0.00000000
 
ion      s     py     pz     px    dxy    dyz    dz2    dxz  x2-y2    tot
    1  0.005  0.009  0.009  0.005  0.000  0.000  0.000  0.000  0.000  0.029
    2  0.013  0.103  0.103  0.099  0.000  0.000  0.000  0.000  0.000  0.318
tot    0.019  0.112  0.112  0.104  0.000  0.000  0.000  0.000  0.000  0.348
 

 k-point   203 :   -0.50000000-0.47368421-0.52631579     weight = 0.00416667

band     1 # energy   -3.80451003 # occ.  2.00000000
 
ion      s     py     pz     px    dxy    dyz    dz2    dxz  x2-y2    tot
    1  0.143  0.018  0.018  0.018  0.000  0.000  0.000  0.000  0.000  0.197
    2  0.357  0.001  0.001  0.001  0.000  0.000  0.000  0.000  0.000  0.360
tot    0.500  0.020  0.020  0.019  0.000  0.000  0.000  0.000  0.000  0.557
 
band     2 # energy   -0.47920316 # occ.  2.00000000
 
ion      s     py     pz     px    dxy    dyz    dz2    dxz  x2-y2    tot
    1  0.161  0.038  0.038  0.038  0.000  0.000  0.000  0.000  0.000  0.275
    2  0.017  0.054  0.054  0.053  0.000  0.000  0.000  0.000  0.000  0.178
tot    0.178  0.092  0.092  0.092  0.000  0.000  0.000  0.000  0.000  0.454
 
band     3 # energy    6.70381118 # occ.  2.00000000
 
ion      s     py     pz     px    dxy    dyz    dz2    dxz  x2-y2    tot
    1  0.009  0.075  0.075  0.004  0.000  0.000  0.000  0.000  0.000  0.162
    2  0.006  0.197  0.197  0.001  0.000  0.000  0.000  0.000  0.000  0.400
tot    0.015  0.272  0.272  0.004  0.000  0.000  0.000  0.000  0.000  0.562
 
band     4 # energy    6.84230909 # occ.  2.00000000
 
ion      s     py     pz     px    dxy    dyz    dz2    dxz  x2-y2    tot
    1  0.000  0.027  0.027  0.102  0.000  0.000  0.000  0.000  0.000  0.157
    2  0.000  0.069  0.069  0.271  0.000  0.000  0.000  0.000  0.000  0.408
tot    0.000  0.096  0.096  0.373  0.000  0.000  0.000  0.000  0.000  0.565
 
band     5 # energy   13.36479617 # occ.  0.00000000
 
ion      s     py     pz     px    dxy    dyz    dz2    dxz  x2-y2    tot
    1  0.248  0.012  0.012  0.006  0.000  0.000  0.000  0.000  0.000  0.277
    2  0.187  0.010  0.010  0.000  0.000  0.000  0.000  0.000  0.000  0.207
tot    0.435  0.022  0.022  0.006  0.000  0.000  0.000  0.000  0.000  0.484
 
band     6 # energy   14.93938873 # occ.  0.00000000
 
ion      s     py     pz     px    dxy    dyz    dz2    dxz  x2-y2    tot
    1  0.001  0.122  0.122  0.002  0.000  0.000  0.000  0.000  0.000  0.248
    2  0.011  0.011  0.011  0.012  0.000  0.000  0.000  0.000  0.000  0.046
tot    0.013  0.133  0.133  0.014  0.000  0.000  0.000  0.000  0.000  0.293
 
band     7 # energy   15.22806892 # occ.  0.00000000
 
ion      s     py     pz     px    dxy    dyz    dz2    dxz  x2-y2    tot
    1  0.001  0.044  0.044  0.180  0.000  0.000  0.000  0.000  0.000  0.267
    2  0.001  0.007  0.007  0.021  0.000  0.000  0.000  0.000  0.000  0.035
tot    0.001  0.050  0.050  0.200  0.000  0.000  0.000  0.000  0.000  0.302
 
band     8 # energy   18.11966687 # occ.  0.00000000
 
ion      s     py     pz     px    dxy    dyz    dz2    dxz  x2-y2    tot
    1  0.008  0.018  0.018  0.005  0.000  0.000  0.000  0.000  0.000  0.047
    2  0.011  0.108  0.108  0.094  0.000  0.000  0.000  0.000  0.000  0.321
tot    0.018  0.126  0.126  0.099  0.000  0.000  0.000  0.000  0.000  0.369
 

 k-point   204 :   -0.50000000-0.46052632-0.53947368     weight = 0.00416667

band     1 # energy   -3.76719771 # occ.  2.00000000
 
ion      s     py     pz     px    dxy    dyz    dz2    dxz  x2-y2    tot
    1  0.141  0.019  0.019  0.017  0.000  0.000  0.000  0.000  0.000  0.196
    2  0.358  0.001  0.001  0.001  0.000  0.000  0.000  0.000  0.000  0.362
tot    0.499  0.020  0.020  0.018  0.000  0.000  0.000  0.000  0.000  0.558
 
band     2 # energy   -0.43869904 # occ.  2.00000000
 
ion      s     py     pz     px    dxy    dyz    dz2    dxz  x2-y2    tot
    1  0.162  0.038  0.038  0.038  0.000  0.000  0.000  0.000  0.000  0.276
    2  0.017  0.054  0.054  0.053  0.000  0.000  0.000  0.000  0.000  0.179
tot    0.179  0.092  0.092  0.091  0.000  0.000  0.000  0.000  0.000  0.455
 
band     3 # energy    6.48496594 # occ.  2.00000000
 
ion      s     py     pz     px    dxy    dyz    dz2    dxz  x2-y2    tot
    1  0.018  0.072  0.072  0.007  0.000  0.000  0.000  0.000  0.000  0.169
    2  0.012  0.187  0.187  0.002  0.000  0.000  0.000  0.000  0.000  0.389
tot    0.030  0.259  0.259  0.009  0.000  0.000  0.000  0.000  0.000  0.558
 
band     4 # energy    6.77802352 # occ.  2.00000000
 
ion      s     py     pz     px    dxy    dyz    dz2    dxz  x2-y2    tot
    1  0.000  0.030  0.030  0.101  0.000  0.000  0.000  0.000  0.000  0.160
    2  0.000  0.069  0.069  0.266  0.000  0.000  0.000  0.000  0.000  0.403
tot    0.000  0.098  0.098  0.367  0.000  0.000  0.000  0.000  0.000  0.563
 
band     5 # energy   13.47775237 # occ.  0.00000000
 
ion      s     py     pz     px    dxy    dyz    dz2    dxz  x2-y2    tot
    1  0.233  0.015  0.015  0.003  0.000  0.000  0.000  0.000  0.000  0.265
    2  0.163  0.019  0.019  0.003  0.000  0.000  0.000  0.000  0.000  0.204
tot    0.396  0.034  0.034  0.005  0.000  0.000  0.000  0.000  0.000  0.469
 
band     6 # energy   14.78703864 # occ.  0.00000000
 
ion      s     py     pz     px    dxy    dyz    dz2    dxz  x2-y2    tot
    1  0.005  0.111  0.111  0.005  0.000  0.000  0.000  0.000  0.000  0.232
    2  0.028  0.007  0.007  0.021  0.000  0.000  0.000  0.000  0.000  0.064
tot    0.033  0.118  0.118  0.026  0.000  0.000  0.000  0.000  0.000  0.296
 
band     7 # energy   15.38685050 # occ.  0.00000000
 
ion      s     py     pz     px    dxy    dyz    dz2    dxz  x2-y2    tot
    1  0.003  0.042  0.042  0.177  0.000  0.000  0.000  0.000  0.000  0.263
    2  0.003  0.010  0.010  0.022  0.000  0.000  0.000  0.000  0.000  0.045
tot    0.005  0.052  0.052  0.199  0.000  0.000  0.000  0.000  0.000  0.308
 
band     8 # energy   18.32192398 # occ.  0.00000000
 
ion      s     py     pz     px    dxy    dyz    dz2    dxz  x2-y2    tot
    1  0.012  0.027  0.027  0.004  0.000  0.000  0.000  0.000  0.000  0.069
    2  0.008  0.116  0.116  0.089  0.000  0.000  0.000  0.000  0.000  0.328
tot    0.019  0.143  0.143  0.093  0.000  0.000  0.000  0.000  0.000  0.398
 

 k-point   205 :   -0.50000000-0.44736842-0.55263158     weight = 0.00416667

band     1 # energy   -3.71530532 # occ.  2.00000000
 
ion      s     py     pz     px    dxy    dyz    dz2    dxz  x2-y2    tot
    1  0.138  0.020  0.020  0.017  0.000  0.000  0.000  0.000  0.000  0.195
    2  0.359  0.002  0.002  0.001  0.000  0.000  0.000  0.000  0.000  0.363
tot    0.497  0.022  0.022  0.018  0.000  0.000  0.000  0.000  0.000  0.558
 
band     2 # energy   -0.38235076 # occ.  2.00000000
 
ion      s     py     pz     px    dxy    dyz    dz2    dxz  x2-y2    tot
    1  0.164  0.038  0.038  0.037  0.000  0.000  0.000  0.000  0.000  0.277
    2  0.017  0.054  0.054  0.053  0.000  0.000  0.000  0.000  0.000  0.179
tot    0.181  0.092  0.092  0.091  0.000  0.000  0.000  0.000  0.000  0.456
 
band     3 # energy    6.20571808 # occ.  2.00000000
 
ion      s     py     pz     px    dxy    dyz    dz2    dxz  x2-y2    tot
    1  0.029  0.069  0.069  0.012  0.000  0.000  0.000  0.000  0.000  0.178
    2  0.019  0.177  0.177  0.003  0.000  0.000  0.000  0.000  0.000  0.375
tot    0.048  0.245  0.245  0.015  0.000  0.000  0.000  0.000  0.000  0.553
 
band     4 # energy    6.68692212 # occ.  2.00000000
 
ion      s     py     pz     px    dxy    dyz    dz2    dxz  x2-y2    tot
    1  0.000  0.032  0.032  0.099  0.000  0.000  0.000  0.000  0.000  0.164
    2  0.000  0.068  0.068  0.259  0.000  0.000  0.000  0.000  0.000  0.396
tot    0.000  0.101  0.101  0.359  0.000  0.000  0.000  0.000  0.000  0.560
 
band     5 # energy   13.56611003 # occ.  0.00000000
 
ion      s     py     pz     px    dxy    dyz    dz2    dxz  x2-y2    tot
    1  0.207  0.019  0.019  0.001  0.000  0.000  0.000  0.000  0.000  0.246
    2  0.124  0.027  0.027  0.011  0.000  0.000  0.000  0.000  0.000  0.189
tot    0.331  0.046  0.046  0.012  0.000  0.000  0.000  0.000  0.000  0.435
 
band     6 # energy   14.65960792 # occ.  0.00000000
 
ion      s     py     pz     px    dxy    dyz    dz2    dxz  x2-y2    tot
    1  0.018  0.099  0.099  0.010  0.000  0.000  0.000  0.000  0.000  0.225
    2  0.055  0.004  0.004  0.026  0.000  0.000  0.000  0.000  0.000  0.089
tot    0.072  0.103  0.103  0.036  0.000  0.000  0.000  0.000  0.000  0.314
 
band     7 # energy   15.62276282 # occ.  0.00000000
 
ion      s     py     pz     px    dxy    dyz    dz2    dxz  x2-y2    tot
    1  0.007  0.039  0.039  0.171  0.000  0.000  0.000  0.000  0.000  0.256
    2  0.007  0.017  0.017  0.023  0.000  0.000  0.000  0.000  0.000  0.063
tot    0.014  0.056  0.056  0.194  0.000  0.000  0.000  0.000  0.000  0.319
 
band     8 # energy   18.53311304 # occ.  0.00000000
 
ion      s     py     pz     px    dxy    dyz    dz2    dxz  x2-y2    tot
    1  0.018  0.035  0.035  0.003  0.000  0.000  0.000  0.000  0.000  0.091
    2  0.005  0.125  0.125  0.085  0.000  0.000  0.000  0.000  0.000  0.341
tot    0.023  0.160  0.160  0.088  0.000  0.000  0.000  0.000  0.000  0.431
 

 k-point   206 :   -0.50000000-0.43421053-0.56578947     weight = 0.00416667

band     1 # energy   -3.64919509 # occ.  2.00000000
 
ion      s     py     pz     px    dxy    dyz    dz2    dxz  x2-y2    tot
    1  0.134  0.021  0.021  0.017  0.000  0.000  0.000  0.000  0.000  0.193
    2  0.361  0.002  0.002  0.001  0.000  0.000  0.000  0.000  0.000  0.366
tot    0.495  0.023  0.023  0.017  0.000  0.000  0.000  0.000  0.000  0.559
 
band     2 # energy   -0.31056095 # occ.  2.00000000
 
ion      s     py     pz     px    dxy    dyz    dz2    dxz  x2-y2    tot
    1  0.166  0.038  0.038  0.037  0.000  0.000  0.000  0.000  0.000  0.279
    2  0.017  0.055  0.055  0.053  0.000  0.000  0.000  0.000  0.000  0.180
tot    0.184  0.093  0.093  0.090  0.000  0.000  0.000  0.000  0.000  0.459
 
band     3 # energy    5.88363676 # occ.  2.00000000
 
ion      s     py     pz     px    dxy    dyz    dz2    dxz  x2-y2    tot
    1  0.040  0.065  0.065  0.017  0.000  0.000  0.000  0.000  0.000  0.186
    2  0.025  0.166  0.166  0.004  0.000  0.000  0.000  0.000  0.000  0.361
tot    0.065  0.231  0.231  0.021  0.000  0.000  0.000  0.000  0.000  0.547
 
band     4 # energy    6.56833947 # occ.  2.00000000
 
ion      s     py     pz     px    dxy    dyz    dz2    dxz  x2-y2    tot
    1  0.001  0.036  0.036  0.097  0.000  0.000  0.000  0.000  0.000  0.169
    2  0.000  0.068  0.068  0.251  0.000  0.000  0.000  0.000  0.000  0.388
tot    0.001  0.104  0.104  0.348  0.000  0.000  0.000  0.000  0.000  0.556
 
band     5 # energy   13.58222380 # occ.  0.00000000
 
ion      s     py     pz     px    dxy    dyz    dz2    dxz  x2-y2    tot
    1  0.166  0.025  0.025  0.001  0.000  0.000  0.000  0.000  0.000  0.216
    2  0.076  0.030  0.030  0.030  0.000  0.000  0.000  0.000  0.000  0.165
tot    0.242  0.054  0.054  0.031  0.000  0.000  0.000  0.000  0.000  0.381
 
band     6 # energy   14.60750682 # occ.  0.00000000
 
ion      s     py     pz     px    dxy    dyz    dz2    dxz  x2-y2    tot
    1  0.042  0.086  0.086  0.017  0.000  0.000  0.000  0.000  0.000  0.231
    2  0.088  0.004  0.004  0.023  0.000  0.000  0.000  0.000  0.000  0.118
tot    0.130  0.090  0.090  0.040  0.000  0.000  0.000  0.000  0.000  0.349
 
band     7 # energy   15.93877993 # occ.  0.00000000
 
ion      s     py     pz     px    dxy    dyz    dz2    dxz  x2-y2    tot
    1  0.014  0.036  0.036  0.161  0.000  0.000  0.000  0.000  0.000  0.248
    2  0.012  0.026  0.026  0.024  0.000  0.000  0.000  0.000  0.000  0.088
tot    0.027  0.062  0.062  0.185  0.000  0.000  0.000  0.000  0.000  0.336
 
band     8 # energy   18.71723584 # occ.  0.00000000
 
ion      s     py     pz     px    dxy    dyz    dz2    dxz  x2-y2    tot
    1  0.027  0.041  0.041  0.002  0.000  0.000  0.000  0.000  0.000  0.110
    2  0.003  0.134  0.134  0.083  0.000  0.000  0.000  0.000  0.000  0.354
tot    0.030  0.175  0.175  0.085  0.000  0.000  0.000  0.000  0.000  0.464
 

 k-point   207 :   -0.50000000-0.42105263-0.57894737     weight = 0.00416667

band     1 # energy   -3.56936820 # occ.  2.00000000
 
ion      s     py     pz     px    dxy    dyz    dz2    dxz  x2-y2    tot
    1  0.129  0.023  0.023  0.016  0.000  0.000  0.000  0.000  0.000  0.191
    2  0.364  0.002  0.002  0.001  0.000  0.000  0.000  0.000  0.000  0.369
tot    0.493  0.025  0.025  0.017  0.000  0.000  0.000  0.000  0.000  0.559
 
band     2 # energy   -0.22392101 # occ.  2.00000000
 
ion      s     py     pz     px    dxy    dyz    dz2    dxz  x2-y2    tot
    1  0.170  0.038  0.038  0.036  0.000  0.000  0.000  0.000  0.000  0.281
    2  0.017  0.055  0.055  0.053  0.000  0.000  0.000  0.000  0.000  0.181
tot    0.187  0.093  0.093  0.089  0.000  0.000  0.000  0.000  0.000  0.462
 
band     3 # energy    5.53405325 # occ.  2.00000000
 
ion      s     py     pz     px    dxy    dyz    dz2    dxz  x2-y2    tot
    1  0.050  0.062  0.062  0.021  0.000  0.000  0.000  0.000  0.000  0.195
    2  0.030  0.155  0.155  0.005  0.000  0.000  0.000  0.000  0.000  0.347
tot    0.081  0.217  0.217  0.027  0.000  0.000  0.000  0.000  0.000  0.541
 
band     4 # energy    6.42199013 # occ.  2.00000000
 
ion      s     py     pz     px    dxy    dyz    dz2    dxz  x2-y2    tot
    1  0.001  0.039  0.039  0.095  0.000  0.000  0.000  0.000  0.000  0.174
    2  0.000  0.068  0.068  0.241  0.000  0.000  0.000  0.000  0.000  0.377
tot    0.001  0.107  0.107  0.336  0.000  0.000  0.000  0.000  0.000  0.551
 
band     5 # energy   13.51822871 # occ.  0.00000000
 
ion      s     py     pz     px    dxy    dyz    dz2    dxz  x2-y2    tot
    1  0.124  0.029  0.029  0.002  0.000  0.000  0.000  0.000  0.000  0.183
    2  0.039  0.027  0.027  0.054  0.000  0.000  0.000  0.000  0.000  0.147
tot    0.163  0.056  0.056  0.056  0.000  0.000  0.000  0.000  0.000  0.330
 
band     6 # energy   14.64442781 # occ.  0.00000000
 
ion      s     py     pz     px    dxy    dyz    dz2    dxz  x2-y2    tot
    1  0.066  0.076  0.076  0.025  0.000  0.000  0.000  0.000  0.000  0.242
    2  0.110  0.007  0.007  0.015  0.000  0.000  0.000  0.000  0.000  0.140
tot    0.176  0.083  0.083  0.040  0.000  0.000  0.000  0.000  0.000  0.382
 
band     7 # energy   16.32770186 # occ.  0.00000000
 
ion      s     py     pz     px    dxy    dyz    dz2    dxz  x2-y2    tot
    1  0.022  0.033  0.033  0.149  0.000  0.000  0.000  0.000  0.000  0.237
    2  0.017  0.038  0.038  0.025  0.000  0.000  0.000  0.000  0.000  0.117
tot    0.040  0.071  0.071  0.173  0.000  0.000  0.000  0.000  0.000  0.355
 
band     8 # energy   18.84823272 # occ.  0.00000000
 
ion      s     py     pz     px    dxy    dyz    dz2    dxz  x2-y2    tot
    1  0.038  0.043  0.043  0.001  0.000  0.000  0.000  0.000  0.000  0.126
    2  0.001  0.142  0.142  0.080  0.000  0.000  0.000  0.000  0.000  0.365
tot    0.039  0.185  0.185  0.081  0.000  0.000  0.000  0.000  0.000  0.491
 

 k-point   208 :   -0.50000000-0.40789474-0.59210526     weight = 0.00416667

band     1 # energy   -3.47646479 # occ.  2.00000000
 
ion      s     py     pz     px    dxy    dyz    dz2    dxz  x2-y2    tot
    1  0.123  0.025  0.025  0.015  0.000  0.000  0.000  0.000  0.000  0.188
    2  0.367  0.002  0.002  0.001  0.000  0.000  0.000  0.000  0.000  0.372
tot    0.490  0.027  0.027  0.016  0.000  0.000  0.000  0.000  0.000  0.560
 
band     2 # energy   -0.12320303 # occ.  2.00000000
 
ion      s     py     pz     px    dxy    dyz    dz2    dxz  x2-y2    tot
    1  0.174  0.037  0.037  0.035  0.000  0.000  0.000  0.000  0.000  0.284
    2  0.018  0.056  0.056  0.053  0.000  0.000  0.000  0.000  0.000  0.182
tot    0.192  0.093  0.093  0.088  0.000  0.000  0.000  0.000  0.000  0.466
 
band     3 # energy    5.16961581 # occ.  2.00000000
 
ion      s     py     pz     px    dxy    dyz    dz2    dxz  x2-y2    tot
    1  0.060  0.058  0.058  0.026  0.000  0.000  0.000  0.000  0.000  0.203
    2  0.035  0.146  0.146  0.007  0.000  0.000  0.000  0.000  0.000  0.333
tot    0.094  0.204  0.204  0.033  0.000  0.000  0.000  0.000  0.000  0.536
 
band     4 # energy    6.24826796 # occ.  2.00000000
 
ion      s     py     pz     px    dxy    dyz    dz2    dxz  x2-y2    tot
    1  0.002  0.043  0.043  0.092  0.000  0.000  0.000  0.000  0.000  0.180
    2  0.000  0.067  0.067  0.230  0.000  0.000  0.000  0.000  0.000  0.365
tot    0.002  0.110  0.110  0.322  0.000  0.000  0.000  0.000  0.000  0.544
 
band     5 # energy   13.41108775 # occ.  0.00000000
 
ion      s     py     pz     px    dxy    dyz    dz2    dxz  x2-y2    tot
    1  0.094  0.029  0.029  0.003  0.000  0.000  0.000  0.000  0.000  0.155
    2  0.019  0.023  0.023  0.079  0.000  0.000  0.000  0.000  0.000  0.142
tot    0.113  0.052  0.052  0.081  0.000  0.000  0.000  0.000  0.000  0.298
 
band     6 # energy   14.74315663 # occ.  0.00000000
 
ion      s     py     pz     px    dxy    dyz    dz2    dxz  x2-y2    tot
    1  0.079  0.069  0.069  0.032  0.000  0.000  0.000  0.000  0.000  0.250
    2  0.117  0.011  0.011  0.009  0.000  0.000  0.000  0.000  0.000  0.148
tot    0.196  0.080  0.080  0.041  0.000  0.000  0.000  0.000  0.000  0.398
 
band     7 # energy   16.77344078 # occ.  0.00000000
 
ion      s     py     pz     px    dxy    dyz    dz2    dxz  x2-y2    tot
    1  0.030  0.030  0.030  0.136  0.000  0.000  0.000  0.000  0.000  0.226
    2  0.020  0.052  0.052  0.025  0.000  0.000  0.000  0.000  0.000  0.148
tot    0.050  0.082  0.082  0.161  0.000  0.000  0.000  0.000  0.000  0.375
 
band     8 # energy   18.91211998 # occ.  0.00000000
 
ion      s     py     pz     px    dxy    dyz    dz2    dxz  x2-y2    tot
    1  0.050  0.043  0.043  0.000  0.000  0.000  0.000  0.000  0.000  0.138
    2  0.000  0.145  0.145  0.077  0.000  0.000  0.000  0.000  0.000  0.368
tot    0.050  0.189  0.189  0.078  0.000  0.000  0.000  0.000  0.000  0.506
 

 k-point   209 :   -0.50000000-0.39473684-0.60526316     weight = 0.00416667

band     1 # energy   -3.37139256 # occ.  2.00000000
 
ion      s     py     pz     px    dxy    dyz    dz2    dxz  x2-y2    tot
    1  0.117  0.027  0.027  0.015  0.000  0.000  0.000  0.000  0.000  0.185
    2  0.370  0.003  0.003  0.001  0.000  0.000  0.000  0.000  0.000  0.376
tot    0.487  0.030  0.030  0.015  0.000  0.000  0.000  0.000  0.000  0.561
 
band     2 # energy   -0.00953572 # occ.  2.00000000
 
ion      s     py     pz     px    dxy    dyz    dz2    dxz  x2-y2    tot
    1  0.180  0.037  0.037  0.034  0.000  0.000  0.000  0.000  0.000  0.287
    2  0.018  0.057  0.057  0.052  0.000  0.000  0.000  0.000  0.000  0.183
tot    0.198  0.094  0.094  0.086  0.000  0.000  0.000  0.000  0.000  0.470
 
band     3 # energy    4.80067095 # occ.  2.00000000
 
ion      s     py     pz     px    dxy    dyz    dz2    dxz  x2-y2    tot
    1  0.068  0.055  0.055  0.032  0.000  0.000  0.000  0.000  0.000  0.209
    2  0.037  0.137  0.137  0.009  0.000  0.000  0.000  0.000  0.000  0.320
tot    0.105  0.192  0.192  0.040  0.000  0.000  0.000  0.000  0.000  0.529
 
band     4 # energy    6.04843983 # occ.  2.00000000
 
ion      s     py     pz     px    dxy    dyz    dz2    dxz  x2-y2    tot
    1  0.003  0.047  0.047  0.088  0.000  0.000  0.000  0.000  0.000  0.185
    2  0.000  0.066  0.066  0.219  0.000  0.000  0.000  0.000  0.000  0.351
tot    0.003  0.113  0.113  0.307  0.000  0.000  0.000  0.000  0.000  0.537
 
band     5 # energy   13.29805585 # occ.  0.00000000
 
ion      s     py     pz     px    dxy    dyz    dz2    dxz  x2-y2    tot
    1  0.075  0.026  0.026  0.004  0.000  0.000  0.000  0.000  0.000  0.132
    2  0.009  0.018  0.018  0.102  0.000  0.000  0.000  0.000  0.000  0.148
tot    0.085  0.045  0.045  0.106  0.000  0.000  0.000  0.000  0.000  0.280
 
band     6 # energy   14.87627784 # occ.  0.00000000
 
ion      s     py     pz     px    dxy    dyz    dz2    dxz  x2-y2    tot
    1  0.084  0.066  0.066  0.038  0.000  0.000  0.000  0.000  0.000  0.255
    2  0.115  0.014  0.014  0.005  0.000  0.000  0.000  0.000  0.000  0.149
tot    0.199  0.081  0.081  0.044  0.000  0.000  0.000  0.000  0.000  0.404
 
band     7 # energy   17.25408301 # occ.  0.00000000
 
ion      s     py     pz     px    dxy    dyz    dz2    dxz  x2-y2    tot
    1  0.038  0.027  0.027  0.123  0.000  0.000  0.000  0.000  0.000  0.216
    2  0.020  0.067  0.067  0.026  0.000  0.000  0.000  0.000  0.000  0.181
tot    0.058  0.095  0.095  0.150  0.000  0.000  0.000  0.000  0.000  0.397
 
band     8 # energy   18.90820003 # occ.  0.00000000
 
ion      s     py     pz     px    dxy    dyz    dz2    dxz  x2-y2    tot
    1  0.060  0.041  0.041  0.000  0.000  0.000  0.000  0.000  0.000  0.143
    2  0.000  0.145  0.145  0.072  0.000  0.000  0.000  0.000  0.000  0.361
tot    0.060  0.186  0.186  0.072  0.000  0.000  0.000  0.000  0.000  0.504
 

 k-point   210 :   -0.50000000-0.38157895-0.61842105     weight = 0.00416667

band     1 # energy   -3.25529136 # occ.  2.00000000
 
ion      s     py     pz     px    dxy    dyz    dz2    dxz  x2-y2    tot
    1  0.109  0.029  0.029  0.014  0.000  0.000  0.000  0.000  0.000  0.181
    2  0.375  0.003  0.003  0.001  0.000  0.000  0.000  0.000  0.000  0.381
tot    0.483  0.032  0.032  0.014  0.000  0.000  0.000  0.000  0.000  0.562
 
band     2 # energy    0.11549248 # occ.  2.00000000
 
ion      s     py     pz     px    dxy    dyz    dz2    dxz  x2-y2    tot
    1  0.188  0.036  0.036  0.032  0.000  0.000  0.000  0.000  0.000  0.291
    2  0.018  0.058  0.058  0.051  0.000  0.000  0.000  0.000  0.000  0.185
tot    0.205  0.094  0.094  0.083  0.000  0.000  0.000  0.000  0.000  0.476
 
band     3 # energy    4.43603677 # occ.  2.00000000
 
ion      s     py     pz     px    dxy    dyz    dz2    dxz  x2-y2    tot
    1  0.075  0.052  0.052  0.037  0.000  0.000  0.000  0.000  0.000  0.215
    2  0.038  0.129  0.129  0.011  0.000  0.000  0.000  0.000  0.000  0.307
tot    0.113  0.181  0.181  0.048  0.000  0.000  0.000  0.000  0.000  0.523
 
band     4 # energy    5.82473162 # occ.  2.00000000
 
ion      s     py     pz     px    dxy    dyz    dz2    dxz  x2-y2    tot
    1  0.004  0.051  0.051  0.085  0.000  0.000  0.000  0.000  0.000  0.190
    2  0.000  0.065  0.065  0.207  0.000  0.000  0.000  0.000  0.000  0.337
tot    0.004  0.116  0.116  0.292  0.000  0.000  0.000  0.000  0.000  0.528
 
band     5 # energy   13.19941729 # occ.  0.00000000
 
ion      s     py     pz     px    dxy    dyz    dz2    dxz  x2-y2    tot
    1  0.062  0.023  0.023  0.005  0.000  0.000  0.000  0.000  0.000  0.113
    2  0.005  0.015  0.015  0.124  0.000  0.000  0.000  0.000  0.000  0.158
tot    0.067  0.038  0.038  0.129  0.000  0.000  0.000  0.000  0.000  0.271
 
band     6 # energy   15.03062376 # occ.  0.00000000
 
ion      s     py     pz     px    dxy    dyz    dz2    dxz  x2-y2    tot
    1  0.084  0.065  0.065  0.043  0.000  0.000  0.000  0.000  0.000  0.257
    2  0.111  0.017  0.017  0.003  0.000  0.000  0.000  0.000  0.000  0.148
tot    0.195  0.082  0.082  0.047  0.000  0.000  0.000  0.000  0.000  0.405
 
band     7 # energy   17.73945819 # occ.  0.00000000
 
ion      s     py     pz     px    dxy    dyz    dz2    dxz  x2-y2    tot
    1  0.051  0.024  0.024  0.110  0.000  0.000  0.000  0.000  0.000  0.209
    2  0.017  0.086  0.086  0.031  0.000  0.000  0.000  0.000  0.000  0.220
tot    0.068  0.110  0.110  0.141  0.000  0.000  0.000  0.000  0.000  0.429
 
band     8 # energy   18.85204786 # occ.  0.00000000
 
ion      s     py     pz     px    dxy    dyz    dz2    dxz  x2-y2    tot
    1  0.063  0.037  0.037  0.000  0.000  0.000  0.000  0.000  0.000  0.138
    2  0.001  0.138  0.138  0.061  0.000  0.000  0.000  0.000  0.000  0.338
tot    0.064  0.176  0.176  0.061  0.000  0.000  0.000  0.000  0.000  0.476
 

 k-point   211 :   -0.50000000-0.36842105-0.63157895     weight = 0.00416667

band     1 # energy   -3.12966949 # occ.  2.00000000
 
ion      s     py     pz     px    dxy    dyz    dz2    dxz  x2-y2    tot
    1  0.100  0.032  0.032  0.012  0.000  0.000  0.000  0.000  0.000  0.176
    2  0.380  0.003  0.003  0.000  0.000  0.000  0.000  0.000  0.000  0.387
tot    0.480  0.035  0.035  0.013  0.000  0.000  0.000  0.000  0.000  0.564
 
band     2 # energy    0.24959792 # occ.  2.00000000
 
ion      s     py     pz     px    dxy    dyz    dz2    dxz  x2-y2    tot
    1  0.198  0.035  0.035  0.030  0.000  0.000  0.000  0.000  0.000  0.297
    2  0.018  0.060  0.060  0.050  0.000  0.000  0.000  0.000  0.000  0.187
tot    0.216  0.094  0.094  0.080  0.000  0.000  0.000  0.000  0.000  0.484
 
band     3 # energy    4.08378193 # occ.  2.00000000
 
ion      s     py     pz     px    dxy    dyz    dz2    dxz  x2-y2    tot
    1  0.080  0.049  0.049  0.043  0.000  0.000  0.000  0.000  0.000  0.220
    2  0.037  0.122  0.122  0.013  0.000  0.000  0.000  0.000  0.000  0.295
tot    0.117  0.171  0.171  0.056  0.000  0.000  0.000  0.000  0.000  0.515
 
band     4 # energy    5.58024545 # occ.  2.00000000
 
ion      s     py     pz     px    dxy    dyz    dz2    dxz  x2-y2    tot
    1  0.005  0.054  0.054  0.082  0.000  0.000  0.000  0.000  0.000  0.195
    2  0.000  0.064  0.064  0.195  0.000  0.000  0.000  0.000  0.000  0.323
tot    0.005  0.118  0.118  0.277  0.000  0.000  0.000  0.000  0.000  0.518
 
band     5 # energy   13.12365165 # occ.  0.00000000
 
ion      s     py     pz     px    dxy    dyz    dz2    dxz  x2-y2    tot
    1  0.052  0.019  0.019  0.006  0.000  0.000  0.000  0.000  0.000  0.095
    2  0.003  0.012  0.012  0.145  0.000  0.000  0.000  0.000  0.000  0.172
tot    0.054  0.031  0.031  0.151  0.000  0.000  0.000  0.000  0.000  0.267
 
band     6 # energy   15.20130069 # occ.  0.00000000
 
ion      s     py     pz     px    dxy    dyz    dz2    dxz  x2-y2    tot
    1  0.083  0.065  0.065  0.046  0.000  0.000  0.000  0.000  0.000  0.259
    2  0.106  0.019  0.019  0.002  0.000  0.000  0.000  0.000  0.000  0.146
tot    0.188  0.084  0.084  0.049  0.000  0.000  0.000  0.000  0.000  0.404
 
band     7 # energy   18.16201134 # occ.  0.00000000
 
ion      s     py     pz     px    dxy    dyz    dz2    dxz  x2-y2    tot
    1  0.086  0.022  0.022  0.091  0.000  0.000  0.000  0.000  0.000  0.220
    2  0.009  0.113  0.113  0.047  0.000  0.000  0.000  0.000  0.000  0.283
tot    0.095  0.135  0.135  0.138  0.000  0.000  0.000  0.000  0.000  0.504
 
band     8 # energy   18.79670915 # occ.  0.00000000
 
ion      s     py     pz     px    dxy    dyz    dz2    dxz  x2-y2    tot
    1  0.042  0.031  0.031  0.003  0.000  0.000  0.000  0.000  0.000  0.108
    2  0.002  0.122  0.122  0.036  0.000  0.000  0.000  0.000  0.000  0.283
tot    0.044  0.154  0.153  0.039  0.000  0.000  0.000  0.000  0.000  0.391
 

 k-point   212 :   -0.50000000-0.35526316-0.64473684     weight = 0.00416667

band     1 # energy   -2.99648896 # occ.  2.00000000
 
ion      s     py     pz     px    dxy    dyz    dz2    dxz  x2-y2    tot
    1  0.090  0.035  0.035  0.011  0.000  0.000  0.000  0.000  0.000  0.171
    2  0.387  0.003  0.003  0.000  0.000  0.000  0.000  0.000  0.000  0.394
tot    0.476  0.039  0.039  0.012  0.000  0.000  0.000  0.000  0.000  0.565
 
band     2 # energy    0.38944908 # occ.  2.00000000
 
ion      s     py     pz     px    dxy    dyz    dz2    dxz  x2-y2    tot
    1  0.212  0.033  0.033  0.027  0.000  0.000  0.000  0.000  0.000  0.305
    2  0.018  0.062  0.062  0.047  0.000  0.000  0.000  0.000  0.000  0.189
tot    0.230  0.094  0.094  0.075  0.000  0.000  0.000  0.000  0.000  0.494
 
band     3 # energy    3.75216167 # occ.  2.00000000
 
ion      s     py     pz     px    dxy    dyz    dz2    dxz  x2-y2    tot
    1  0.082  0.046  0.046  0.049  0.000  0.000  0.000  0.000  0.000  0.223
    2  0.035  0.116  0.116  0.017  0.000  0.000  0.000  0.000  0.000  0.283
tot    0.117  0.162  0.162  0.066  0.000  0.000  0.000  0.000  0.000  0.506
 
band     4 # energy    5.31881619 # occ.  2.00000000
 
ion      s     py     pz     px    dxy    dyz    dz2    dxz  x2-y2    tot
    1  0.006  0.057  0.057  0.079  0.000  0.000  0.000  0.000  0.000  0.200
    2  0.000  0.062  0.062  0.184  0.000  0.000  0.000  0.000  0.000  0.308
tot    0.006  0.120  0.120  0.262  0.000  0.000  0.000  0.000  0.000  0.508
 
band     5 # energy   13.07289050 # occ.  0.00000000
 
ion      s     py     pz     px    dxy    dyz    dz2    dxz  x2-y2    tot
    1  0.043  0.015  0.015  0.006  0.000  0.000  0.000  0.000  0.000  0.079
    2  0.001  0.010  0.010  0.165  0.000  0.000  0.000  0.000  0.000  0.186
tot    0.044  0.025  0.025  0.172  0.000  0.000  0.000  0.000  0.000  0.266
 
band     6 # energy   15.38668442 # occ.  0.00000000
 
ion      s     py     pz     px    dxy    dyz    dz2    dxz  x2-y2    tot
    1  0.081  0.065  0.065  0.048  0.000  0.000  0.000  0.000  0.000  0.259
    2  0.101  0.021  0.021  0.001  0.000  0.000  0.000  0.000  0.000  0.144
tot    0.181  0.086  0.086  0.050  0.000  0.000  0.000  0.000  0.000  0.403
 
band     7 # energy   18.32056423 # occ.  0.00000000
 
ion      s     py     pz     px    dxy    dyz    dz2    dxz  x2-y2    tot
    1  0.138  0.024  0.024  0.052  0.000  0.000  0.000  0.000  0.000  0.239
    2  0.001  0.140  0.140  0.069  0.000  0.000  0.000  0.000  0.000  0.350
tot    0.140  0.164  0.165  0.121  0.000  0.000  0.000  0.000  0.000  0.589
 
band     8 # energy   18.91186433 # occ.  0.00000000
 
ion      s     py     pz     px    dxy    dyz    dz2    dxz  x2-y2    tot
    1  0.001  0.021  0.021  0.017  0.000  0.000  0.000  0.000  0.000  0.060
    2  0.003  0.104  0.104  0.004  0.000  0.000  0.000  0.000  0.000  0.215
tot    0.005  0.125  0.125  0.021  0.000  0.000  0.000  0.000  0.000  0.276
 

 k-point   213 :   -0.50000000-0.34210526-0.65789474     weight = 0.00416667

band     1 # energy   -2.85834821 # occ.  2.00000000
 
ion      s     py     pz     px    dxy    dyz    dz2    dxz  x2-y2    tot
    1  0.078  0.038  0.038  0.010  0.000  0.000  0.000  0.000  0.000  0.165
    2  0.394  0.003  0.003  0.000  0.000  0.000  0.000  0.000  0.000  0.401
tot    0.472  0.042  0.042  0.010  0.000  0.000  0.000  0.000  0.000  0.566
 
band     2 # energy    0.53007277 # occ.  2.00000000
 
ion      s     py     pz     px    dxy    dyz    dz2    dxz  x2-y2    tot
    1  0.231  0.030  0.030  0.024  0.000  0.000  0.000  0.000  0.000  0.315
    2  0.018  0.064  0.064  0.044  0.000  0.000  0.000  0.000  0.000  0.190
tot    0.249  0.094  0.094  0.068  0.000  0.000  0.000  0.000  0.000  0.506
 
band     3 # energy    3.45052166 # occ.  2.00000000
 
ion      s     py     pz     px    dxy    dyz    dz2    dxz  x2-y2    tot
    1  0.079  0.044  0.044  0.056  0.000  0.000  0.000  0.000  0.000  0.223
    2  0.031  0.110  0.110  0.021  0.000  0.000  0.000  0.000  0.000  0.272
tot    0.110  0.154  0.154  0.077  0.000  0.000  0.000  0.000  0.000  0.495
 
band     4 # energy    5.04476863 # occ.  2.00000000
 
ion      s     py     pz     px    dxy    dyz    dz2    dxz  x2-y2    tot
    1  0.007  0.060  0.060  0.075  0.000  0.000  0.000  0.000  0.000  0.203
    2  0.000  0.060  0.060  0.174  0.000  0.000  0.000  0.000  0.000  0.295
tot    0.007  0.121  0.121  0.249  0.000  0.000  0.000  0.000  0.000  0.498
 
band     5 # energy   13.04573389 # occ.  0.00000000
 
ion      s     py     pz     px    dxy    dyz    dz2    dxz  x2-y2    tot
    1  0.035  0.012  0.012  0.006  0.000  0.000  0.000  0.000  0.000  0.065
    2  0.001  0.008  0.008  0.185  0.000  0.000  0.000  0.000  0.000  0.202
tot    0.036  0.020  0.020  0.191  0.000  0.000  0.000  0.000  0.000  0.267
 
band     6 # energy   15.58619946 # occ.  0.00000000
 
ion      s     py     pz     px    dxy    dyz    dz2    dxz  x2-y2    tot
    1  0.078  0.065  0.065  0.049  0.000  0.000  0.000  0.000  0.000  0.258
    2  0.096  0.023  0.023  0.001  0.000  0.000  0.000  0.000  0.000  0.143
tot    0.174  0.089  0.089  0.050  0.000  0.000  0.000  0.000  0.000  0.402
 
band     7 # energy   18.21623813 # occ.  0.00000000
 
ion      s     py     pz     px    dxy    dyz    dz2    dxz  x2-y2    tot
    1  0.147  0.023  0.023  0.036  0.000  0.000  0.000  0.000  0.000  0.229
    2  0.000  0.138  0.138  0.060  0.000  0.000  0.000  0.000  0.000  0.337
tot    0.147  0.161  0.161  0.096  0.000  0.000  0.000  0.000  0.000  0.566
 
band     8 # energy   19.11608047 # occ.  0.00000000
 
ion      s     py     pz     px    dxy    dyz    dz2    dxz  x2-y2    tot
    1  0.003  0.020  0.020  0.004  0.000  0.000  0.000  0.000  0.000  0.048
    2  0.000  0.102  0.102  0.000  0.000  0.000  0.000  0.000  0.000  0.204
tot    0.003  0.122  0.122  0.004  0.000  0.000  0.000  0.000  0.000  0.252
 

 k-point   214 :   -0.50000000-0.32894737-0.67105263     weight = 0.00416667

band     1 # energy   -2.71867168 # occ.  2.00000000
 
ion      s     py     pz     px    dxy    dyz    dz2    dxz  x2-y2    tot
    1  0.065  0.042  0.042  0.008  0.000  0.000  0.000  0.000  0.000  0.158
    2  0.403  0.003  0.003  0.000  0.000  0.000  0.000  0.000  0.000  0.410
tot    0.469  0.045  0.045  0.008  0.000  0.000  0.000  0.000  0.000  0.568
 
band     2 # energy    0.66417466 # occ.  2.00000000
 
ion      s     py     pz     px    dxy    dyz    dz2    dxz  x2-y2    tot
    1  0.256  0.027  0.027  0.019  0.000  0.000  0.000  0.000  0.000  0.329
    2  0.018  0.067  0.067  0.039  0.000  0.000  0.000  0.000  0.000  0.192
tot    0.274  0.094  0.094  0.058  0.000  0.000  0.000  0.000  0.000  0.521
 
band     3 # energy    3.19039245 # occ.  2.00000000
 
ion      s     py     pz     px    dxy    dyz    dz2    dxz  x2-y2    tot
    1  0.072  0.042  0.042  0.065  0.000  0.000  0.000  0.000  0.000  0.221
    2  0.025  0.104  0.104  0.027  0.000  0.000  0.000  0.000  0.000  0.260
tot    0.097  0.147  0.147  0.092  0.000  0.000  0.000  0.000  0.000  0.481
 
band     4 # energy    4.76273793 # occ.  2.00000000
 
ion      s     py     pz     px    dxy    dyz    dz2    dxz  x2-y2    tot
    1  0.007  0.063  0.063  0.072  0.000  0.000  0.000  0.000  0.000  0.206
    2  0.000  0.058  0.058  0.165  0.000  0.000  0.000  0.000  0.000  0.281
tot    0.008  0.121  0.121  0.237  0.000  0.000  0.000  0.000  0.000  0.487
 
band     5 # energy   13.03870208 # occ.  0.00000000
 
ion      s     py     pz     px    dxy    dyz    dz2    dxz  x2-y2    tot
    1  0.028  0.009  0.009  0.006  0.000  0.000  0.000  0.000  0.000  0.052
    2  0.000  0.006  0.006  0.204  0.000  0.000  0.000  0.000  0.000  0.217
tot    0.028  0.015  0.015  0.210  0.000  0.000  0.000  0.000  0.000  0.268
 
band     6 # energy   15.79957471 # occ.  0.00000000
 
ion      s     py     pz     px    dxy    dyz    dz2    dxz  x2-y2    tot
    1  0.076  0.066  0.066  0.049  0.000  0.000  0.000  0.000  0.000  0.257
    2  0.091  0.026  0.026  0.001  0.000  0.000  0.000  0.000  0.000  0.143
tot    0.168  0.092  0.092  0.049  0.000  0.000  0.000  0.000  0.000  0.401
 
band     7 # energy   18.04714781 # occ.  0.00000000
 
ion      s     py     pz     px    dxy    dyz    dz2    dxz  x2-y2    tot
    1  0.151  0.020  0.020  0.034  0.000  0.000  0.000  0.000  0.000  0.226
    2  0.000  0.133  0.133  0.048  0.000  0.000  0.000  0.000  0.000  0.313
tot    0.152  0.153  0.153  0.082  0.000  0.000  0.000  0.000  0.000  0.539
 
band     8 # energy   19.11879528 # occ.  0.00000000
 
ion      s     py     pz     px    dxy    dyz    dz2    dxz  x2-y2    tot
    1  0.009  0.031  0.031  0.004  0.000  0.000  0.000  0.000  0.000  0.075
    2  0.007  0.083  0.083  0.000  0.000  0.000  0.000  0.000  0.000  0.174
tot    0.015  0.114  0.114  0.004  0.000  0.000  0.000  0.000  0.000  0.249
 

 k-point   215 :   -0.50000000-0.31578947-0.68421053     weight = 0.00416667

band     1 # energy   -2.58187975 # occ.  2.00000000
 
ion      s     py     pz     px    dxy    dyz    dz2    dxz  x2-y2    tot
    1  0.052  0.046  0.046  0.006  0.000  0.000  0.000  0.000  0.000  0.150
    2  0.413  0.003  0.003  0.000  0.000  0.000  0.000  0.000  0.000  0.419
tot    0.465  0.049  0.049  0.007  0.000  0.000  0.000  0.000  0.000  0.569
 
band     2 # energy    0.78170275 # occ.  2.00000000
 
ion      s     py     pz     px    dxy    dyz    dz2    dxz  x2-y2    tot
    1  0.288  0.022  0.022  0.014  0.000  0.000  0.000  0.000  0.000  0.346
    2  0.018  0.072  0.072  0.032  0.000  0.000  0.000  0.000  0.000  0.193
tot    0.306  0.094  0.094  0.046  0.000  0.000  0.000  0.000  0.000  0.539
 
band     3 # energy    2.98620374 # occ.  2.00000000
 
ion      s     py     pz     px    dxy    dyz    dz2    dxz  x2-y2    tot
    1  0.058  0.042  0.042  0.074  0.000  0.000  0.000  0.000  0.000  0.215
    2  0.018  0.099  0.099  0.034  0.000  0.000  0.000  0.000  0.000  0.250
tot    0.076  0.140  0.140  0.109  0.000  0.000  0.000  0.000  0.000  0.465
 
band     4 # energy    4.47758828 # occ.  2.00000000
 
ion      s     py     pz     px    dxy    dyz    dz2    dxz  x2-y2    tot
    1  0.007  0.066  0.066  0.069  0.000  0.000  0.000  0.000  0.000  0.208
    2  0.000  0.056  0.056  0.157  0.000  0.000  0.000  0.000  0.000  0.269
tot    0.008  0.122  0.122  0.226  0.000  0.000  0.000  0.000  0.000  0.477
 
band     5 # energy   13.04709420 # occ.  0.00000000
 
ion      s     py     pz     px    dxy    dyz    dz2    dxz  x2-y2    tot
    1  0.021  0.007  0.007  0.005  0.000  0.000  0.000  0.000  0.000  0.040
    2  0.000  0.005  0.005  0.221  0.000  0.000  0.000  0.000  0.000  0.231
tot    0.021  0.012  0.012  0.226  0.000  0.000  0.000  0.000  0.000  0.270
 
band     6 # energy   16.02644511 # occ.  0.00000000
 
ion      s     py     pz     px    dxy    dyz    dz2    dxz  x2-y2    tot
    1  0.075  0.067  0.067  0.047  0.000  0.000  0.000  0.000  0.000  0.256
    2  0.087  0.028  0.028  0.001  0.000  0.000  0.000  0.000  0.000  0.144
tot    0.162  0.095  0.095  0.048  0.000  0.000  0.000  0.000  0.000  0.400
 
band     7 # energy   17.87007748 # occ.  0.00000000
 
ion      s     py     pz     px    dxy    dyz    dz2    dxz  x2-y2    tot
    1  0.156  0.018  0.018  0.036  0.000  0.000  0.000  0.000  0.000  0.227
    2  0.001  0.128  0.128  0.036  0.000  0.000  0.000  0.000  0.000  0.292
tot    0.157  0.146  0.145  0.071  0.000  0.000  0.000  0.000  0.000  0.520
 
band     8 # energy   18.92793119 # occ.  0.00000000
 
ion      s     py     pz     px    dxy    dyz    dz2    dxz  x2-y2    tot
    1  0.012  0.042  0.042  0.024  0.000  0.000  0.000  0.000  0.000  0.119
    2  0.018  0.063  0.063  0.001  0.000  0.000  0.000  0.000  0.000  0.144
tot    0.029  0.105  0.104  0.025  0.000  0.000  0.000  0.000  0.000  0.264
 

 k-point   216 :   -0.50000000-0.30263158-0.69736842     weight = 0.00416667

band     1 # energy   -2.45367434 # occ.  2.00000000
 
ion      s     py     pz     px    dxy    dyz    dz2    dxz  x2-y2    tot
    1  0.037  0.050  0.050  0.005  0.000  0.000  0.000  0.000  0.000  0.142
    2  0.425  0.002  0.002  0.000  0.000  0.000  0.000  0.000  0.000  0.429
tot    0.462  0.052  0.052  0.005  0.000  0.000  0.000  0.000  0.000  0.571
 
band     2 # energy    0.87101011 # occ.  2.00000000
 
ion      s     py     pz     px    dxy    dyz    dz2    dxz  x2-y2    tot
    1  0.325  0.017  0.017  0.008  0.000  0.000  0.000  0.000  0.000  0.366
    2  0.016  0.077  0.077  0.023  0.000  0.000  0.000  0.000  0.000  0.193
tot    0.341  0.094  0.094  0.031  0.000  0.000  0.000  0.000  0.000  0.559
 
band     3 # energy    2.85411519 # occ.  2.00000000
 
ion      s     py     pz     px    dxy    dyz    dz2    dxz  x2-y2    tot
    1  0.039  0.041  0.041  0.085  0.000  0.000  0.000  0.000  0.000  0.206
    2  0.011  0.094  0.094  0.043  0.000  0.000  0.000  0.000  0.000  0.242
tot    0.050  0.135  0.135  0.128  0.000  0.000  0.000  0.000  0.000  0.448
 
band     4 # energy    4.19449992 # occ.  2.00000000
 
ion      s     py     pz     px    dxy    dyz    dz2    dxz  x2-y2    tot
    1  0.007  0.069  0.069  0.065  0.000  0.000  0.000  0.000  0.000  0.210
    2  0.000  0.053  0.053  0.152  0.000  0.000  0.000  0.000  0.000  0.258
tot    0.007  0.121  0.121  0.217  0.000  0.000  0.000  0.000  0.000  0.468
 
band     5 # energy   13.06540496 # occ.  0.00000000
 
ion      s     py     pz     px    dxy    dyz    dz2    dxz  x2-y2    tot
    1  0.014  0.006  0.006  0.004  0.000  0.000  0.000  0.000  0.000  0.029
    2  0.000  0.003  0.003  0.237  0.000  0.000  0.000  0.000  0.000  0.243
tot    0.014  0.009  0.009  0.241  0.000  0.000  0.000  0.000  0.000  0.272
 
band     6 # energy   16.26616689 # occ.  0.00000000
 
ion      s     py     pz     px    dxy    dyz    dz2    dxz  x2-y2    tot
    1  0.074  0.069  0.069  0.044  0.000  0.000  0.000  0.000  0.000  0.255
    2  0.083  0.031  0.031  0.000  0.000  0.000  0.000  0.000  0.000  0.146
tot    0.157  0.100  0.100  0.045  0.000  0.000  0.000  0.000  0.000  0.402
 
band     7 # energy   17.70480464 # occ.  0.00000000
 
ion      s     py     pz     px    dxy    dyz    dz2    dxz  x2-y2    tot
    1  0.161  0.016  0.016  0.038  0.000  0.000  0.000  0.000  0.000  0.231
    2  0.002  0.124  0.124  0.024  0.000  0.000  0.000  0.000  0.000  0.275
tot    0.163  0.140  0.140  0.062  0.000  0.000  0.000  0.000  0.000  0.505
 
band     8 # energy   18.65327533 # occ.  0.00000000
 
ion      s     py     pz     px    dxy    dyz    dz2    dxz  x2-y2    tot
    1  0.013  0.047  0.047  0.044  0.000  0.000  0.000  0.000  0.000  0.151
    2  0.026  0.050  0.050  0.001  0.000  0.000  0.000  0.000  0.000  0.127
tot    0.040  0.097  0.097  0.045  0.000  0.000  0.000  0.000  0.000  0.278
 

 k-point   217 :   -0.50000000-0.28947368-0.71052632     weight = 0.00416667

band     1 # energy   -2.34106115 # occ.  2.00000000
 
ion      s     py     pz     px    dxy    dyz    dz2    dxz  x2-y2    tot
    1  0.024  0.053  0.053  0.003  0.000  0.000  0.000  0.000  0.000  0.133
    2  0.436  0.002  0.002  0.000  0.000  0.000  0.000  0.000  0.000  0.439
tot    0.459  0.055  0.055  0.003  0.000  0.000  0.000  0.000  0.000  0.572
 
band     2 # energy    0.92407960 # occ.  2.00000000
 
ion      s     py     pz     px    dxy    dyz    dz2    dxz  x2-y2    tot
    1  0.362  0.010  0.010  0.003  0.000  0.000  0.000  0.000  0.000  0.386
    2  0.012  0.083  0.083  0.014  0.000  0.000  0.000  0.000  0.000  0.192
tot    0.374  0.093  0.093  0.017  0.000  0.000  0.000  0.000  0.000  0.578
 
band     3 # energy    2.80648157 # occ.  2.00000000
 
ion      s     py     pz     px    dxy    dyz    dz2    dxz  x2-y2    tot
    1  0.020  0.040  0.040  0.095  0.000  0.000  0.000  0.000  0.000  0.196
    2  0.005  0.091  0.091  0.050  0.000  0.000  0.000  0.000  0.000  0.237
tot    0.025  0.131  0.131  0.145  0.000  0.000  0.000  0.000  0.000  0.433
 
band     4 # energy    3.91942545 # occ.  2.00000000
 
ion      s     py     pz     px    dxy    dyz    dz2    dxz  x2-y2    tot
    1  0.006  0.073  0.073  0.060  0.000  0.000  0.000  0.000  0.000  0.212
    2  0.000  0.048  0.048  0.150  0.000  0.000  0.000  0.000  0.000  0.247
tot    0.006  0.121  0.121  0.210  0.000  0.000  0.000  0.000  0.000  0.458
 
band     5 # energy   13.08785311 # occ.  0.00000000
 
ion      s     py     pz     px    dxy    dyz    dz2    dxz  x2-y2    tot
    1  0.008  0.004  0.004  0.002  0.000  0.000  0.000  0.000  0.000  0.020
    2  0.000  0.002  0.002  0.250  0.000  0.000  0.000  0.000  0.000  0.254
tot    0.008  0.006  0.006  0.253  0.000  0.000  0.000  0.000  0.000  0.274
 
band     6 # energy   16.51741354 # occ.  0.00000000
 
ion      s     py     pz     px    dxy    dyz    dz2    dxz  x2-y2    tot
    1  0.075  0.070  0.070  0.039  0.000  0.000  0.000  0.000  0.000  0.254
    2  0.080  0.036  0.036  0.000  0.000  0.000  0.000  0.000  0.000  0.151
tot    0.154  0.106  0.106  0.040  0.000  0.000  0.000  0.000  0.000  0.405
 
band     7 # energy   17.56292270 # occ.  0.00000000
 
ion      s     py     pz     px    dxy    dyz    dz2    dxz  x2-y2    tot
    1  0.165  0.016  0.016  0.039  0.000  0.000  0.000  0.000  0.000  0.236
    2  0.004  0.121  0.121  0.014  0.000  0.000  0.000  0.000  0.000  0.260
tot    0.169  0.136  0.137  0.053  0.000  0.000  0.000  0.000  0.000  0.496
 
band     8 # energy   18.35296830 # occ.  0.00000000
 
ion      s     py     pz     px    dxy    dyz    dz2    dxz  x2-y2    tot
    1  0.014  0.048  0.048  0.062  0.000  0.000  0.000  0.000  0.000  0.170
    2  0.031  0.041  0.041  0.001  0.000  0.000  0.000  0.000  0.000  0.114
tot    0.045  0.089  0.089  0.062  0.000  0.000  0.000  0.000  0.000  0.284
 

 k-point   218 :   -0.50000000-0.27631579-0.72368421     weight = 0.00416667

band     1 # energy   -2.25206117 # occ.  2.00000000
 
ion      s     py     pz     px    dxy    dyz    dz2    dxz  x2-y2    tot
    1  0.011  0.057  0.057  0.001  0.000  0.000  0.000  0.000  0.000  0.126
    2  0.446  0.001  0.001  0.000  0.000  0.000  0.000  0.000  0.000  0.447
tot    0.457  0.057  0.057  0.001  0.000  0.000  0.000  0.000  0.000  0.573
 
band     2 # energy    0.94387746 # occ.  2.00000000
 
ion      s     py     pz     px    dxy    dyz    dz2    dxz  x2-y2    tot
    1  0.391  0.005  0.005  0.001  0.000  0.000  0.000  0.000  0.000  0.402
    2  0.007  0.088  0.088  0.006  0.000  0.000  0.000  0.000  0.000  0.188
tot    0.398  0.093  0.093  0.007  0.000  0.000  0.000  0.000  0.000  0.590
 
band     3 # energy    2.84274100 # occ.  2.00000000
 
ion      s     py     pz     px    dxy    dyz    dz2    dxz  x2-y2    tot
    1  0.007  0.037  0.037  0.107  0.000  0.000  0.000  0.000  0.000  0.187
    2  0.002  0.092  0.092  0.051  0.000  0.000  0.000  0.000  0.000  0.237
tot    0.009  0.129  0.129  0.159  0.000  0.000  0.000  0.000  0.000  0.424
 
band     4 # energy    3.66043344 # occ.  2.00000000
 
ion      s     py     pz     px    dxy    dyz    dz2    dxz  x2-y2    tot
    1  0.004  0.079  0.079  0.052  0.000  0.000  0.000  0.000  0.000  0.215
    2  0.000  0.041  0.041  0.153  0.000  0.000  0.000  0.000  0.000  0.236
tot    0.004  0.121  0.121  0.205  0.000  0.000  0.000  0.000  0.000  0.450
 
band     5 # energy   13.10883808 # occ.  0.00000000
 
ion      s     py     pz     px    dxy    dyz    dz2    dxz  x2-y2    tot
    1  0.004  0.004  0.004  0.001  0.000  0.000  0.000  0.000  0.000  0.012
    2  0.000  0.001  0.001  0.261  0.000  0.000  0.000  0.000  0.000  0.263
tot    0.004  0.005  0.005  0.262  0.000  0.000  0.000  0.000  0.000  0.275
 
band     6 # energy   16.77709082 # occ.  0.00000000
 
ion      s     py     pz     px    dxy    dyz    dz2    dxz  x2-y2    tot
    1  0.080  0.072  0.072  0.031  0.000  0.000  0.000  0.000  0.000  0.255
    2  0.076  0.042  0.042  0.000  0.000  0.000  0.000  0.000  0.000  0.160
tot    0.156  0.114  0.114  0.031  0.000  0.000  0.000  0.000  0.000  0.415
 
band     7 # energy   17.45144069 # occ.  0.00000000
 
ion      s     py     pz     px    dxy    dyz    dz2    dxz  x2-y2    tot
    1  0.167  0.019  0.019  0.037  0.000  0.000  0.000  0.000  0.000  0.242
    2  0.009  0.117  0.117  0.006  0.000  0.000  0.000  0.000  0.000  0.249
tot    0.176  0.136  0.136  0.043  0.000  0.000  0.000  0.000  0.000  0.491
 
band     8 # energy   18.05360977 # occ.  0.00000000
 
ion      s     py     pz     px    dxy    dyz    dz2    dxz  x2-y2    tot
    1  0.011  0.043  0.043  0.082  0.000  0.000  0.000  0.000  0.000  0.179
    2  0.032  0.034  0.034  0.000  0.000  0.000  0.000  0.000  0.000  0.101
tot    0.043  0.077  0.077  0.082  0.000  0.000  0.000  0.000  0.000  0.280
 

 k-point   219 :   -0.50000000-0.26315789-0.73684211     weight = 0.00416667

band     1 # energy   -2.19455069 # occ.  2.00000000
 
ion      s     py     pz     px    dxy    dyz    dz2    dxz  x2-y2    tot
    1  0.003  0.059  0.059  0.000  0.000  0.000  0.000  0.000  0.000  0.121
    2  0.453  0.000  0.000  0.000  0.000  0.000  0.000  0.000  0.000  0.453
tot    0.456  0.059  0.059  0.000  0.000  0.000  0.000  0.000  0.000  0.574
 
band     2 # energy    0.94485869 # occ.  2.00000000
 
ion      s     py     pz     px    dxy    dyz    dz2    dxz  x2-y2    tot
    1  0.409  0.001  0.001  0.000  0.000  0.000  0.000  0.000  0.000  0.412
    2  0.002  0.091  0.091  0.002  0.000  0.000  0.000  0.000  0.000  0.185
tot    0.411  0.092  0.092  0.002  0.000  0.000  0.000  0.000  0.000  0.597
 
band     3 # energy    2.94167587 # occ.  2.00000000
 
ion      s     py     pz     px    dxy    dyz    dz2    dxz  x2-y2    tot
    1  0.001  0.024  0.024  0.128  0.000  0.000  0.000  0.000  0.000  0.176
    2  0.000  0.104  0.104  0.036  0.000  0.000  0.000  0.000  0.000  0.245
tot    0.001  0.128  0.128  0.164  0.000  0.000  0.000  0.000  0.000  0.421
 
band     4 # energy    3.43400038 # occ.  2.00000000
 
ion      s     py     pz     px    dxy    dyz    dz2    dxz  x2-y2    tot
    1  0.001  0.094  0.094  0.033  0.000  0.000  0.000  0.000  0.000  0.222
    2  0.000  0.026  0.026  0.171  0.000  0.000  0.000  0.000  0.000  0.223
tot    0.002  0.120  0.120  0.204  0.000  0.000  0.000  0.000  0.000  0.445
 
band     5 # energy   13.12359598 # occ.  0.00000000
 
ion      s     py     pz     px    dxy    dyz    dz2    dxz  x2-y2    tot
    1  0.001  0.003  0.003  0.000  0.000  0.000  0.000  0.000  0.000  0.008
    2  0.000  0.000  0.000  0.267  0.000  0.000  0.000  0.000  0.000  0.268
tot    0.001  0.004  0.004  0.268  0.000  0.000  0.000  0.000  0.000  0.276
 
band     6 # energy   17.03562034 # occ.  0.00000000
 
ion      s     py     pz     px    dxy    dyz    dz2    dxz  x2-y2    tot
    1  0.098  0.072  0.072  0.016  0.000  0.000  0.000  0.000  0.000  0.259
    2  0.071  0.056  0.056  0.000  0.000  0.000  0.000  0.000  0.000  0.183
tot    0.169  0.128  0.128  0.016  0.000  0.000  0.000  0.000  0.000  0.441
 
band     7 # energy   17.36735890 # occ.  0.00000000
 
ion      s     py     pz     px    dxy    dyz    dz2    dxz  x2-y2    tot
    1  0.159  0.035  0.035  0.023  0.000  0.000  0.000  0.000  0.000  0.253
    2  0.025  0.106  0.106  0.001  0.000  0.000  0.000  0.000  0.000  0.238
tot    0.184  0.141  0.141  0.025  0.000  0.000  0.000  0.000  0.000  0.491
 
band     8 # energy   17.78336338 # occ.  0.00000000
 
ion      s     py     pz     px    dxy    dyz    dz2    dxz  x2-y2    tot
    1  0.004  0.027  0.027  0.116  0.000  0.000  0.000  0.000  0.000  0.173
    2  0.022  0.029  0.029  0.000  0.000  0.000  0.000  0.000  0.000  0.080
tot    0.026  0.056  0.056  0.116  0.000  0.000  0.000  0.000  0.000  0.253
 

 k-point   220 :   -0.50000000-0.25000000-0.75000000     weight = 0.00416667

band     1 # energy   -2.17461209 # occ.  2.00000000
 
ion      s     py     pz     px    dxy    dyz    dz2    dxz  x2-y2    tot
    1  0.000  0.059  0.059  0.000  0.000  0.000  0.000  0.000  0.000  0.119
    2  0.456  0.000  0.000  0.000  0.000  0.000  0.000  0.000  0.000  0.456
tot    0.456  0.059  0.059  0.000  0.000  0.000  0.000  0.000  0.000  0.575
 
band     2 # energy    0.94295872 # occ.  2.00000000
 
ion      s     py     pz     px    dxy    dyz    dz2    dxz  x2-y2    tot
    1  0.415  0.000  0.000  0.000  0.000  0.000  0.000  0.000  0.000  0.415
    2  0.000  0.092  0.092  0.000  0.000  0.000  0.000  0.000  0.000  0.184
tot    0.415  0.092  0.092  0.000  0.000  0.000  0.000  0.000  0.000  0.599
 
band     3 # energy    3.02153619 # occ.  2.00000000
 
ion      s     py     pz     px    dxy    dyz    dz2    dxz  x2-y2    tot
    1  0.000  0.000  0.000  0.161  0.000  0.000  0.000  0.000  0.000  0.161
    2  0.000  0.129  0.129  0.000  0.000  0.000  0.000  0.000  0.000  0.257
tot    0.000  0.129  0.129  0.161  0.000  0.000  0.000  0.000  0.000  0.418
 
band     4 # energy    3.31298196 # occ.  2.00000000
 
ion      s     py     pz     px    dxy    dyz    dz2    dxz  x2-y2    tot
    1  0.000  0.118  0.118  0.000  0.000  0.000  0.000  0.000  0.000  0.237
    2  0.000  0.000  0.000  0.208  0.000  0.000  0.000  0.000  0.000  0.208
tot    0.000  0.118  0.118  0.208  0.000  0.000  0.000  0.000  0.000  0.445
 
band     5 # energy   13.12889887 # occ.  0.00000000
 
ion      s     py     pz     px    dxy    dyz    dz2    dxz  x2-y2    tot
    1  0.000  0.003  0.003  0.000  0.000  0.000  0.000  0.000  0.000  0.006
    2  0.000  0.000  0.000  0.270  0.000  0.000  0.000  0.000  0.000  0.270
tot    0.000  0.003  0.003  0.270  0.000  0.000  0.000  0.000  0.000  0.276
 
band     6 # energy   17.24239009 # occ.  0.00000000
 
ion      s     py     pz     px    dxy    dyz    dz2    dxz  x2-y2    tot
    1  0.262  0.000  0.000  0.000  0.000  0.000  0.000  0.000  0.000  0.262
    2  0.000  0.160  0.160  0.000  0.000  0.000  0.000  0.000  0.000  0.319
tot    0.262  0.160  0.160  0.000  0.000  0.000  0.000  0.000  0.000  0.581
 
band     7 # energy   17.26673539 # occ.  0.00000000
 
ion      s     py     pz     px    dxy    dyz    dz2    dxz  x2-y2    tot
    1  0.000  0.135  0.135  0.000  0.000  0.000  0.000  0.000  0.000  0.269
    2  0.118  0.000  0.000  0.000  0.000  0.000  0.000  0.000  0.000  0.118
tot    0.118  0.135  0.135  0.000  0.000  0.000  0.000  0.000  0.000  0.388
 
band     8 # energy   17.64443708 # occ.  0.00000000
 
ion      s     py     pz     px    dxy    dyz    dz2    dxz  x2-y2    tot
    1  0.000  0.000  0.000  0.156  0.000  0.000  0.000  0.000  0.000  0.156
    2  0.000  0.031  0.031  0.000  0.000  0.000  0.000  0.000  0.000  0.061
tot    0.000  0.031  0.031  0.156  0.000  0.000  0.000  0.000  0.000  0.217
 

 k-point   221 :   -0.50000000-0.25000000-0.75000000     weight = 0.00416667

band     1 # energy   -2.17461209 # occ.  2.00000000
 
ion      s     py     pz     px    dxy    dyz    dz2    dxz  x2-y2    tot
    1  0.000  0.059  0.059  0.000  0.000  0.000  0.000  0.000  0.000  0.119
    2  0.456  0.000  0.000  0.000  0.000  0.000  0.000  0.000  0.000  0.456
tot    0.456  0.059  0.059  0.000  0.000  0.000  0.000  0.000  0.000  0.575
 
band     2 # energy    0.94295872 # occ.  2.00000000
 
ion      s     py     pz     px    dxy    dyz    dz2    dxz  x2-y2    tot
    1  0.415  0.000  0.000  0.000  0.000  0.000  0.000  0.000  0.000  0.415
    2  0.000  0.092  0.092  0.000  0.000  0.000  0.000  0.000  0.000  0.184
tot    0.415  0.092  0.092  0.000  0.000  0.000  0.000  0.000  0.000  0.599
 
band     3 # energy    3.02153619 # occ.  2.00000000
 
ion      s     py     pz     px    dxy    dyz    dz2    dxz  x2-y2    tot
    1  0.000  0.000  0.000  0.161  0.000  0.000  0.000  0.000  0.000  0.161
    2  0.000  0.129  0.129  0.000  0.000  0.000  0.000  0.000  0.000  0.257
tot    0.000  0.129  0.129  0.161  0.000  0.000  0.000  0.000  0.000  0.418
 
band     4 # energy    3.31298196 # occ.  2.00000000
 
ion      s     py     pz     px    dxy    dyz    dz2    dxz  x2-y2    tot
    1  0.000  0.118  0.118  0.000  0.000  0.000  0.000  0.000  0.000  0.237
    2  0.000  0.000  0.000  0.208  0.000  0.000  0.000  0.000  0.000  0.208
tot    0.000  0.118  0.118  0.208  0.000  0.000  0.000  0.000  0.000  0.445
 
band     5 # energy   13.12889887 # occ.  0.00000000
 
ion      s     py     pz     px    dxy    dyz    dz2    dxz  x2-y2    tot
    1  0.000  0.003  0.003  0.000  0.000  0.000  0.000  0.000  0.000  0.006
    2  0.000  0.000  0.000  0.270  0.000  0.000  0.000  0.000  0.000  0.270
tot    0.000  0.003  0.003  0.270  0.000  0.000  0.000  0.000  0.000  0.276
 
band     6 # energy   17.24239009 # occ.  0.00000000
 
ion      s     py     pz     px    dxy    dyz    dz2    dxz  x2-y2    tot
    1  0.262  0.000  0.000  0.000  0.000  0.000  0.000  0.000  0.000  0.262
    2  0.000  0.160  0.160  0.000  0.000  0.000  0.000  0.000  0.000  0.319
tot    0.262  0.160  0.160  0.000  0.000  0.000  0.000  0.000  0.000  0.581
 
band     7 # energy   17.26673545 # occ.  0.00000000
 
ion      s     py     pz     px    dxy    dyz    dz2    dxz  x2-y2    tot
    1  0.000  0.135  0.135  0.000  0.000  0.000  0.000  0.000  0.000  0.269
    2  0.118  0.000  0.000  0.000  0.000  0.000  0.000  0.000  0.000  0.118
tot    0.118  0.135  0.135  0.000  0.000  0.000  0.000  0.000  0.000  0.388
 
band     8 # energy   17.64443708 # occ.  0.00000000
 
ion      s     py     pz     px    dxy    dyz    dz2    dxz  x2-y2    tot
    1  0.000  0.000  0.000  0.156  0.000  0.000  0.000  0.000  0.000  0.156
    2  0.000  0.031  0.031  0.000  0.000  0.000  0.000  0.000  0.000  0.061
tot    0.000  0.031  0.031  0.156  0.000  0.000  0.000  0.000  0.000  0.217
 

 k-point   222 :   -0.50000000-0.23684211-0.73684211     weight = 0.00416667

band     1 # energy   -2.17628898 # occ.  2.00000000
 
ion      s     py     pz     px    dxy    dyz    dz2    dxz  x2-y2    tot
    1  0.000  0.066  0.053  0.000  0.000  0.000  0.000  0.000  0.000  0.119
    2  0.455  0.000  0.000  0.000  0.000  0.000  0.000  0.000  0.000  0.455
tot    0.455  0.066  0.053  0.000  0.000  0.000  0.000  0.000  0.000  0.574
 
band     2 # energy    0.93472202 # occ.  2.00000000
 
ion      s     py     pz     px    dxy    dyz    dz2    dxz  x2-y2    tot
    1  0.413  0.000  0.000  0.000  0.000  0.000  0.000  0.000  0.000  0.413
    2  0.000  0.108  0.076  0.000  0.000  0.000  0.000  0.000  0.000  0.184
tot    0.413  0.108  0.076  0.000  0.000  0.000  0.000  0.000  0.000  0.598
 
band     3 # energy    3.03533590 # occ.  2.00000000
 
ion      s     py     pz     px    dxy    dyz    dz2    dxz  x2-y2    tot
    1  0.001  0.000  0.000  0.161  0.000  0.000  0.000  0.000  0.000  0.162
    2  0.000  0.109  0.148  0.000  0.000  0.000  0.000  0.000  0.000  0.258
tot    0.001  0.109  0.148  0.161  0.000  0.000  0.000  0.000  0.000  0.420
 
band     4 # energy    3.32082291 # occ.  2.00000000
 
ion      s     py     pz     px    dxy    dyz    dz2    dxz  x2-y2    tot
    1  0.000  0.111  0.126  0.000  0.000  0.000  0.000  0.000  0.000  0.236
    2  0.000  0.000  0.000  0.208  0.000  0.000  0.000  0.000  0.000  0.209
tot    0.000  0.111  0.126  0.208  0.000  0.000  0.000  0.000  0.000  0.445
 
band     5 # energy   13.08750778 # occ.  0.00000000
 
ion      s     py     pz     px    dxy    dyz    dz2    dxz  x2-y2    tot
    1  0.000  0.009  0.000  0.000  0.000  0.000  0.000  0.000  0.000  0.009
    2  0.002  0.000  0.000  0.265  0.000  0.000  0.000  0.000  0.000  0.267
tot    0.002  0.009  0.000  0.265  0.000  0.000  0.000  0.000  0.000  0.276
 
band     6 # energy   16.98688439 # occ.  0.00000000
 
ion      s     py     pz     px    dxy    dyz    dz2    dxz  x2-y2    tot
    1  0.193  0.000  0.000  0.043  0.000  0.000  0.000  0.000  0.000  0.236
    2  0.000  0.062  0.172  0.000  0.000  0.000  0.000  0.000  0.000  0.234
tot    0.193  0.062  0.172  0.043  0.000  0.000  0.000  0.000  0.000  0.471
 
band     7 # energy   17.31261754 # occ.  0.00000000
 
ion      s     py     pz     px    dxy    dyz    dz2    dxz  x2-y2    tot
    1  0.000  0.126  0.141  0.000  0.000  0.000  0.000  0.000  0.000  0.267
    2  0.116  0.000  0.000  0.005  0.000  0.000  0.000  0.000  0.000  0.121
tot    0.116  0.126  0.141  0.005  0.000  0.000  0.000  0.000  0.000  0.388
 
band     8 # energy   17.90209097 # occ.  0.00000000
 
ion      s     py     pz     px    dxy    dyz    dz2    dxz  x2-y2    tot
    1  0.069  0.000  0.000  0.113  0.000  0.000  0.000  0.000  0.000  0.182
    2  0.000  0.142  0.005  0.000  0.000  0.000  0.000  0.000  0.000  0.147
tot    0.069  0.142  0.005  0.113  0.000  0.000  0.000  0.000  0.000  0.328
 

 k-point   223 :   -0.50000000-0.22368421-0.72368421     weight = 0.00416667

band     1 # energy   -2.18126302 # occ.  2.00000000
 
ion      s     py     pz     px    dxy    dyz    dz2    dxz  x2-y2    tot
    1  0.000  0.072  0.047  0.000  0.000  0.000  0.000  0.000  0.000  0.119
    2  0.455  0.000  0.000  0.000  0.000  0.000  0.000  0.000  0.000  0.455
tot    0.455  0.072  0.047  0.000  0.000  0.000  0.000  0.000  0.000  0.574
 
band     2 # energy    0.91078454 # occ.  2.00000000
 
ion      s     py     pz     px    dxy    dyz    dz2    dxz  x2-y2    tot
    1  0.409  0.000  0.000  0.001  0.000  0.000  0.000  0.000  0.000  0.410
    2  0.000  0.123  0.062  0.000  0.000  0.000  0.000  0.000  0.000  0.184
tot    0.409  0.123  0.062  0.001  0.000  0.000  0.000  0.000  0.000  0.594
 
band     3 # energy    3.07588525 # occ.  2.00000000
 
ion      s     py     pz     px    dxy    dyz    dz2    dxz  x2-y2    tot
    1  0.005  0.000  0.000  0.161  0.000  0.000  0.000  0.000  0.000  0.166
    2  0.000  0.091  0.167  0.000  0.000  0.000  0.000  0.000  0.000  0.258
tot    0.005  0.091  0.167  0.161  0.000  0.000  0.000  0.000  0.000  0.424
 
band     4 # energy    3.34423071 # occ.  2.00000000
 
ion      s     py     pz     px    dxy    dyz    dz2    dxz  x2-y2    tot
    1  0.000  0.103  0.133  0.000  0.000  0.000  0.000  0.000  0.000  0.236
    2  0.001  0.000  0.000  0.209  0.000  0.000  0.000  0.000  0.000  0.210
tot    0.001  0.103  0.133  0.209  0.000  0.000  0.000  0.000  0.000  0.446
 
band     5 # energy   12.96886100 # occ.  0.00000000
 
ion      s     py     pz     px    dxy    dyz    dz2    dxz  x2-y2    tot
    1  0.000  0.016  0.000  0.000  0.000  0.000  0.000  0.000  0.000  0.017
    2  0.007  0.000  0.000  0.252  0.000  0.000  0.000  0.000  0.000  0.259
tot    0.007  0.016  0.000  0.252  0.000  0.000  0.000  0.000  0.000  0.276
 
band     6 # energy   16.60313122 # occ.  0.00000000
 
ion      s     py     pz     px    dxy    dyz    dz2    dxz  x2-y2    tot
    1  0.173  0.000  0.000  0.057  0.000  0.000  0.000  0.000  0.000  0.230
    2  0.000  0.044  0.151  0.000  0.000  0.000  0.000  0.000  0.000  0.195
tot    0.173  0.044  0.151  0.057  0.000  0.000  0.000  0.000  0.000  0.425
 
band     7 # energy   17.44466438 # occ.  0.00000000
 
ion      s     py     pz     px    dxy    dyz    dz2    dxz  x2-y2    tot
    1  0.000  0.115  0.145  0.000  0.000  0.000  0.000  0.000  0.000  0.259
    2  0.111  0.000  0.000  0.019  0.000  0.000  0.000  0.000  0.000  0.129
tot    0.111  0.115  0.145  0.019  0.000  0.000  0.000  0.000  0.000  0.389
 
band     8 # energy   18.29213349 # occ.  0.00000000
 
ion      s     py     pz     px    dxy    dyz    dz2    dxz  x2-y2    tot
    1  0.090  0.000  0.000  0.097  0.000  0.000  0.000  0.000  0.000  0.187
    2  0.000  0.177  0.013  0.000  0.000  0.000  0.000  0.000  0.000  0.190
tot    0.090  0.177  0.013  0.097  0.000  0.000  0.000  0.000  0.000  0.377
 

 k-point   224 :   -0.50000000-0.21052632-0.71052632     weight = 0.00416667

band     1 # energy   -2.18936793 # occ.  2.00000000
 
ion      s     py     pz     px    dxy    dyz    dz2    dxz  x2-y2    tot
    1  0.000  0.078  0.041  0.000  0.000  0.000  0.000  0.000  0.000  0.120
    2  0.454  0.000  0.000  0.000  0.000  0.000  0.000  0.000  0.000  0.454
tot    0.454  0.078  0.041  0.000  0.000  0.000  0.000  0.000  0.000  0.574
 
band     2 # energy    0.87325376 # occ.  2.00000000
 
ion      s     py     pz     px    dxy    dyz    dz2    dxz  x2-y2    tot
    1  0.403  0.000  0.000  0.001  0.000  0.000  0.000  0.000  0.000  0.405
    2  0.000  0.136  0.049  0.000  0.000  0.000  0.000  0.000  0.000  0.185
tot    0.403  0.136  0.049  0.001  0.000  0.000  0.000  0.000  0.000  0.589
 
band     3 # energy    3.14085314 # occ.  2.00000000
 
ion      s     py     pz     px    dxy    dyz    dz2    dxz  x2-y2    tot
    1  0.009  0.000  0.000  0.162  0.000  0.000  0.000  0.000  0.000  0.171
    2  0.000  0.075  0.184  0.000  0.000  0.000  0.000  0.000  0.000  0.259
tot    0.009  0.075  0.184  0.162  0.000  0.000  0.000  0.000  0.000  0.430
 
band     4 # energy    3.38286207 # occ.  2.00000000
 
ion      s     py     pz     px    dxy    dyz    dz2    dxz  x2-y2    tot
    1  0.000  0.095  0.140  0.000  0.000  0.000  0.000  0.000  0.000  0.235
    2  0.001  0.000  0.000  0.211  0.000  0.000  0.000  0.000  0.000  0.212
tot    0.001  0.095  0.140  0.211  0.000  0.000  0.000  0.000  0.000  0.448
 
band     5 # energy   12.78673155 # occ.  0.00000000
 
ion      s     py     pz     px    dxy    dyz    dz2    dxz  x2-y2    tot
    1  0.000  0.025  0.002  0.000  0.000  0.000  0.000  0.000  0.000  0.027
    2  0.014  0.000  0.000  0.234  0.000  0.000  0.000  0.000  0.000  0.248
tot    0.014  0.025  0.002  0.234  0.000  0.000  0.000  0.000  0.000  0.275
 
band     6 # energy   16.21078109 # occ.  0.00000000
 
ion      s     py     pz     px    dxy    dyz    dz2    dxz  x2-y2    tot
    1  0.169  0.000  0.000  0.060  0.000  0.000  0.000  0.000  0.000  0.230
    2  0.000  0.038  0.135  0.000  0.000  0.000  0.000  0.000  0.000  0.173
tot    0.169  0.038  0.135  0.060  0.000  0.000  0.000  0.000  0.000  0.403
 
band     7 # energy   17.64886085 # occ.  0.00000000
 
ion      s     py     pz     px    dxy    dyz    dz2    dxz  x2-y2    tot
    1  0.000  0.104  0.146  0.000  0.000  0.000  0.000  0.000  0.000  0.250
    2  0.103  0.000  0.000  0.038  0.000  0.000  0.000  0.000  0.000  0.141
tot    0.103  0.104  0.146  0.038  0.000  0.000  0.000  0.000  0.000  0.391
 
band     8 # energy   18.69437487 # occ.  0.00000000
 
ion      s     py     pz     px    dxy    dyz    dz2    dxz  x2-y2    tot
    1  0.095  0.000  0.000  0.090  0.000  0.000  0.000  0.000  0.000  0.185
    2  0.000  0.200  0.018  0.000  0.000  0.000  0.000  0.000  0.000  0.218
tot    0.095  0.200  0.018  0.090  0.000  0.000  0.000  0.000  0.000  0.403
 

 k-point   225 :   -0.50000000-0.19736842-0.69736842     weight = 0.00416667

band     1 # energy   -2.20031083 # occ.  2.00000000
 
ion      s     py     pz     px    dxy    dyz    dz2    dxz  x2-y2    tot
    1  0.000  0.085  0.036  0.000  0.000  0.000  0.000  0.000  0.000  0.121
    2  0.452  0.000  0.000  0.000  0.000  0.000  0.000  0.000  0.000  0.452
tot    0.452  0.085  0.036  0.000  0.000  0.000  0.000  0.000  0.000  0.573
 
band     2 # energy    0.82503540 # occ.  2.00000000
 
ion      s     py     pz     px    dxy    dyz    dz2    dxz  x2-y2    tot
    1  0.396  0.000  0.000  0.002  0.000  0.000  0.000  0.000  0.000  0.398
    2  0.000  0.147  0.038  0.000  0.000  0.000  0.000  0.000  0.000  0.185
tot    0.396  0.147  0.038  0.002  0.000  0.000  0.000  0.000  0.000  0.583
 
band     3 # energy    3.22695599 # occ.  2.00000000
 
ion      s     py     pz     px    dxy    dyz    dz2    dxz  x2-y2    tot
    1  0.014  0.000  0.000  0.163  0.000  0.000  0.000  0.000  0.000  0.177
    2  0.000  0.062  0.199  0.000  0.000  0.000  0.000  0.000  0.000  0.260
tot    0.014  0.062  0.199  0.163  0.000  0.000  0.000  0.000  0.000  0.438
 
band     4 # energy    3.43615073 # occ.  2.00000000
 
ion      s     py     pz     px    dxy    dyz    dz2    dxz  x2-y2    tot
    1  0.000  0.087  0.147  0.000  0.000  0.000  0.000  0.000  0.000  0.234
    2  0.002  0.000  0.000  0.214  0.000  0.000  0.000  0.000  0.000  0.216
tot    0.002  0.087  0.147  0.214  0.000  0.000  0.000  0.000  0.000  0.450
 
band     5 # energy   12.55759699 # occ.  0.00000000
 
ion      s     py     pz     px    dxy    dyz    dz2    dxz  x2-y2    tot
    1  0.000  0.032  0.005  0.000  0.000  0.000  0.000  0.000  0.000  0.038
    2  0.022  0.000  0.000  0.214  0.000  0.000  0.000  0.000  0.000  0.236
tot    0.022  0.032  0.005  0.214  0.000  0.000  0.000  0.000  0.000  0.273
 
band     6 # energy   15.82196044 # occ.  0.00000000
 
ion      s     py     pz     px    dxy    dyz    dz2    dxz  x2-y2    tot
    1  0.171  0.000  0.000  0.060  0.000  0.000  0.000  0.000  0.000  0.231
    2  0.000  0.035  0.122  0.000  0.000  0.000  0.000  0.000  0.000  0.157
tot    0.171  0.035  0.122  0.060  0.000  0.000  0.000  0.000  0.000  0.388
 
band     7 # energy   17.90830592 # occ.  0.00000000
 
ion      s     py     pz     px    dxy    dyz    dz2    dxz  x2-y2    tot
    1  0.000  0.093  0.147  0.000  0.000  0.000  0.000  0.000  0.000  0.240
    2  0.095  0.000  0.000  0.059  0.000  0.000  0.000  0.000  0.000  0.154
tot    0.095  0.093  0.147  0.059  0.000  0.000  0.000  0.000  0.000  0.394
 
band     8 # energy   19.09582857 # occ.  0.00000000
 
ion      s     py     pz     px    dxy    dyz    dz2    dxz  x2-y2    tot
    1  0.096  0.000  0.000  0.085  0.000  0.000  0.000  0.000  0.000  0.181
    2  0.000  0.222  0.020  0.000  0.000  0.000  0.000  0.000  0.000  0.243
tot    0.096  0.222  0.020  0.085  0.000  0.000  0.000  0.000  0.000  0.424
 

 k-point   226 :   -0.50000000-0.18421053-0.68421053     weight = 0.00416667

band     1 # energy   -2.21368962 # occ.  2.00000000
 
ion      s     py     pz     px    dxy    dyz    dz2    dxz  x2-y2    tot
    1  0.000  0.091  0.031  0.000  0.000  0.000  0.000  0.000  0.000  0.122
    2  0.451  0.000  0.000  0.000  0.000  0.000  0.000  0.000  0.000  0.451
tot    0.451  0.091  0.031  0.000  0.000  0.000  0.000  0.000  0.000  0.572
 
band     2 # energy    0.76926447 # occ.  2.00000000
 
ion      s     py     pz     px    dxy    dyz    dz2    dxz  x2-y2    tot
    1  0.389  0.000  0.000  0.003  0.000  0.000  0.000  0.000  0.000  0.392
    2  0.000  0.155  0.029  0.000  0.000  0.000  0.000  0.000  0.000  0.185
tot    0.389  0.155  0.029  0.003  0.000  0.000  0.000  0.000  0.000  0.577
 
band     3 # energy    3.33053726 # occ.  2.00000000
 
ion      s     py     pz     px    dxy    dyz    dz2    dxz  x2-y2    tot
    1  0.019  0.000  0.000  0.165  0.000  0.000  0.000  0.000  0.000  0.184
    2  0.000  0.050  0.212  0.000  0.000  0.000  0.000  0.000  0.000  0.262
tot    0.019  0.050  0.212  0.165  0.000  0.000  0.000  0.000  0.000  0.446
 
band     4 # energy    3.50330852 # occ.  2.00000000
 
ion      s     py     pz     px    dxy    dyz    dz2    dxz  x2-y2    tot
    1  0.000  0.079  0.154  0.000  0.000  0.000  0.000  0.000  0.000  0.233
    2  0.003  0.000  0.000  0.217  0.000  0.000  0.000  0.000  0.000  0.220
tot    0.003  0.079  0.154  0.217  0.000  0.000  0.000  0.000  0.000  0.453
 
band     5 # energy   12.29648452 # occ.  0.00000000
 
ion      s     py     pz     px    dxy    dyz    dz2    dxz  x2-y2    tot
    1  0.000  0.040  0.008  0.000  0.000  0.000  0.000  0.000  0.000  0.048
    2  0.029  0.000  0.000  0.194  0.000  0.000  0.000  0.000  0.000  0.223
tot    0.029  0.040  0.008  0.194  0.000  0.000  0.000  0.000  0.000  0.271
 
band     6 # energy   15.44066782 # occ.  0.00000000
 
ion      s     py     pz     px    dxy    dyz    dz2    dxz  x2-y2    tot
    1  0.174  0.000  0.000  0.059  0.000  0.000  0.000  0.000  0.000  0.233
    2  0.000  0.033  0.110  0.000  0.000  0.000  0.000  0.000  0.000  0.143
tot    0.174  0.033  0.110  0.059  0.000  0.000  0.000  0.000  0.000  0.376
 
band     7 # energy   18.20746385 # occ.  0.00000000
 
ion      s     py     pz     px    dxy    dyz    dz2    dxz  x2-y2    tot
    1  0.000  0.083  0.148  0.000  0.000  0.000  0.000  0.000  0.000  0.231
    2  0.086  0.000  0.000  0.081  0.000  0.000  0.000  0.000  0.000  0.167
tot    0.086  0.083  0.148  0.081  0.000  0.000  0.000  0.000  0.000  0.398
 
band     8 # energy   19.49147936 # occ.  0.00000000
 
ion      s     py     pz     px    dxy    dyz    dz2    dxz  x2-y2    tot
    1  0.095  0.000  0.000  0.081  0.000  0.000  0.000  0.000  0.000  0.176
    2  0.000  0.245  0.022  0.000  0.000  0.000  0.000  0.000  0.000  0.267
tot    0.095  0.245  0.022  0.081  0.000  0.000  0.000  0.000  0.000  0.443
 

 k-point   227 :   -0.50000000-0.17105263-0.67105263     weight = 0.00416667

band     1 # energy   -2.22909249 # occ.  2.00000000
 
ion      s     py     pz     px    dxy    dyz    dz2    dxz  x2-y2    tot
    1  0.000  0.096  0.026  0.000  0.000  0.000  0.000  0.000  0.000  0.123
    2  0.449  0.000  0.000  0.000  0.000  0.000  0.000  0.000  0.000  0.449
tot    0.449  0.096  0.026  0.000  0.000  0.000  0.000  0.000  0.000  0.572
 
band     2 # energy    0.70886173 # occ.  2.00000000
 
ion      s     py     pz     px    dxy    dyz    dz2    dxz  x2-y2    tot
    1  0.382  0.000  0.000  0.003  0.000  0.000  0.000  0.000  0.000  0.385
    2  0.000  0.162  0.023  0.000  0.000  0.000  0.000  0.000  0.000  0.185
tot    0.382  0.162  0.023  0.003  0.000  0.000  0.000  0.000  0.000  0.570
 
band     3 # energy    3.44792690 # occ.  2.00000000
 
ion      s     py     pz     px    dxy    dyz    dz2    dxz  x2-y2    tot
    1  0.022  0.000  0.000  0.168  0.000  0.000  0.000  0.000  0.000  0.190
    2  0.000  0.041  0.224  0.000  0.000  0.000  0.000  0.000  0.000  0.265
tot    0.022  0.041  0.224  0.168  0.000  0.000  0.000  0.000  0.000  0.455
 
band     4 # energy    3.58330807 # occ.  2.00000000
 
ion      s     py     pz     px    dxy    dyz    dz2    dxz  x2-y2    tot
    1  0.000  0.072  0.160  0.000  0.000  0.000  0.000  0.000  0.000  0.232
    2  0.004  0.000  0.000  0.221  0.000  0.000  0.000  0.000  0.000  0.225
tot    0.004  0.072  0.160  0.221  0.000  0.000  0.000  0.000  0.000  0.457
 
band     5 # energy   12.01545100 # occ.  0.00000000
 
ion      s     py     pz     px    dxy    dyz    dz2    dxz  x2-y2    tot
    1  0.000  0.046  0.011  0.000  0.000  0.000  0.000  0.000  0.000  0.057
    2  0.037  0.000  0.000  0.174  0.000  0.000  0.000  0.000  0.000  0.211
tot    0.037  0.046  0.011  0.174  0.000  0.000  0.000  0.000  0.000  0.268
 
band     6 # energy   15.06935474 # occ.  0.00000000
 
ion      s     py     pz     px    dxy    dyz    dz2    dxz  x2-y2    tot
    1  0.179  0.000  0.000  0.056  0.000  0.000  0.000  0.000  0.000  0.235
    2  0.000  0.032  0.098  0.000  0.000  0.000  0.000  0.000  0.000  0.130
tot    0.179  0.032  0.098  0.056  0.000  0.000  0.000  0.000  0.000  0.366
 
band     7 # energy   18.53345870 # occ.  0.00000000
 
ion      s     py     pz     px    dxy    dyz    dz2    dxz  x2-y2    tot
    1  0.000  0.073  0.150  0.000  0.000  0.000  0.000  0.000  0.000  0.223
    2  0.078  0.000  0.000  0.103  0.000  0.000  0.000  0.000  0.000  0.181
tot    0.078  0.073  0.150  0.103  0.000  0.000  0.000  0.000  0.000  0.404
 
band     8 # energy   19.87728000 # occ.  0.00000000
 
ion      s     py     pz     px    dxy    dyz    dz2    dxz  x2-y2    tot
    1  0.094  0.000  0.000  0.076  0.000  0.000  0.000  0.000  0.000  0.170
    2  0.000  0.269  0.024  0.000  0.000  0.000  0.000  0.000  0.000  0.292
tot    0.094  0.269  0.024  0.076  0.000  0.000  0.000  0.000  0.000  0.463
 

 k-point   228 :   -0.50000000-0.15789474-0.65789474     weight = 0.00416667

band     1 # energy   -2.24602998 # occ.  2.00000000
 
ion      s     py     pz     px    dxy    dyz    dz2    dxz  x2-y2    tot
    1  0.000  0.102  0.022  0.000  0.000  0.000  0.000  0.000  0.000  0.124
    2  0.447  0.000  0.000  0.000  0.000  0.000  0.000  0.000  0.000  0.447
tot    0.447  0.102  0.022  0.000  0.000  0.000  0.000  0.000  0.000  0.571
 
band     2 # energy    0.64633235 # occ.  2.00000000
 
ion      s     py     pz     px    dxy    dyz    dz2    dxz  x2-y2    tot
    1  0.376  0.000  0.000  0.003  0.000  0.000  0.000  0.000  0.000  0.379
    2  0.000  0.168  0.017  0.000  0.000  0.000  0.000  0.000  0.000  0.185
tot    0.376  0.168  0.017  0.003  0.000  0.000  0.000  0.000  0.000  0.564
 
band     3 # energy    3.57565795 # occ.  2.00000000
 
ion      s     py     pz     px    dxy    dyz    dz2    dxz  x2-y2    tot
    1  0.025  0.000  0.000  0.171  0.000  0.000  0.000  0.000  0.000  0.196
    2  0.000  0.033  0.235  0.000  0.000  0.000  0.000  0.000  0.000  0.268
tot    0.025  0.033  0.235  0.171  0.000  0.000  0.000  0.000  0.000  0.464
 
band     4 # energy    3.67490408 # occ.  2.00000000
 
ion      s     py     pz     px    dxy    dyz    dz2    dxz  x2-y2    tot
    1  0.000  0.064  0.166  0.000  0.000  0.000  0.000  0.000  0.000  0.231
    2  0.005  0.000  0.000  0.226  0.000  0.000  0.000  0.000  0.000  0.230
tot    0.005  0.064  0.166  0.226  0.000  0.000  0.000  0.000  0.000  0.461
 
band     5 # energy   11.72376331 # occ.  0.00000000
 
ion      s     py     pz     px    dxy    dyz    dz2    dxz  x2-y2    tot
    1  0.000  0.052  0.014  0.000  0.000  0.000  0.000  0.000  0.000  0.065
    2  0.043  0.000  0.000  0.155  0.000  0.000  0.000  0.000  0.000  0.199
tot    0.043  0.052  0.014  0.155  0.000  0.000  0.000  0.000  0.000  0.264
 
band     6 # energy   14.71010046 # occ.  0.00000000
 
ion      s     py     pz     px    dxy    dyz    dz2    dxz  x2-y2    tot
    1  0.185  0.000  0.000  0.053  0.000  0.000  0.000  0.000  0.000  0.238
    2  0.000  0.032  0.088  0.000  0.000  0.000  0.000  0.000  0.000  0.119
tot    0.185  0.032  0.088  0.053  0.000  0.000  0.000  0.000  0.000  0.357
 
band     7 # energy   18.87604879 # occ.  0.00000000
 
ion      s     py     pz     px    dxy    dyz    dz2    dxz  x2-y2    tot
    1  0.000  0.065  0.152  0.000  0.000  0.000  0.000  0.000  0.000  0.217
    2  0.069  0.000  0.000  0.125  0.000  0.000  0.000  0.000  0.000  0.194
tot    0.069  0.065  0.152  0.125  0.000  0.000  0.000  0.000  0.000  0.410
 
band     8 # energy   20.24914775 # occ.  0.00000000
 
ion      s     py     pz     px    dxy    dyz    dz2    dxz  x2-y2    tot
    1  0.092  0.000  0.000  0.071  0.000  0.000  0.000  0.000  0.000  0.163
    2  0.000  0.295  0.025  0.000  0.000  0.000  0.000  0.000  0.000  0.319
tot    0.092  0.295  0.025  0.071  0.000  0.000  0.000  0.000  0.000  0.482
 

 k-point   229 :   -0.50000000-0.14473684-0.64473684     weight = 0.00416667

band     1 # energy   -2.26399640 # occ.  2.00000000
 
ion      s     py     pz     px    dxy    dyz    dz2    dxz  x2-y2    tot
    1  0.000  0.106  0.018  0.000  0.000  0.000  0.000  0.000  0.000  0.125
    2  0.445  0.000  0.000  0.000  0.000  0.000  0.000  0.000  0.000  0.445
tot    0.445  0.106  0.018  0.000  0.000  0.000  0.000  0.000  0.000  0.570
 
band     2 # energy    0.58376352 # occ.  2.00000000
 
ion      s     py     pz     px    dxy    dyz    dz2    dxz  x2-y2    tot
    1  0.371  0.000  0.000  0.003  0.000  0.000  0.000  0.000  0.000  0.374
    2  0.000  0.172  0.013  0.000  0.000  0.000  0.000  0.000  0.000  0.185
tot    0.371  0.172  0.013  0.003  0.000  0.000  0.000  0.000  0.000  0.559
 
band     3 # energy    3.71048180 # occ.  2.00000000
 
ion      s     py     pz     px    dxy    dyz    dz2    dxz  x2-y2    tot
    1  0.026  0.000  0.000  0.175  0.000  0.000  0.000  0.000  0.000  0.201
    2  0.000  0.027  0.245  0.000  0.000  0.000  0.000  0.000  0.000  0.271
tot    0.026  0.027  0.245  0.175  0.000  0.000  0.000  0.000  0.000  0.473
 
band     4 # energy    3.77660161 # occ.  2.00000000
 
ion      s     py     pz     px    dxy    dyz    dz2    dxz  x2-y2    tot
    1  0.000  0.057  0.172  0.000  0.000  0.000  0.000  0.000  0.000  0.230
    2  0.005  0.000  0.000  0.231  0.000  0.000  0.000  0.000  0.000  0.237
tot    0.005  0.057  0.172  0.231  0.000  0.000  0.000  0.000  0.000  0.466
 
band     5 # energy   11.42852389 # occ.  0.00000000
 
ion      s     py     pz     px    dxy    dyz    dz2    dxz  x2-y2    tot
    1  0.000  0.057  0.015  0.000  0.000  0.000  0.000  0.000  0.000  0.072
    2  0.050  0.000  0.000  0.137  0.000  0.000  0.000  0.000  0.000  0.187
tot    0.050  0.057  0.015  0.137  0.000  0.000  0.000  0.000  0.000  0.259
 
band     6 # energy   14.36492662 # occ.  0.00000000
 
ion      s     py     pz     px    dxy    dyz    dz2    dxz  x2-y2    tot
    1  0.192  0.000  0.000  0.048  0.000  0.000  0.000  0.000  0.000  0.240
    2  0.000  0.031  0.077  0.000  0.000  0.000  0.000  0.000  0.000  0.109
tot    0.192  0.031  0.077  0.048  0.000  0.000  0.000  0.000  0.000  0.348
 
band     7 # energy   19.22692288 # occ.  0.00000000
 
ion      s     py     pz     px    dxy    dyz    dz2    dxz  x2-y2    tot
    1  0.000  0.057  0.155  0.000  0.000  0.000  0.000  0.000  0.000  0.212
    2  0.061  0.000  0.000  0.145  0.000  0.000  0.000  0.000  0.000  0.207
tot    0.061  0.057  0.155  0.145  0.000  0.000  0.000  0.000  0.000  0.419
 
band     8 # energy   20.60292599 # occ.  0.00000000
 
ion      s     py     pz     px    dxy    dyz    dz2    dxz  x2-y2    tot
    1  0.090  0.000  0.000  0.066  0.000  0.000  0.000  0.000  0.000  0.156
    2  0.000  0.322  0.026  0.000  0.000  0.000  0.000  0.000  0.000  0.347
tot    0.090  0.322  0.026  0.066  0.000  0.000  0.000  0.000  0.000  0.503
 

 k-point   230 :   -0.50000000-0.13157895-0.63157895     weight = 0.00416667

band     1 # energy   -2.28242934 # occ.  2.00000000
 
ion      s     py     pz     px    dxy    dyz    dz2    dxz  x2-y2    tot
    1  0.000  0.111  0.015  0.000  0.000  0.000  0.000  0.000  0.000  0.126
    2  0.443  0.000  0.000  0.000  0.000  0.000  0.000  0.000  0.000  0.443
tot    0.443  0.111  0.015  0.000  0.000  0.000  0.000  0.000  0.000  0.569
 
band     2 # energy    0.52287445 # occ.  2.00000000
 
ion      s     py     pz     px    dxy    dyz    dz2    dxz  x2-y2    tot
    1  0.366  0.000  0.000  0.003  0.000  0.000  0.000  0.000  0.000  0.369
    2  0.000  0.175  0.010  0.000  0.000  0.000  0.000  0.000  0.000  0.185
tot    0.366  0.175  0.010  0.003  0.000  0.000  0.000  0.000  0.000  0.554
 
band     3 # energy    3.84932441 # occ.  2.00000000
 
ion      s     py     pz     px    dxy    dyz    dz2    dxz  x2-y2    tot
    1  0.026  0.000  0.000  0.180  0.000  0.000  0.000  0.000  0.000  0.206
    2  0.000  0.021  0.254  0.000  0.000  0.000  0.000  0.000  0.000  0.276
tot    0.026  0.021  0.254  0.180  0.000  0.000  0.000  0.000  0.000  0.481
 
band     4 # energy    3.88665865 # occ.  2.00000000
 
ion      s     py     pz     px    dxy    dyz    dz2    dxz  x2-y2    tot
    1  0.000  0.050  0.178  0.000  0.000  0.000  0.000  0.000  0.000  0.228
    2  0.006  0.000  0.000  0.238  0.000  0.000  0.000  0.000  0.000  0.244
tot    0.006  0.050  0.178  0.238  0.000  0.000  0.000  0.000  0.000  0.472
 
band     5 # energy   11.13542624 # occ.  0.00000000
 
ion      s     py     pz     px    dxy    dyz    dz2    dxz  x2-y2    tot
    1  0.000  0.062  0.016  0.000  0.000  0.000  0.000  0.000  0.000  0.078
    2  0.055  0.000  0.000  0.120  0.000  0.000  0.000  0.000  0.000  0.176
tot    0.055  0.062  0.016  0.120  0.000  0.000  0.000  0.000  0.000  0.254
 
band     6 # energy   14.03598363 # occ.  0.00000000
 
ion      s     py     pz     px    dxy    dyz    dz2    dxz  x2-y2    tot
    1  0.198  0.000  0.000  0.044  0.000  0.000  0.000  0.000  0.000  0.242
    2  0.000  0.031  0.067  0.000  0.000  0.000  0.000  0.000  0.000  0.098
tot    0.198  0.031  0.067  0.044  0.000  0.000  0.000  0.000  0.000  0.340
 
band     7 # energy   19.57907416 # occ.  0.00000000
 
ion      s     py     pz     px    dxy    dyz    dz2    dxz  x2-y2    tot
    1  0.000  0.049  0.159  0.000  0.000  0.000  0.000  0.000  0.000  0.208
    2  0.054  0.000  0.000  0.166  0.000  0.000  0.000  0.000  0.000  0.219
tot    0.054  0.049  0.159  0.166  0.000  0.000  0.000  0.000  0.000  0.428
 
band     8 # energy   20.93460004 # occ.  0.00000000
 
ion      s     py     pz     px    dxy    dyz    dz2    dxz  x2-y2    tot
    1  0.088  0.000  0.000  0.061  0.000  0.000  0.000  0.000  0.000  0.150
    2  0.000  0.348  0.027  0.000  0.000  0.000  0.000  0.000  0.000  0.375
tot    0.088  0.348  0.027  0.061  0.000  0.000  0.000  0.000  0.000  0.525
 

 k-point   231 :   -0.50000000-0.11842105-0.61842105     weight = 0.00416667

band     1 # energy   -2.30083155 # occ.  2.00000000
 
ion      s     py     pz     px    dxy    dyz    dz2    dxz  x2-y2    tot
    1  0.000  0.115  0.012  0.000  0.000  0.000  0.000  0.000  0.000  0.127
    2  0.441  0.000  0.000  0.000  0.000  0.000  0.000  0.000  0.000  0.441
tot    0.441  0.115  0.012  0.000  0.000  0.000  0.000  0.000  0.000  0.568
 
band     2 # energy    0.46497074 # occ.  2.00000000
 
ion      s     py     pz     px    dxy    dyz    dz2    dxz  x2-y2    tot
    1  0.362  0.000  0.000  0.003  0.000  0.000  0.000  0.000  0.000  0.365
    2  0.000  0.178  0.007  0.000  0.000  0.000  0.000  0.000  0.000  0.185
tot    0.362  0.178  0.007  0.003  0.000  0.000  0.000  0.000  0.000  0.550
 
band     3 # energy    3.98917352 # occ.  2.00000000
 
ion      s     py     pz     px    dxy    dyz    dz2    dxz  x2-y2    tot
    1  0.025  0.000  0.000  0.185  0.000  0.000  0.000  0.000  0.000  0.209
    2  0.000  0.017  0.263  0.000  0.000  0.000  0.000  0.000  0.000  0.280
tot    0.025  0.017  0.263  0.185  0.000  0.000  0.000  0.000  0.000  0.490
 
band     4 # energy    4.00299158 # occ.  2.00000000
 
ion      s     py     pz     px    dxy    dyz    dz2    dxz  x2-y2    tot
    1  0.000  0.043  0.184  0.000  0.000  0.000  0.000  0.000  0.000  0.227
    2  0.006  0.000  0.000  0.245  0.000  0.000  0.000  0.000  0.000  0.251
tot    0.006  0.043  0.184  0.245  0.000  0.000  0.000  0.000  0.000  0.478
 
band     5 # energy   10.84922976 # occ.  0.00000000
 
ion      s     py     pz     px    dxy    dyz    dz2    dxz  x2-y2    tot
    1  0.000  0.067  0.016  0.000  0.000  0.000  0.000  0.000  0.000  0.083
    2  0.061  0.000  0.000  0.104  0.000  0.000  0.000  0.000  0.000  0.165
tot    0.061  0.067  0.016  0.104  0.000  0.000  0.000  0.000  0.000  0.248
 
band     6 # energy   13.72550079 # occ.  0.00000000
 
ion      s     py     pz     px    dxy    dyz    dz2    dxz  x2-y2    tot
    1  0.206  0.000  0.000  0.038  0.000  0.000  0.000  0.000  0.000  0.244
    2  0.000  0.032  0.057  0.000  0.000  0.000  0.000  0.000  0.000  0.089
tot    0.206  0.032  0.057  0.038  0.000  0.000  0.000  0.000  0.000  0.333
 
band     7 # energy   19.92611407 # occ.  0.00000000
 
ion      s     py     pz     px    dxy    dyz    dz2    dxz  x2-y2    tot
    1  0.000  0.042  0.164  0.000  0.000  0.000  0.000  0.000  0.000  0.206
    2  0.046  0.000  0.000  0.186  0.000  0.000  0.000  0.000  0.000  0.232
tot    0.046  0.042  0.164  0.186  0.000  0.000  0.000  0.000  0.000  0.438
 
band     8 # energy   21.24100142 # occ.  0.00000000
 
ion      s     py     pz     px    dxy    dyz    dz2    dxz  x2-y2    tot
    1  0.086  0.000  0.000  0.058  0.000  0.000  0.000  0.000  0.000  0.144
    2  0.000  0.373  0.030  0.000  0.000  0.000  0.000  0.000  0.000  0.403
tot    0.086  0.373  0.030  0.058  0.000  0.000  0.000  0.000  0.000  0.547
 

 k-point   232 :   -0.50000000-0.10526316-0.60526316     weight = 0.00416667

band     1 # energy   -2.31871053 # occ.  2.00000000
 
ion      s     py     pz     px    dxy    dyz    dz2    dxz  x2-y2    tot
    1  0.000  0.119  0.009  0.000  0.000  0.000  0.000  0.000  0.000  0.128
    2  0.439  0.000  0.000  0.000  0.000  0.000  0.000  0.000  0.000  0.439
tot    0.439  0.119  0.009  0.000  0.000  0.000  0.000  0.000  0.000  0.567
 
band     2 # energy    0.41109814 # occ.  2.00000000
 
ion      s     py     pz     px    dxy    dyz    dz2    dxz  x2-y2    tot
    1  0.359  0.000  0.000  0.002  0.000  0.000  0.000  0.000  0.000  0.361
    2  0.000  0.179  0.005  0.000  0.000  0.000  0.000  0.000  0.000  0.185
tot    0.359  0.179  0.005  0.002  0.000  0.000  0.000  0.000  0.000  0.546
 
band     3 # energy    4.12316805 # occ.  2.00000000
 
ion      s     py     pz     px    dxy    dyz    dz2    dxz  x2-y2    tot
    1  0.000  0.036  0.190  0.000  0.000  0.000  0.000  0.000  0.000  0.226
    2  0.006  0.000  0.000  0.254  0.000  0.000  0.000  0.000  0.000  0.260
tot    0.006  0.036  0.190  0.254  0.000  0.000  0.000  0.000  0.000  0.486
 
band     4 # energy    4.12702918 # occ.  2.00000000
 
ion      s     py     pz     px    dxy    dyz    dz2    dxz  x2-y2    tot
    1  0.023  0.000  0.000  0.190  0.000  0.000  0.000  0.000  0.000  0.213
    2  0.000  0.013  0.272  0.000  0.000  0.000  0.000  0.000  0.000  0.285
tot    0.023  0.013  0.272  0.190  0.000  0.000  0.000  0.000  0.000  0.498
 
band     5 # energy   10.57424381 # occ.  0.00000000
 
ion      s     py     pz     px    dxy    dyz    dz2    dxz  x2-y2    tot
    1  0.000  0.072  0.016  0.000  0.000  0.000  0.000  0.000  0.000  0.087
    2  0.066  0.000  0.000  0.088  0.000  0.000  0.000  0.000  0.000  0.154
tot    0.066  0.072  0.016  0.088  0.000  0.000  0.000  0.000  0.000  0.241
 
band     6 # energy   13.43592077 # occ.  0.00000000
 
ion      s     py     pz     px    dxy    dyz    dz2    dxz  x2-y2    tot
    1  0.213  0.000  0.000  0.033  0.000  0.000  0.000  0.000  0.000  0.246
    2  0.000  0.032  0.048  0.000  0.000  0.000  0.000  0.000  0.000  0.080
tot    0.213  0.032  0.048  0.033  0.000  0.000  0.000  0.000  0.000  0.325
 
band     7 # energy   20.26192047 # occ.  0.00000000
 
ion      s     py     pz     px    dxy    dyz    dz2    dxz  x2-y2    tot
    1  0.000  0.035  0.170  0.000  0.000  0.000  0.000  0.000  0.000  0.205
    2  0.039  0.000  0.000  0.206  0.000  0.000  0.000  0.000  0.000  0.244
tot    0.039  0.035  0.170  0.206  0.000  0.000  0.000  0.000  0.000  0.449
 
band     8 # energy   21.52048284 # occ.  0.00000000
 
ion      s     py     pz     px    dxy    dyz    dz2    dxz  x2-y2    tot
    1  0.083  0.000  0.000  0.058  0.000  0.000  0.000  0.000  0.000  0.142
    2  0.000  0.391  0.037  0.000  0.000  0.000  0.000  0.000  0.000  0.427
tot    0.083  0.391  0.037  0.058  0.000  0.000  0.000  0.000  0.000  0.569
 

 k-point   233 :   -0.50000000-0.09210526-0.59210526     weight = 0.00416667

band     1 # energy   -2.33560959 # occ.  2.00000000
 
ion      s     py     pz     px    dxy    dyz    dz2    dxz  x2-y2    tot
    1  0.000  0.122  0.007  0.000  0.000  0.000  0.000  0.000  0.000  0.129
    2  0.437  0.000  0.000  0.000  0.000  0.000  0.000  0.000  0.000  0.437
tot    0.437  0.122  0.007  0.000  0.000  0.000  0.000  0.000  0.000  0.566
 
band     2 # energy    0.36207450 # occ.  2.00000000
 
ion      s     py     pz     px    dxy    dyz    dz2    dxz  x2-y2    tot
    1  0.356  0.000  0.000  0.002  0.000  0.000  0.000  0.000  0.000  0.358
    2  0.000  0.181  0.004  0.000  0.000  0.000  0.000  0.000  0.000  0.185
tot    0.356  0.181  0.004  0.002  0.000  0.000  0.000  0.000  0.000  0.543
 
band     3 # energy    4.24431967 # occ.  2.00000000
 
ion      s     py     pz     px    dxy    dyz    dz2    dxz  x2-y2    tot
    1  0.000  0.030  0.195  0.000  0.000  0.000  0.000  0.000  0.000  0.225
    2  0.006  0.000  0.000  0.263  0.000  0.000  0.000  0.000  0.000  0.268
tot    0.006  0.030  0.195  0.263  0.000  0.000  0.000  0.000  0.000  0.493
 
band     4 # energy    4.25982159 # occ.  2.00000000
 
ion      s     py     pz     px    dxy    dyz    dz2    dxz  x2-y2    tot
    1  0.020  0.000  0.000  0.196  0.000  0.000  0.000  0.000  0.000  0.216
    2  0.000  0.010  0.280  0.000  0.000  0.000  0.000  0.000  0.000  0.290
tot    0.020  0.010  0.280  0.196  0.000  0.000  0.000  0.000  0.000  0.506
 
band     5 # energy   10.31463841 # occ.  0.00000000
 
ion      s     py     pz     px    dxy    dyz    dz2    dxz  x2-y2    tot
    1  0.000  0.076  0.014  0.000  0.000  0.000  0.000  0.000  0.000  0.091
    2  0.071  0.000  0.000  0.072  0.000  0.000  0.000  0.000  0.000  0.143
tot    0.071  0.076  0.014  0.072  0.000  0.000  0.000  0.000  0.000  0.233
 
band     6 # energy   13.16990042 # occ.  0.00000000
 
ion      s     py     pz     px    dxy    dyz    dz2    dxz  x2-y2    tot
    1  0.220  0.000  0.000  0.027  0.000  0.000  0.000  0.000  0.000  0.247
    2  0.000  0.032  0.038  0.000  0.000  0.000  0.000  0.000  0.000  0.071
tot    0.220  0.032  0.038  0.027  0.000  0.000  0.000  0.000  0.000  0.318
 
band     7 # energy   20.58040672 # occ.  0.00000000
 
ion      s     py     pz     px    dxy    dyz    dz2    dxz  x2-y2    tot
    1  0.000  0.028  0.176  0.000  0.000  0.000  0.000  0.000  0.000  0.204
    2  0.031  0.000  0.000  0.225  0.000  0.000  0.000  0.000  0.000  0.257
tot    0.031  0.028  0.176  0.225  0.000  0.000  0.000  0.000  0.000  0.461
 
band     8 # energy   21.75132375 # occ.  0.00000000
 
ion      s     py     pz     px    dxy    dyz    dz2    dxz  x2-y2    tot
    1  0.068  0.000  0.000  0.119  0.000  0.000  0.000  0.000  0.000  0.188
    2  0.000  0.299  0.112  0.000  0.000  0.000  0.000  0.000  0.000  0.411
tot    0.068  0.299  0.112  0.119  0.000  0.000  0.000  0.000  0.000  0.599
 

 k-point   234 :   -0.50000000-0.07894737-0.57894737     weight = 0.00416667

band     1 # energy   -2.35111181 # occ.  2.00000000
 
ion      s     py     pz     px    dxy    dyz    dz2    dxz  x2-y2    tot
    1  0.000  0.125  0.005  0.000  0.000  0.000  0.000  0.000  0.000  0.130
    2  0.435  0.000  0.000  0.000  0.000  0.000  0.000  0.000  0.000  0.436
tot    0.435  0.125  0.005  0.000  0.000  0.000  0.000  0.000  0.000  0.565
 
band     2 # energy    0.31853683 # occ.  2.00000000
 
ion      s     py     pz     px    dxy    dyz    dz2    dxz  x2-y2    tot
    1  0.354  0.000  0.000  0.002  0.000  0.000  0.000  0.000  0.000  0.356
    2  0.000  0.182  0.003  0.000  0.000  0.000  0.000  0.000  0.000  0.185
tot    0.354  0.182  0.003  0.002  0.000  0.000  0.000  0.000  0.000  0.540
 
band     3 # energy    4.36307932 # occ.  2.00000000
 
ion      s     py     pz     px    dxy    dyz    dz2    dxz  x2-y2    tot
    1  0.000  0.023  0.201  0.000  0.000  0.000  0.000  0.000  0.000  0.224
    2  0.005  0.000  0.000  0.272  0.000  0.000  0.000  0.000  0.000  0.277
tot    0.005  0.023  0.201  0.272  0.000  0.000  0.000  0.000  0.000  0.502
 
band     4 # energy    4.38438711 # occ.  2.00000000
 
ion      s     py     pz     px    dxy    dyz    dz2    dxz  x2-y2    tot
    1  0.016  0.000  0.000  0.202  0.000  0.000  0.000  0.000  0.000  0.218
    2  0.000  0.007  0.288  0.000  0.000  0.000  0.000  0.000  0.000  0.295
tot    0.016  0.007  0.288  0.202  0.000  0.000  0.000  0.000  0.000  0.513
 
band     5 # energy   10.07468699 # occ.  0.00000000
 
ion      s     py     pz     px    dxy    dyz    dz2    dxz  x2-y2    tot
    1  0.000  0.081  0.013  0.000  0.000  0.000  0.000  0.000  0.000  0.093
    2  0.075  0.000  0.000  0.057  0.000  0.000  0.000  0.000  0.000  0.132
tot    0.075  0.081  0.013  0.057  0.000  0.000  0.000  0.000  0.000  0.225
 
band     6 # energy   12.93030514 # occ.  0.00000000
 
ion      s     py     pz     px    dxy    dyz    dz2    dxz  x2-y2    tot
    1  0.228  0.000  0.000  0.021  0.000  0.000  0.000  0.000  0.000  0.249
    2  0.000  0.033  0.030  0.000  0.000  0.000  0.000  0.000  0.000  0.063
tot    0.228  0.033  0.030  0.021  0.000  0.000  0.000  0.000  0.000  0.311
 
band     7 # energy   20.87544041 # occ.  0.00000000
 
ion      s     py     pz     px    dxy    dyz    dz2    dxz  x2-y2    tot
    1  0.000  0.022  0.183  0.000  0.000  0.000  0.000  0.000  0.000  0.205
    2  0.024  0.000  0.000  0.244  0.000  0.000  0.000  0.000  0.000  0.269
tot    0.024  0.022  0.183  0.244  0.000  0.000  0.000  0.000  0.000  0.474
 
band     8 # energy   21.83668240 # occ.  0.00000000
 
ion      s     py     pz     px    dxy    dyz    dz2    dxz  x2-y2    tot
    1  0.006  0.000  0.000  0.234  0.000  0.000  0.000  0.000  0.000  0.239
    2  0.000  0.007  0.301  0.000  0.000  0.000  0.000  0.000  0.000  0.309
tot    0.006  0.007  0.301  0.234  0.000  0.000  0.000  0.000  0.000  0.548
 

 k-point   235 :   -0.50000000-0.06578947-0.56578947     weight = 0.00416667

band     1 # energy   -2.36488623 # occ.  2.00000000
 
ion      s     py     pz     px    dxy    dyz    dz2    dxz  x2-y2    tot
    1  0.000  0.127  0.003  0.000  0.000  0.000  0.000  0.000  0.000  0.131
    2  0.434  0.000  0.000  0.000  0.000  0.000  0.000  0.000  0.000  0.434
tot    0.434  0.127  0.003  0.000  0.000  0.000  0.000  0.000  0.000  0.565
 
band     2 # energy    0.28096150 # occ.  2.00000000
 
ion      s     py     pz     px    dxy    dyz    dz2    dxz  x2-y2    tot
    1  0.353  0.000  0.000  0.001  0.000  0.000  0.000  0.000  0.000  0.354
    2  0.000  0.183  0.002  0.000  0.000  0.000  0.000  0.000  0.000  0.184
tot    0.353  0.183  0.002  0.001  0.000  0.000  0.000  0.000  0.000  0.538
 
band     3 # energy    4.47553344 # occ.  2.00000000
 
ion      s     py     pz     px    dxy    dyz    dz2    dxz  x2-y2    tot
    1  0.000  0.017  0.206  0.000  0.000  0.000  0.000  0.000  0.000  0.224
    2  0.004  0.000  0.000  0.282  0.000  0.000  0.000  0.000  0.000  0.287
tot    0.004  0.017  0.206  0.282  0.000  0.000  0.000  0.000  0.000  0.510
 
band     4 # energy    4.49745983 # occ.  2.00000000
 
ion      s     py     pz     px    dxy    dyz    dz2    dxz  x2-y2    tot
    1  0.012  0.000  0.000  0.207  0.000  0.000  0.000  0.000  0.000  0.220
    2  0.000  0.005  0.295  0.000  0.000  0.000  0.000  0.000  0.000  0.300
tot    0.012  0.005  0.295  0.207  0.000  0.000  0.000  0.000  0.000  0.520
 
band     5 # energy    9.85891683 # occ.  0.00000000
 
ion      s     py     pz     px    dxy    dyz    dz2    dxz  x2-y2    tot
    1  0.000  0.085  0.010  0.000  0.000  0.000  0.000  0.000  0.000  0.095
    2  0.079  0.000  0.000  0.043  0.000  0.000  0.000  0.000  0.000  0.122
tot    0.079  0.085  0.010  0.043  0.000  0.000  0.000  0.000  0.000  0.217
 
band     6 # energy   12.72015040 # occ.  0.00000000
 
ion      s     py     pz     px    dxy    dyz    dz2    dxz  x2-y2    tot
    1  0.234  0.000  0.000  0.016  0.000  0.000  0.000  0.000  0.000  0.250
    2  0.000  0.033  0.022  0.000  0.000  0.000  0.000  0.000  0.000  0.055
tot    0.234  0.033  0.022  0.016  0.000  0.000  0.000  0.000  0.000  0.305
 
band     7 # energy   21.14044246 # occ.  0.00000000
 
ion      s     py     pz     px    dxy    dyz    dz2    dxz  x2-y2    tot
    1  0.000  0.016  0.190  0.000  0.000  0.000  0.000  0.000  0.000  0.206
    2  0.018  0.000  0.000  0.262  0.000  0.000  0.000  0.000  0.000  0.280
tot    0.018  0.016  0.190  0.262  0.000  0.000  0.000  0.000  0.000  0.486
 
band     8 # energy   21.83574881 # occ.  0.00000000
 
ion      s     py     pz     px    dxy    dyz    dz2    dxz  x2-y2    tot
    1  0.001  0.000  0.000  0.216  0.000  0.000  0.000  0.000  0.000  0.216
    2  0.000  0.011  0.300  0.000  0.000  0.000  0.000  0.000  0.000  0.311
tot    0.001  0.011  0.300  0.216  0.000  0.000  0.000  0.000  0.000  0.527
 

 k-point   236 :   -0.50000000-0.05263158-0.55263158     weight = 0.00416667

band     1 # energy   -2.37656690 # occ.  2.00000000
 
ion      s     py     pz     px    dxy    dyz    dz2    dxz  x2-y2    tot
    1  0.000  0.129  0.002  0.000  0.000  0.000  0.000  0.000  0.000  0.131
    2  0.433  0.000  0.000  0.000  0.000  0.000  0.000  0.000  0.000  0.433
tot    0.433  0.129  0.002  0.000  0.000  0.000  0.000  0.000  0.000  0.564
 
band     2 # energy    0.24975796 # occ.  2.00000000
 
ion      s     py     pz     px    dxy    dyz    dz2    dxz  x2-y2    tot
    1  0.351  0.000  0.000  0.001  0.000  0.000  0.000  0.000  0.000  0.352
    2  0.000  0.183  0.001  0.000  0.000  0.000  0.000  0.000  0.000  0.184
tot    0.351  0.183  0.001  0.001  0.000  0.000  0.000  0.000  0.000  0.536
 
band     3 # energy    4.57727197 # occ.  2.00000000
 
ion      s     py     pz     px    dxy    dyz    dz2    dxz  x2-y2    tot
    1  0.000  0.012  0.212  0.000  0.000  0.000  0.000  0.000  0.000  0.223
    2  0.003  0.000  0.000  0.292  0.000  0.000  0.000  0.000  0.000  0.295
tot    0.003  0.012  0.212  0.292  0.000  0.000  0.000  0.000  0.000  0.519
 
band     4 # energy    4.59578969 # occ.  2.00000000
 
ion      s     py     pz     px    dxy    dyz    dz2    dxz  x2-y2    tot
    1  0.008  0.000  0.000  0.212  0.000  0.000  0.000  0.000  0.000  0.221
    2  0.000  0.003  0.302  0.000  0.000  0.000  0.000  0.000  0.000  0.305
tot    0.008  0.003  0.302  0.212  0.000  0.000  0.000  0.000  0.000  0.526
 
band     5 # energy    9.67219020 # occ.  0.00000000
 
ion      s     py     pz     px    dxy    dyz    dz2    dxz  x2-y2    tot
    1  0.000  0.089  0.007  0.000  0.000  0.000  0.000  0.000  0.000  0.097
    2  0.083  0.000  0.000  0.029  0.000  0.000  0.000  0.000  0.000  0.112
tot    0.083  0.089  0.007  0.029  0.000  0.000  0.000  0.000  0.000  0.209
 
band     6 # energy   12.54255402 # occ.  0.00000000
 
ion      s     py     pz     px    dxy    dyz    dz2    dxz  x2-y2    tot
    1  0.241  0.000  0.000  0.011  0.000  0.000  0.000  0.000  0.000  0.251
    2  0.000  0.034  0.014  0.000  0.000  0.000  0.000  0.000  0.000  0.048
tot    0.241  0.034  0.014  0.011  0.000  0.000  0.000  0.000  0.000  0.299
 
band     7 # energy   21.36923548 # occ.  0.00000000
 
ion      s     py     pz     px    dxy    dyz    dz2    dxz  x2-y2    tot
    1  0.000  0.011  0.196  0.000  0.000  0.000  0.000  0.000  0.000  0.207
    2  0.012  0.000  0.000  0.277  0.000  0.000  0.000  0.000  0.000  0.289
tot    0.012  0.011  0.196  0.277  0.000  0.000  0.000  0.000  0.000  0.497
 
band     8 # energy   21.82161894 # occ.  0.00000000
 
ion      s     py     pz     px    dxy    dyz    dz2    dxz  x2-y2    tot
    1  0.000  0.000  0.000  0.218  0.000  0.000  0.000  0.000  0.000  0.218
    2  0.000  0.002  0.306  0.000  0.000  0.000  0.000  0.000  0.000  0.308
tot    0.000  0.002  0.306  0.218  0.000  0.000  0.000  0.000  0.000  0.526
 

 k-point   237 :   -0.50000000-0.03947368-0.53947368     weight = 0.00416667

band     1 # energy   -2.38591988 # occ.  2.00000000
 
ion      s     py     pz     px    dxy    dyz    dz2    dxz  x2-y2    tot
    1  0.000  0.131  0.001  0.000  0.000  0.000  0.000  0.000  0.000  0.132
    2  0.432  0.000  0.000  0.000  0.000  0.000  0.000  0.000  0.000  0.432
tot    0.432  0.131  0.001  0.000  0.000  0.000  0.000  0.000  0.000  0.564
 
band     2 # energy    0.22522365 # occ.  2.00000000
 
ion      s     py     pz     px    dxy    dyz    dz2    dxz  x2-y2    tot
    1  0.350  0.000  0.000  0.000  0.000  0.000  0.000  0.000  0.000  0.351
    2  0.000  0.184  0.001  0.000  0.000  0.000  0.000  0.000  0.000  0.184
tot    0.350  0.184  0.001  0.000  0.000  0.000  0.000  0.000  0.000  0.535
 
band     3 # energy    4.66353208 # occ.  2.00000000
 
ion      s     py     pz     px    dxy    dyz    dz2    dxz  x2-y2    tot
    1  0.000  0.007  0.216  0.000  0.000  0.000  0.000  0.000  0.000  0.223
    2  0.002  0.000  0.000  0.301  0.000  0.000  0.000  0.000  0.000  0.303
tot    0.002  0.007  0.216  0.301  0.000  0.000  0.000  0.000  0.000  0.526
 
band     4 # energy    4.67624860 # occ.  2.00000000
 
ion      s     py     pz     px    dxy    dyz    dz2    dxz  x2-y2    tot
    1  0.005  0.000  0.000  0.217  0.000  0.000  0.000  0.000  0.000  0.222
    2  0.000  0.002  0.307  0.000  0.000  0.000  0.000  0.000  0.000  0.309
tot    0.005  0.002  0.307  0.217  0.000  0.000  0.000  0.000  0.000  0.531
 
band     5 # energy    9.51957978 # occ.  0.00000000
 
ion      s     py     pz     px    dxy    dyz    dz2    dxz  x2-y2    tot
    1  0.000  0.093  0.005  0.000  0.000  0.000  0.000  0.000  0.000  0.098
    2  0.086  0.000  0.000  0.017  0.000  0.000  0.000  0.000  0.000  0.104
tot    0.086  0.093  0.005  0.017  0.000  0.000  0.000  0.000  0.000  0.201
 
band     6 # energy   12.40054720 # occ.  0.00000000
 
ion      s     py     pz     px    dxy    dyz    dz2    dxz  x2-y2    tot
    1  0.246  0.000  0.000  0.006  0.000  0.000  0.000  0.000  0.000  0.252
    2  0.000  0.034  0.008  0.000  0.000  0.000  0.000  0.000  0.000  0.043
tot    0.246  0.034  0.008  0.006  0.000  0.000  0.000  0.000  0.000  0.295
 
band     7 # energy   21.55414163 # occ.  0.00000000
 
ion      s     py     pz     px    dxy    dyz    dz2    dxz  x2-y2    tot
    1  0.000  0.006  0.203  0.000  0.000  0.000  0.000  0.000  0.000  0.210
    2  0.007  0.000  0.000  0.291  0.000  0.000  0.000  0.000  0.000  0.298
tot    0.007  0.006  0.203  0.291  0.000  0.000  0.000  0.000  0.000  0.508
 
band     8 # energy   21.81599880 # occ.  0.00000000
 
ion      s     py     pz     px    dxy    dyz    dz2    dxz  x2-y2    tot
    1  0.000  0.000  0.000  0.215  0.000  0.000  0.000  0.000  0.000  0.216
    2  0.000  0.002  0.307  0.000  0.000  0.000  0.000  0.000  0.000  0.310
tot    0.000  0.002  0.307  0.215  0.000  0.000  0.000  0.000  0.000  0.525
 

 k-point   238 :   -0.50000000-0.02631579-0.52631579     weight = 0.00416667

band     1 # energy   -2.39274036 # occ.  2.00000000
 
ion      s     py     pz     px    dxy    dyz    dz2    dxz  x2-y2    tot
    1  0.000  0.132  0.001  0.000  0.000  0.000  0.000  0.000  0.000  0.132
    2  0.431  0.000  0.000  0.000  0.000  0.000  0.000  0.000  0.000  0.431
tot    0.431  0.132  0.001  0.000  0.000  0.000  0.000  0.000  0.000  0.563
 
band     2 # energy    0.20755861 # occ.  2.00000000
 
ion      s     py     pz     px    dxy    dyz    dz2    dxz  x2-y2    tot
    1  0.350  0.000  0.000  0.000  0.000  0.000  0.000  0.000  0.000  0.350
    2  0.000  0.184  0.000  0.000  0.000  0.000  0.000  0.000  0.000  0.184
tot    0.350  0.184  0.000  0.000  0.000  0.000  0.000  0.000  0.000  0.534
 
band     3 # energy    4.72954761 # occ.  2.00000000
 
ion      s     py     pz     px    dxy    dyz    dz2    dxz  x2-y2    tot
    1  0.000  0.003  0.220  0.000  0.000  0.000  0.000  0.000  0.000  0.223
    2  0.001  0.000  0.000  0.308  0.000  0.000  0.000  0.000  0.000  0.309
tot    0.001  0.003  0.220  0.308  0.000  0.000  0.000  0.000  0.000  0.532
 
band     4 # energy    4.73603060 # occ.  2.00000000
 
ion      s     py     pz     px    dxy    dyz    dz2    dxz  x2-y2    tot
    1  0.002  0.000  0.000  0.220  0.000  0.000  0.000  0.000  0.000  0.223
    2  0.000  0.001  0.311  0.000  0.000  0.000  0.000  0.000  0.000  0.312
tot    0.002  0.001  0.311  0.220  0.000  0.000  0.000  0.000  0.000  0.535
 
band     5 # energy    9.40604970 # occ.  0.00000000
 
ion      s     py     pz     px    dxy    dyz    dz2    dxz  x2-y2    tot
    1  0.000  0.096  0.002  0.000  0.000  0.000  0.000  0.000  0.000  0.098
    2  0.089  0.000  0.000  0.008  0.000  0.000  0.000  0.000  0.000  0.097
tot    0.089  0.096  0.002  0.008  0.000  0.000  0.000  0.000  0.000  0.195
 
band     6 # energy   12.29685590 # occ.  0.00000000
 
ion      s     py     pz     px    dxy    dyz    dz2    dxz  x2-y2    tot
    1  0.250  0.000  0.000  0.003  0.000  0.000  0.000  0.000  0.000  0.253
    2  0.000  0.035  0.004  0.000  0.000  0.000  0.000  0.000  0.000  0.038
tot    0.250  0.035  0.004  0.003  0.000  0.000  0.000  0.000  0.000  0.291
 
band     7 # energy   21.69398278 # occ.  0.00000000
 
ion      s     py     pz     px    dxy    dyz    dz2    dxz  x2-y2    tot
    1  0.000  0.003  0.208  0.000  0.000  0.000  0.000  0.000  0.000  0.211
    2  0.003  0.001  0.000  0.301  0.000  0.000  0.000  0.000  0.000  0.305
tot    0.004  0.004  0.208  0.301  0.000  0.000  0.000  0.000  0.000  0.517
 
band     8 # energy   21.81027223 # occ.  0.00000000
 
ion      s     py     pz     px    dxy    dyz    dz2    dxz  x2-y2    tot
    1  0.000  0.000  0.000  0.213  0.000  0.000  0.000  0.000  0.000  0.214
    2  0.000  0.001  0.308  0.000  0.000  0.000  0.000  0.000  0.000  0.310
tot    0.000  0.001  0.308  0.213  0.000  0.000  0.000  0.000  0.000  0.523
 

 k-point   239 :   -0.50000000-0.01315789-0.51315789     weight = 0.00416667

band     1 # energy   -2.39690278 # occ.  2.00000000
 
ion      s     py     pz     px    dxy    dyz    dz2    dxz  x2-y2    tot
    1  0.000  0.132  0.000  0.000  0.000  0.000  0.000  0.000  0.000  0.132
    2  0.431  0.000  0.000  0.000  0.000  0.000  0.000  0.000  0.000  0.431
tot    0.431  0.132  0.000  0.000  0.000  0.000  0.000  0.000  0.000  0.563
 
band     2 # energy    0.19690021 # occ.  2.00000000
 
ion      s     py     pz     px    dxy    dyz    dz2    dxz  x2-y2    tot
    1  0.349  0.000  0.000  0.000  0.000  0.000  0.000  0.000  0.000  0.349
    2  0.000  0.184  0.000  0.000  0.000  0.000  0.000  0.000  0.000  0.184
tot    0.349  0.184  0.000  0.000  0.000  0.000  0.000  0.000  0.000  0.534
 
band     3 # energy    4.77111538 # occ.  2.00000000
 
ion      s     py     pz     px    dxy    dyz    dz2    dxz  x2-y2    tot
    1  0.000  0.001  0.222  0.000  0.000  0.000  0.000  0.000  0.000  0.223
    2  0.000  0.000  0.000  0.313  0.000  0.000  0.000  0.000  0.000  0.313
tot    0.000  0.001  0.222  0.313  0.000  0.000  0.000  0.000  0.000  0.537
 
band     4 # energy    4.77287506 # occ.  2.00000000
 
ion      s     py     pz     px    dxy    dyz    dz2    dxz  x2-y2    tot
    1  0.001  0.000  0.000  0.222  0.000  0.000  0.000  0.000  0.000  0.223
    2  0.000  0.000  0.314  0.000  0.000  0.000  0.000  0.000  0.000  0.314
tot    0.001  0.000  0.314  0.222  0.000  0.000  0.000  0.000  0.000  0.537
 
band     5 # energy    9.33591728 # occ.  0.00000000
 
ion      s     py     pz     px    dxy    dyz    dz2    dxz  x2-y2    tot
    1  0.000  0.098  0.001  0.000  0.000  0.000  0.000  0.000  0.000  0.099
    2  0.090  0.000  0.000  0.002  0.000  0.000  0.000  0.000  0.000  0.092
tot    0.090  0.098  0.001  0.002  0.000  0.000  0.000  0.000  0.000  0.191
 
band     6 # energy   12.23367673 # occ.  0.00000000
 
ion      s     py     pz     px    dxy    dyz    dz2    dxz  x2-y2    tot
    1  0.252  0.000  0.000  0.001  0.000  0.000  0.000  0.000  0.000  0.253
    2  0.000  0.035  0.001  0.000  0.000  0.000  0.000  0.000  0.000  0.036
tot    0.252  0.035  0.001  0.001  0.000  0.000  0.000  0.000  0.000  0.289
 
band     7 # energy   21.77584657 # occ.  0.00000000
 
ion      s     py     pz     px    dxy    dyz    dz2    dxz  x2-y2    tot
    1  0.000  0.001  0.211  0.001  0.000  0.000  0.000  0.000  0.000  0.212
    2  0.001  0.000  0.001  0.307  0.000  0.000  0.000  0.000  0.000  0.309
tot    0.001  0.001  0.211  0.308  0.000  0.000  0.000  0.000  0.000  0.521
 
band     8 # energy   21.81335720 # occ.  0.00000000
 
ion      s     py     pz     px    dxy    dyz    dz2    dxz  x2-y2    tot
    1  0.000  0.000  0.001  0.210  0.000  0.000  0.000  0.000  0.000  0.211
    2  0.000  0.001  0.308  0.001  0.000  0.000  0.000  0.000  0.000  0.309
tot    0.000  0.001  0.308  0.211  0.000  0.000  0.000  0.000  0.000  0.520
 

 k-point   240 :   -0.50000000 0.00000000-0.50000000     weight = 0.00416667

band     1 # energy   -2.39831047 # occ.  2.00000000
 
ion      s     py     pz     px    dxy    dyz    dz2    dxz  x2-y2    tot
    1  0.000  0.132  0.000  0.000  0.000  0.000  0.000  0.000  0.000  0.132
    2  0.431  0.000  0.000  0.000  0.000  0.000  0.000  0.000  0.000  0.431
tot    0.431  0.132  0.000  0.000  0.000  0.000  0.000  0.000  0.000  0.563
 
band     2 # energy    0.19333169 # occ.  2.00000000
 
ion      s     py     pz     px    dxy    dyz    dz2    dxz  x2-y2    tot
    1  0.349  0.000  0.000  0.000  0.000  0.000  0.000  0.000  0.000  0.349
    2  0.000  0.184  0.000  0.000  0.000  0.000  0.000  0.000  0.000  0.184
tot    0.349  0.184  0.000  0.000  0.000  0.000  0.000  0.000  0.000  0.533
 
band     3 # energy    4.78532213 # occ.  2.00000000
 
ion      s     py     pz     px    dxy    dyz    dz2    dxz  x2-y2    tot
    1  0.000  0.000  0.112  0.112  0.000  0.000  0.000  0.000  0.000  0.223
    2  0.000  0.000  0.157  0.157  0.000  0.000  0.000  0.000  0.000  0.315
tot    0.000  0.000  0.269  0.269  0.000  0.000  0.000  0.000  0.000  0.538
 
band     4 # energy    4.78532236 # occ.  2.00000000
 
ion      s     py     pz     px    dxy    dyz    dz2    dxz  x2-y2    tot
    1  0.000  0.000  0.112  0.112  0.000  0.000  0.000  0.000  0.000  0.223
    2  0.000  0.000  0.157  0.157  0.000  0.000  0.000  0.000  0.000  0.315
tot    0.000  0.000  0.269  0.269  0.000  0.000  0.000  0.000  0.000  0.538
 
band     5 # energy    9.31217896 # occ.  0.00000000
 
ion      s     py     pz     px    dxy    dyz    dz2    dxz  x2-y2    tot
    1  0.000  0.099  0.000  0.000  0.000  0.000  0.000  0.000  0.000  0.099
    2  0.091  0.000  0.000  0.000  0.000  0.000  0.000  0.000  0.000  0.091
tot    0.091  0.099  0.000  0.000  0.000  0.000  0.000  0.000  0.000  0.190
 
band     6 # energy   12.21244698 # occ.  0.00000000
 
ion      s     py     pz     px    dxy    dyz    dz2    dxz  x2-y2    tot
    1  0.253  0.000  0.000  0.000  0.000  0.000  0.000  0.000  0.000  0.253
    2  0.000  0.035  0.000  0.000  0.000  0.000  0.000  0.000  0.000  0.035
tot    0.253  0.035  0.000  0.000  0.000  0.000  0.000  0.000  0.000  0.288
 
band     7 # energy   21.80373897 # occ.  0.00000000
 
ion      s     py     pz     px    dxy    dyz    dz2    dxz  x2-y2    tot
    1  0.000  0.000  0.152  0.061  0.000  0.000  0.000  0.000  0.000  0.212
    2  0.000  0.000  0.089  0.221  0.000  0.000  0.000  0.000  0.000  0.310
tot    0.000  0.000  0.241  0.282  0.000  0.000  0.000  0.000  0.000  0.523
 
band     8 # energy   21.81376583 # occ.  0.00000000
 
ion      s     py     pz     px    dxy    dyz    dz2    dxz  x2-y2    tot
    1  0.001  0.000  0.060  0.149  0.000  0.000  0.000  0.000  0.000  0.210
    2  0.000  0.004  0.219  0.087  0.000  0.000  0.000  0.000  0.000  0.310
tot    0.001  0.004  0.279  0.237  0.000  0.000  0.000  0.000  0.000  0.520
 
