<?xml version="1.0" encoding="ISO-8859-1"?>
<modeling>
 <generator>
  <i name="program" type="string">vasp </i>
  <i name="version" type="string">5.4.4.18Apr17-6-g9f103f2a35  </i>
  <i name="subversion" type="string">(build May 27 2024 22:40:15) complex            parallel </i>
  <i name="platform" type="string">LinuxIFC </i>
  <i name="date" type="string">2024 10 25 </i>
  <i name="time" type="string">20:57:00 </i>
 </generator>
 <incar>
  <i type="int" name="ISTART">     1</i>
  <i type="string" name="PREC">accurate</i>
  <i type="logical" name="ADDGRID"> T  </i>
  <i type="int" name="ICHARG">    11</i>
  <i type="int" name="NELM">    60</i>
  <i type="int" name="IBRION">    -1</i>
  <i name="EDIFF">      0.00000100</i>
  <i name="EDIFFG">     -0.02000000</i>
  <i type="int" name="NSW">     0</i>
  <i name="ENCUT">    520.00000000</i>
  <i type="logical" name="LREAL"> F  </i>
  <i type="int" name="ISMEAR">     0</i>
  <i name="SIGMA">      0.10000000</i>
  <i type="int" name="LORBIT">    11</i>
  <v type="int" name="KPOINT_BSE">    -1     0     0     0</v>
  <i type="int" name="NELM">    60</i>
 </incar>
 <structure name="primitive_cell" >
  <crystal>
   <varray name="basis" >
    <v>       0.00000000       2.18978000       2.18978000 </v>
    <v>       2.18978000       0.00000000       2.18978000 </v>
    <v>       2.18978000       2.18978000       0.00000000 </v>
   </varray>
   <i name="volume">     21.00058778 </i>
   <varray name="rec_basis" >
    <v>      -0.22833344       0.22833344       0.22833344 </v>
    <v>       0.22833344      -0.22833344       0.22833344 </v>
    <v>       0.22833344       0.22833344      -0.22833344 </v>
   </varray>
  </crystal>
  <varray name="positions" >
   <v>       0.25000000       0.25000000       0.25000000 </v>
   <v>       0.00000000       0.00000000       0.00000000 </v>
  </varray>
 </structure>
 <varray name="primitive_index" >
  <v type="int" >        1 </v>
  <v type="int" >        2 </v>
 </varray>
 <kpoints>
  <generation param="listgenerated">
   <i name="divisions" type="int">      20 </i>
   <v>       0.00000000       0.00000000       0.00000000 </v>
   <v>       0.50000000       0.00000000       0.50000000 </v>
   <v>       0.37500000       0.37500000       0.75000000 </v>
   <v>       0.00000000       0.00000000       0.00000000 </v>
   <v>       0.50000000       0.50000000       0.50000000 </v>
   <v>       0.50000000       0.25000000       0.75000000 </v>
   <v>       0.00000000       0.00000000       0.00000000 </v>
   <v>      -0.50000000       0.00000000      -0.50000000 </v>
   <v>      -0.37500000      -0.37500000      -0.75000000 </v>
   <v>       0.00000000       0.00000000       0.00000000 </v>
   <v>      -0.50000000      -0.50000000      -0.50000000 </v>
   <v>      -0.50000000      -0.25000000      -0.75000000 </v>
   <v>      -0.50000000       0.00000000      -0.50000000 </v>
  </generation>
  <varray name="kpointlist" >
   <v>       0.00000000       0.00000000       0.00000000 </v>
   <v>       0.02631579       0.00000000       0.02631579 </v>
   <v>       0.05263158       0.00000000       0.05263158 </v>
   <v>       0.07894737       0.00000000       0.07894737 </v>
   <v>       0.10526316       0.00000000       0.10526316 </v>
   <v>       0.13157895       0.00000000       0.13157895 </v>
   <v>       0.15789474       0.00000000       0.15789474 </v>
   <v>       0.18421053       0.00000000       0.18421053 </v>
   <v>       0.21052632       0.00000000       0.21052632 </v>
   <v>       0.23684211       0.00000000       0.23684211 </v>
   <v>       0.26315789       0.00000000       0.26315789 </v>
   <v>       0.28947368       0.00000000       0.28947368 </v>
   <v>       0.31578947       0.00000000       0.31578947 </v>
   <v>       0.34210526       0.00000000       0.34210526 </v>
   <v>       0.36842105       0.00000000       0.36842105 </v>
   <v>       0.39473684       0.00000000       0.39473684 </v>
   <v>       0.42105263       0.00000000       0.42105263 </v>
   <v>       0.44736842       0.00000000       0.44736842 </v>
   <v>       0.47368421       0.00000000       0.47368421 </v>
   <v>       0.50000000       0.00000000       0.50000000 </v>
   <v>       0.50000000       0.00000000       0.50000000 </v>
   <v>       0.50657895       0.01315789       0.50657895 </v>
   <v>       0.51315789       0.02631579       0.51315789 </v>
   <v>       0.51973684       0.03947368       0.51973684 </v>
   <v>       0.52631579       0.05263158       0.52631579 </v>
   <v>       0.53289474       0.06578947       0.53289474 </v>
   <v>       0.53947368       0.07894737       0.53947368 </v>
   <v>       0.54605263       0.09210526       0.54605263 </v>
   <v>       0.55263158       0.10526316       0.55263158 </v>
   <v>       0.55921053       0.11842105       0.55921053 </v>
   <v>       0.56578947       0.13157895       0.56578947 </v>
   <v>       0.57236842       0.14473684       0.57236842 </v>
   <v>       0.57894737       0.15789474       0.57894737 </v>
   <v>       0.58552632       0.17105263       0.58552632 </v>
   <v>       0.59210526       0.18421053       0.59210526 </v>
   <v>       0.59868421       0.19736842       0.59868421 </v>
   <v>       0.60526316       0.21052632       0.60526316 </v>
   <v>       0.61184211       0.22368421       0.61184211 </v>
   <v>       0.61842105       0.23684211       0.61842105 </v>
   <v>       0.62500000       0.25000000       0.62500000 </v>
   <v>       0.37500000       0.37500000       0.75000000 </v>
   <v>       0.35526316       0.35526316       0.71052632 </v>
   <v>       0.33552632       0.33552632       0.67105263 </v>
   <v>       0.31578947       0.31578947       0.63157895 </v>
   <v>       0.29605263       0.29605263       0.59210526 </v>
   <v>       0.27631579       0.27631579       0.55263158 </v>
   <v>       0.25657895       0.25657895       0.51315789 </v>
   <v>       0.23684211       0.23684211       0.47368421 </v>
   <v>       0.21710526       0.21710526       0.43421053 </v>
   <v>       0.19736842       0.19736842       0.39473684 </v>
   <v>       0.17763158       0.17763158       0.35526316 </v>
   <v>       0.15789474       0.15789474       0.31578947 </v>
   <v>       0.13815789       0.13815789       0.27631579 </v>
   <v>       0.11842105       0.11842105       0.23684211 </v>
   <v>       0.09868421       0.09868421       0.19736842 </v>
   <v>       0.07894737       0.07894737       0.15789474 </v>
   <v>       0.05921053       0.05921053       0.11842105 </v>
   <v>       0.03947368       0.03947368       0.07894737 </v>
   <v>       0.01973684       0.01973684       0.03947368 </v>
   <v>       0.00000000       0.00000000       0.00000000 </v>
   <v>       0.00000000       0.00000000       0.00000000 </v>
   <v>       0.02631579       0.02631579       0.02631579 </v>
   <v>       0.05263158       0.05263158       0.05263158 </v>
   <v>       0.07894737       0.07894737       0.07894737 </v>
   <v>       0.10526316       0.10526316       0.10526316 </v>
   <v>       0.13157895       0.13157895       0.13157895 </v>
   <v>       0.15789474       0.15789474       0.15789474 </v>
   <v>       0.18421053       0.18421053       0.18421053 </v>
   <v>       0.21052632       0.21052632       0.21052632 </v>
   <v>       0.23684211       0.23684211       0.23684211 </v>
   <v>       0.26315789       0.26315789       0.26315789 </v>
   <v>       0.28947368       0.28947368       0.28947368 </v>
   <v>       0.31578947       0.31578947       0.31578947 </v>
   <v>       0.34210526       0.34210526       0.34210526 </v>
   <v>       0.36842105       0.36842105       0.36842105 </v>
   <v>       0.39473684       0.39473684       0.39473684 </v>
   <v>       0.42105263       0.42105263       0.42105263 </v>
   <v>       0.44736842       0.44736842       0.44736842 </v>
   <v>       0.47368421       0.47368421       0.47368421 </v>
   <v>       0.50000000       0.50000000       0.50000000 </v>
   <v>       0.50000000       0.50000000       0.50000000 </v>
   <v>       0.50000000       0.48684211       0.51315789 </v>
   <v>       0.50000000       0.47368421       0.52631579 </v>
   <v>       0.50000000       0.46052632       0.53947368 </v>
   <v>       0.50000000       0.44736842       0.55263158 </v>
   <v>       0.50000000       0.43421053       0.56578947 </v>
   <v>       0.50000000       0.42105263       0.57894737 </v>
   <v>       0.50000000       0.40789474       0.59210526 </v>
   <v>       0.50000000       0.39473684       0.60526316 </v>
   <v>       0.50000000       0.38157895       0.61842105 </v>
   <v>       0.50000000       0.36842105       0.63157895 </v>
   <v>       0.50000000       0.35526316       0.64473684 </v>
   <v>       0.50000000       0.34210526       0.65789474 </v>
   <v>       0.50000000       0.32894737       0.67105263 </v>
   <v>       0.50000000       0.31578947       0.68421053 </v>
   <v>       0.50000000       0.30263158       0.69736842 </v>
   <v>       0.50000000       0.28947368       0.71052632 </v>
   <v>       0.50000000       0.27631579       0.72368421 </v>
   <v>       0.50000000       0.26315789       0.73684211 </v>
   <v>       0.50000000       0.25000000       0.75000000 </v>
   <v>       0.50000000       0.25000000       0.75000000 </v>
   <v>       0.50000000       0.23684211       0.73684211 </v>
   <v>       0.50000000       0.22368421       0.72368421 </v>
   <v>       0.50000000       0.21052632       0.71052632 </v>
   <v>       0.50000000       0.19736842       0.69736842 </v>
   <v>       0.50000000       0.18421053       0.68421053 </v>
   <v>       0.50000000       0.17105263       0.67105263 </v>
   <v>       0.50000000       0.15789474       0.65789474 </v>
   <v>       0.50000000       0.14473684       0.64473684 </v>
   <v>       0.50000000       0.13157895       0.63157895 </v>
   <v>       0.50000000       0.11842105       0.61842105 </v>
   <v>       0.50000000       0.10526316       0.60526316 </v>
   <v>       0.50000000       0.09210526       0.59210526 </v>
   <v>       0.50000000       0.07894737       0.57894737 </v>
   <v>       0.50000000       0.06578947       0.56578947 </v>
   <v>       0.50000000       0.05263158       0.55263158 </v>
   <v>       0.50000000       0.03947368       0.53947368 </v>
   <v>       0.50000000       0.02631579       0.52631579 </v>
   <v>       0.50000000       0.01315789       0.51315789 </v>
   <v>       0.50000000       0.00000000       0.50000000 </v>
   <v>       0.00000000       0.00000000       0.00000000 </v>
   <v>      -0.02631579       0.00000000      -0.02631579 </v>
   <v>      -0.05263158       0.00000000      -0.05263158 </v>
   <v>      -0.07894737       0.00000000      -0.07894737 </v>
   <v>      -0.10526316       0.00000000      -0.10526316 </v>
   <v>      -0.13157895       0.00000000      -0.13157895 </v>
   <v>      -0.15789474       0.00000000      -0.15789474 </v>
   <v>      -0.18421053       0.00000000      -0.18421053 </v>
   <v>      -0.21052632       0.00000000      -0.21052632 </v>
   <v>      -0.23684211       0.00000000      -0.23684211 </v>
   <v>      -0.26315789       0.00000000      -0.26315789 </v>
   <v>      -0.28947368       0.00000000      -0.28947368 </v>
   <v>      -0.31578947       0.00000000      -0.31578947 </v>
   <v>      -0.34210526       0.00000000      -0.34210526 </v>
   <v>      -0.36842105       0.00000000      -0.36842105 </v>
   <v>      -0.39473684       0.00000000      -0.39473684 </v>
   <v>      -0.42105263       0.00000000      -0.42105263 </v>
   <v>      -0.44736842       0.00000000      -0.44736842 </v>
   <v>      -0.47368421       0.00000000      -0.47368421 </v>
   <v>      -0.50000000       0.00000000      -0.50000000 </v>
   <v>      -0.50000000       0.00000000      -0.50000000 </v>
   <v>      -0.50657895      -0.01315789      -0.50657895 </v>
   <v>      -0.51315789      -0.02631579      -0.51315789 </v>
   <v>      -0.51973684      -0.03947368      -0.51973684 </v>
   <v>      -0.52631579      -0.05263158      -0.52631579 </v>
   <v>      -0.53289474      -0.06578947      -0.53289474 </v>
   <v>      -0.53947368      -0.07894737      -0.53947368 </v>
   <v>      -0.54605263      -0.09210526      -0.54605263 </v>
   <v>      -0.55263158      -0.10526316      -0.55263158 </v>
   <v>      -0.55921053      -0.11842105      -0.55921053 </v>
   <v>      -0.56578947      -0.13157895      -0.56578947 </v>
   <v>      -0.57236842      -0.14473684      -0.57236842 </v>
   <v>      -0.57894737      -0.15789474      -0.57894737 </v>
   <v>      -0.58552632      -0.17105263      -0.58552632 </v>
   <v>      -0.59210526      -0.18421053      -0.59210526 </v>
   <v>      -0.59868421      -0.19736842      -0.59868421 </v>
   <v>      -0.60526316      -0.21052632      -0.60526316 </v>
   <v>      -0.61184211      -0.22368421      -0.61184211 </v>
   <v>      -0.61842105      -0.23684211      -0.61842105 </v>
   <v>      -0.62500000      -0.25000000      -0.62500000 </v>
   <v>      -0.37500000      -0.37500000      -0.75000000 </v>
   <v>      -0.35526316      -0.35526316      -0.71052632 </v>
   <v>      -0.33552632      -0.33552632      -0.67105263 </v>
   <v>      -0.31578947      -0.31578947      -0.63157895 </v>
   <v>      -0.29605263      -0.29605263      -0.59210526 </v>
   <v>      -0.27631579      -0.27631579      -0.55263158 </v>
   <v>      -0.25657895      -0.25657895      -0.51315789 </v>
   <v>      -0.23684211      -0.23684211      -0.47368421 </v>
   <v>      -0.21710526      -0.21710526      -0.43421053 </v>
   <v>      -0.19736842      -0.19736842      -0.39473684 </v>
   <v>      -0.17763158      -0.17763158      -0.35526316 </v>
   <v>      -0.15789474      -0.15789474      -0.31578947 </v>
   <v>      -0.13815789      -0.13815789      -0.27631579 </v>
   <v>      -0.11842105      -0.11842105      -0.23684211 </v>
   <v>      -0.09868421      -0.09868421      -0.19736842 </v>
   <v>      -0.07894737      -0.07894737      -0.15789474 </v>
   <v>      -0.05921053      -0.05921053      -0.11842105 </v>
   <v>      -0.03947368      -0.03947368      -0.07894737 </v>
   <v>      -0.01973684      -0.01973684      -0.03947368 </v>
   <v>       0.00000000       0.00000000       0.00000000 </v>
   <v>       0.00000000       0.00000000       0.00000000 </v>
   <v>      -0.02631579      -0.02631579      -0.02631579 </v>
   <v>      -0.05263158      -0.05263158      -0.05263158 </v>
   <v>      -0.07894737      -0.07894737      -0.07894737 </v>
   <v>      -0.10526316      -0.10526316      -0.10526316 </v>
   <v>      -0.13157895      -0.13157895      -0.13157895 </v>
   <v>      -0.15789474      -0.15789474      -0.15789474 </v>
   <v>      -0.18421053      -0.18421053      -0.18421053 </v>
   <v>      -0.21052632      -0.21052632      -0.21052632 </v>
   <v>      -0.23684211      -0.23684211      -0.23684211 </v>
   <v>      -0.26315789      -0.26315789      -0.26315789 </v>
   <v>      -0.28947368      -0.28947368      -0.28947368 </v>
   <v>      -0.31578947      -0.31578947      -0.31578947 </v>
   <v>      -0.34210526      -0.34210526      -0.34210526 </v>
   <v>      -0.36842105      -0.36842105      -0.36842105 </v>
   <v>      -0.39473684      -0.39473684      -0.39473684 </v>
   <v>      -0.42105263      -0.42105263      -0.42105263 </v>
   <v>      -0.44736842      -0.44736842      -0.44736842 </v>
   <v>      -0.47368421      -0.47368421      -0.47368421 </v>
   <v>      -0.50000000      -0.50000000      -0.50000000 </v>
   <v>      -0.50000000      -0.50000000      -0.50000000 </v>
   <v>      -0.50000000      -0.48684211      -0.51315789 </v>
   <v>      -0.50000000      -0.47368421      -0.52631579 </v>
   <v>      -0.50000000      -0.46052632      -0.53947368 </v>
   <v>      -0.50000000      -0.44736842      -0.55263158 </v>
   <v>      -0.50000000      -0.43421053      -0.56578947 </v>
   <v>      -0.50000000      -0.42105263      -0.57894737 </v>
   <v>      -0.50000000      -0.40789474      -0.59210526 </v>
   <v>      -0.50000000      -0.39473684      -0.60526316 </v>
   <v>      -0.50000000      -0.38157895      -0.61842105 </v>
   <v>      -0.50000000      -0.36842105      -0.63157895 </v>
   <v>      -0.50000000      -0.35526316      -0.64473684 </v>
   <v>      -0.50000000      -0.34210526      -0.65789474 </v>
   <v>      -0.50000000      -0.32894737      -0.67105263 </v>
   <v>      -0.50000000      -0.31578947      -0.68421053 </v>
   <v>      -0.50000000      -0.30263158      -0.69736842 </v>
   <v>      -0.50000000      -0.28947368      -0.71052632 </v>
   <v>      -0.50000000      -0.27631579      -0.72368421 </v>
   <v>      -0.50000000      -0.26315789      -0.73684211 </v>
   <v>      -0.50000000      -0.25000000      -0.75000000 </v>
   <v>      -0.50000000      -0.25000000      -0.75000000 </v>
   <v>      -0.50000000      -0.23684211      -0.73684211 </v>
   <v>      -0.50000000      -0.22368421      -0.72368421 </v>
   <v>      -0.50000000      -0.21052632      -0.71052632 </v>
   <v>      -0.50000000      -0.19736842      -0.69736842 </v>
   <v>      -0.50000000      -0.18421053      -0.68421053 </v>
   <v>      -0.50000000      -0.17105263      -0.67105263 </v>
   <v>      -0.50000000      -0.15789474      -0.65789474 </v>
   <v>      -0.50000000      -0.14473684      -0.64473684 </v>
   <v>      -0.50000000      -0.13157895      -0.63157895 </v>
   <v>      -0.50000000      -0.11842105      -0.61842105 </v>
   <v>      -0.50000000      -0.10526316      -0.60526316 </v>
   <v>      -0.50000000      -0.09210526      -0.59210526 </v>
   <v>      -0.50000000      -0.07894737      -0.57894737 </v>
   <v>      -0.50000000      -0.06578947      -0.56578947 </v>
   <v>      -0.50000000      -0.05263158      -0.55263158 </v>
   <v>      -0.50000000      -0.03947368      -0.53947368 </v>
   <v>      -0.50000000      -0.02631579      -0.52631579 </v>
   <v>      -0.50000000      -0.01315789      -0.51315789 </v>
   <v>      -0.50000000       0.00000000      -0.50000000 </v>
  </varray>
  <varray name="weights" >
   <v>       0.00416667 </v>
   <v>       0.00416667 </v>
   <v>       0.00416667 </v>
   <v>       0.00416667 </v>
   <v>       0.00416667 </v>
   <v>       0.00416667 </v>
   <v>       0.00416667 </v>
   <v>       0.00416667 </v>
   <v>       0.00416667 </v>
   <v>       0.00416667 </v>
   <v>       0.00416667 </v>
   <v>       0.00416667 </v>
   <v>       0.00416667 </v>
   <v>       0.00416667 </v>
   <v>       0.00416667 </v>
   <v>       0.00416667 </v>
   <v>       0.00416667 </v>
   <v>       0.00416667 </v>
   <v>       0.00416667 </v>
   <v>       0.00416667 </v>
   <v>       0.00416667 </v>
   <v>       0.00416667 </v>
   <v>       0.00416667 </v>
   <v>       0.00416667 </v>
   <v>       0.00416667 </v>
   <v>       0.00416667 </v>
   <v>       0.00416667 </v>
   <v>       0.00416667 </v>
   <v>       0.00416667 </v>
   <v>       0.00416667 </v>
   <v>       0.00416667 </v>
   <v>       0.00416667 </v>
   <v>       0.00416667 </v>
   <v>       0.00416667 </v>
   <v>       0.00416667 </v>
   <v>       0.00416667 </v>
   <v>       0.00416667 </v>
   <v>       0.00416667 </v>
   <v>       0.00416667 </v>
   <v>       0.00416667 </v>
   <v>       0.00416667 </v>
   <v>       0.00416667 </v>
   <v>       0.00416667 </v>
   <v>       0.00416667 </v>
   <v>       0.00416667 </v>
   <v>       0.00416667 </v>
   <v>       0.00416667 </v>
   <v>       0.00416667 </v>
   <v>       0.00416667 </v>
   <v>       0.00416667 </v>
   <v>       0.00416667 </v>
   <v>       0.00416667 </v>
   <v>       0.00416667 </v>
   <v>       0.00416667 </v>
   <v>       0.00416667 </v>
   <v>       0.00416667 </v>
   <v>       0.00416667 </v>
   <v>       0.00416667 </v>
   <v>       0.00416667 </v>
   <v>       0.00416667 </v>
   <v>       0.00416667 </v>
   <v>       0.00416667 </v>
   <v>       0.00416667 </v>
   <v>       0.00416667 </v>
   <v>       0.00416667 </v>
   <v>       0.00416667 </v>
   <v>       0.00416667 </v>
   <v>       0.00416667 </v>
   <v>       0.00416667 </v>
   <v>       0.00416667 </v>
   <v>       0.00416667 </v>
   <v>       0.00416667 </v>
   <v>       0.00416667 </v>
   <v>       0.00416667 </v>
   <v>       0.00416667 </v>
   <v>       0.00416667 </v>
   <v>       0.00416667 </v>
   <v>       0.00416667 </v>
   <v>       0.00416667 </v>
   <v>       0.00416667 </v>
   <v>       0.00416667 </v>
   <v>       0.00416667 </v>
   <v>       0.00416667 </v>
   <v>       0.00416667 </v>
   <v>       0.00416667 </v>
   <v>       0.00416667 </v>
   <v>       0.00416667 </v>
   <v>       0.00416667 </v>
   <v>       0.00416667 </v>
   <v>       0.00416667 </v>
   <v>       0.00416667 </v>
   <v>       0.00416667 </v>
   <v>       0.00416667 </v>
   <v>       0.00416667 </v>
   <v>       0.00416667 </v>
   <v>       0.00416667 </v>
   <v>       0.00416667 </v>
   <v>       0.00416667 </v>
   <v>       0.00416667 </v>
   <v>       0.00416667 </v>
   <v>       0.00416667 </v>
   <v>       0.00416667 </v>
   <v>       0.00416667 </v>
   <v>       0.00416667 </v>
   <v>       0.00416667 </v>
   <v>       0.00416667 </v>
   <v>       0.00416667 </v>
   <v>       0.00416667 </v>
   <v>       0.00416667 </v>
   <v>       0.00416667 </v>
   <v>       0.00416667 </v>
   <v>       0.00416667 </v>
   <v>       0.00416667 </v>
   <v>       0.00416667 </v>
   <v>       0.00416667 </v>
   <v>       0.00416667 </v>
   <v>       0.00416667 </v>
   <v>       0.00416667 </v>
   <v>       0.00416667 </v>
   <v>       0.00416667 </v>
   <v>       0.00416667 </v>
   <v>       0.00416667 </v>
   <v>       0.00416667 </v>
   <v>       0.00416667 </v>
   <v>       0.00416667 </v>
   <v>       0.00416667 </v>
   <v>       0.00416667 </v>
   <v>       0.00416667 </v>
   <v>       0.00416667 </v>
   <v>       0.00416667 </v>
   <v>       0.00416667 </v>
   <v>       0.00416667 </v>
   <v>       0.00416667 </v>
   <v>       0.00416667 </v>
   <v>       0.00416667 </v>
   <v>       0.00416667 </v>
   <v>       0.00416667 </v>
   <v>       0.00416667 </v>
   <v>       0.00416667 </v>
   <v>       0.00416667 </v>
   <v>       0.00416667 </v>
   <v>       0.00416667 </v>
   <v>       0.00416667 </v>
   <v>       0.00416667 </v>
   <v>       0.00416667 </v>
   <v>       0.00416667 </v>
   <v>       0.00416667 </v>
   <v>       0.00416667 </v>
   <v>       0.00416667 </v>
   <v>       0.00416667 </v>
   <v>       0.00416667 </v>
   <v>       0.00416667 </v>
   <v>       0.00416667 </v>
   <v>       0.00416667 </v>
   <v>       0.00416667 </v>
   <v>       0.00416667 </v>
   <v>       0.00416667 </v>
   <v>       0.00416667 </v>
   <v>       0.00416667 </v>
   <v>       0.00416667 </v>
   <v>       0.00416667 </v>
   <v>       0.00416667 </v>
   <v>       0.00416667 </v>
   <v>       0.00416667 </v>
   <v>       0.00416667 </v>
   <v>       0.00416667 </v>
   <v>       0.00416667 </v>
   <v>       0.00416667 </v>
   <v>       0.00416667 </v>
   <v>       0.00416667 </v>
   <v>       0.00416667 </v>
   <v>       0.00416667 </v>
   <v>       0.00416667 </v>
   <v>       0.00416667 </v>
   <v>       0.00416667 </v>
   <v>       0.00416667 </v>
   <v>       0.00416667 </v>
   <v>       0.00416667 </v>
   <v>       0.00416667 </v>
   <v>       0.00416667 </v>
   <v>       0.00416667 </v>
   <v>       0.00416667 </v>
   <v>       0.00416667 </v>
   <v>       0.00416667 </v>
   <v>       0.00416667 </v>
   <v>       0.00416667 </v>
   <v>       0.00416667 </v>
   <v>       0.00416667 </v>
   <v>       0.00416667 </v>
   <v>       0.00416667 </v>
   <v>       0.00416667 </v>
   <v>       0.00416667 </v>
   <v>       0.00416667 </v>
   <v>       0.00416667 </v>
   <v>       0.00416667 </v>
   <v>       0.00416667 </v>
   <v>       0.00416667 </v>
   <v>       0.00416667 </v>
   <v>       0.00416667 </v>
   <v>       0.00416667 </v>
   <v>       0.00416667 </v>
   <v>       0.00416667 </v>
   <v>       0.00416667 </v>
   <v>       0.00416667 </v>
   <v>       0.00416667 </v>
   <v>       0.00416667 </v>
   <v>       0.00416667 </v>
   <v>       0.00416667 </v>
   <v>       0.00416667 </v>
   <v>       0.00416667 </v>
   <v>       0.00416667 </v>
   <v>       0.00416667 </v>
   <v>       0.00416667 </v>
   <v>       0.00416667 </v>
   <v>       0.00416667 </v>
   <v>       0.00416667 </v>
   <v>       0.00416667 </v>
   <v>       0.00416667 </v>
   <v>       0.00416667 </v>
   <v>       0.00416667 </v>
   <v>       0.00416667 </v>
   <v>       0.00416667 </v>
   <v>       0.00416667 </v>
   <v>       0.00416667 </v>
   <v>       0.00416667 </v>
   <v>       0.00416667 </v>
   <v>       0.00416667 </v>
   <v>       0.00416667 </v>
   <v>       0.00416667 </v>
   <v>       0.00416667 </v>
   <v>       0.00416667 </v>
   <v>       0.00416667 </v>
   <v>       0.00416667 </v>
   <v>       0.00416667 </v>
   <v>       0.00416667 </v>
   <v>       0.00416667 </v>
   <v>       0.00416667 </v>
   <v>       0.00416667 </v>
   <v>       0.00416667 </v>
   <v>       0.00416667 </v>
  </varray>
 </kpoints>
 <parameters>
  <separator name="general" >
   <i type="string" name="SYSTEM">unknown system</i>
   <i type="logical" name="LCOMPAT"> F  </i>
  </separator>
  <separator name="electronic" >
   <i type="string" name="PREC">accura</i>
   <i name="ENMAX">    520.00000000</i>
   <i name="ENAUG">    644.87300000</i>
   <i name="EDIFF">      0.00000100</i>
   <i type="int" name="IALGO">    38</i>
   <i type="int" name="IWAVPR">    10</i>
   <i type="int" name="NBANDS">     8</i>
   <i name="NELECT">      8.00000000</i>
   <i type="int" name="TURBO">     0</i>
   <i type="int" name="IRESTART">     0</i>
   <i type="int" name="NREBOOT">     0</i>
   <i type="int" name="NMIN">     0</i>
   <i name="EREF">      0.00000000</i>
   <separator name="electronic smearing" >
    <i type="int" name="ISMEAR">     0</i>
    <i name="SIGMA">      0.10000000</i>
    <i name="KSPACING">      0.50000000</i>
    <i type="logical" name="KGAMMA"> T  </i>
   </separator>
   <separator name="electronic projectors" >
    <i type="logical" name="LREAL"> F  </i>
    <v name="ROPT">      0.00000000      0.00000000</v>
    <i type="int" name="LMAXPAW">  -100</i>
    <i type="int" name="LMAXMIX">     2</i>
    <i type="logical" name="NLSPLINE"> F  </i>
   </separator>
   <separator name="electronic startup" >
    <i type="int" name="ISTART">     0</i>
    <i type="int" name="ICHARG">    11</i>
    <i type="int" name="INIWAV">     1</i>
   </separator>
   <separator name="electronic spin" >
    <i type="int" name="ISPIN">     1</i>
    <i type="logical" name="LNONCOLLINEAR"> F  </i>
    <v name="MAGMOM">      1.00000000      1.00000000</v>
    <i name="NUPDOWN">     -1.00000000</i>
    <i type="logical" name="LSORBIT"> F  </i>
    <v name="SAXIS">      0.00000000      0.00000000      1.00000000</v>
    <i type="logical" name="LSPIRAL"> F  </i>
    <v name="QSPIRAL">      0.00000000      0.00000000      0.00000000</v>
    <i type="logical" name="LZEROZ"> F  </i>
   </separator>
   <separator name="electronic exchange-correlation" >
    <i type="logical" name="LASPH"> F  </i>
    <i type="logical" name="LMETAGGA"> F  </i>
   </separator>
   <separator name="electronic convergence" >
    <i type="int" name="NELM">    60</i>
    <i type="int" name="NELMDL">     0</i>
    <i type="int" name="NELMIN">     2</i>
    <i name="ENINI">    520.00000000</i>
    <separator name="electronic convergence detail" >
     <i type="logical" name="LDIAG"> T  </i>
     <i type="logical" name="LSUBROT"> F  </i>
     <i name="WEIMIN">      0.00000000</i>
     <i name="EBREAK">      0.00000003</i>
     <i name="DEPER">      0.30000000</i>
     <i type="int" name="NRMM">     4</i>
     <i name="TIME">      0.40000000</i>
    </separator>
   </separator>
   <separator name="electronic mixer" >
    <i name="AMIX">      0.40000000</i>
    <i name="BMIX">      1.00000000</i>
    <i name="AMIN">      0.10000000</i>
    <i name="AMIX_MAG">      1.60000000</i>
    <i name="BMIX_MAG">      1.00000000</i>
    <separator name="electronic mixer details" >
     <i type="int" name="IMIX">     4</i>
     <i type="logical" name="MIXFIRST"> F  </i>
     <i type="int" name="MAXMIX">   -45</i>
     <i name="WC">    100.00000000</i>
     <i type="int" name="INIMIX">     1</i>
     <i type="int" name="MIXPRE">     1</i>
     <i type="int" name="MREMOVE">     5</i>
    </separator>
   </separator>
   <separator name="electronic dipolcorrection" >
    <i type="logical" name="LDIPOL"> F  </i>
    <i type="logical" name="LMONO"> F  </i>
    <i type="int" name="IDIPOL">     0</i>
    <i name="EPSILON">      1.00000000</i>
    <v name="DIPOL">   -100.00000000   -100.00000000   -100.00000000</v>
    <i name="EFIELD">      0.00000000</i>
   </separator>
  </separator>
  <separator name="grids" >
   <i type="int" name="NGX">    24</i>
   <i type="int" name="NGY">    24</i>
   <i type="int" name="NGZ">    24</i>
   <i type="int" name="NGXF">    48</i>
   <i type="int" name="NGYF">    48</i>
   <i type="int" name="NGZF">    48</i>
   <i type="logical" name="ADDGRID"> T  </i>
  </separator>
  <separator name="ionic" >
   <i type="int" name="NSW">     0</i>
   <i type="int" name="IBRION">    -1</i>
   <i type="int" name="MDALGO">     0</i>
   <i type="int" name="ISIF">     2</i>
   <i name="PSTRESS">      0.00000000</i>
   <i name="EDIFFG">     -0.02000000</i>
   <i type="int" name="NFREE">     0</i>
   <i name="POTIM">      0.50000000</i>
   <i name="SMASS">     -3.00000000</i>
   <i name="SCALEE">      1.00000000</i>
  </separator>
  <separator name="ionic md" >
   <i name="TEBEG">      0.00010000</i>
   <i name="TEEND">      0.00010000</i>
   <i type="int" name="NBLOCK">     1</i>
   <i type="int" name="KBLOCK">     1</i>
   <i type="int" name="NPACO">   256</i>
   <i name="APACO">     16.00000000</i>
  </separator>
  <separator name="symmetry" >
   <i type="int" name="ISYM">     2</i>
   <i name="SYMPREC">      0.00001000</i>
  </separator>
  <separator name="dos" >
   <i type="int" name="LORBIT">    11</i>
   <v name="RWIGS">     -1.00000000     -1.00000000</v>
   <i type="int" name="NEDOS">   301</i>
   <i name="EMIN">     10.00000000</i>
   <i name="EMAX">    -10.00000000</i>
   <i name="EFERMI">      0.00000000</i>
  </separator>
  <separator name="writing" >
   <i type="int" name="NWRITE">     2</i>
   <i type="logical" name="LWAVE"> T  </i>
   <i type="logical" name="LDOWNSAMPLE"> F  </i>
   <i type="logical" name="LCHARG"> T  </i>
   <i type="logical" name="LPARD"> F  </i>
   <i type="logical" name="LVTOT"> F  </i>
   <i type="logical" name="LVHAR"> F  </i>
   <i type="logical" name="LELF"> F  </i>
   <i type="logical" name="LOPTICS"> F  </i>
   <v name="STM">      0.00000000      0.00000000      0.00000000      0.00000000      0.00000000      0.00000000      0.00000000</v>
  </separator>
  <separator name="performance" >
   <i type="int" name="NPAR">     4</i>
   <i type="int" name="NSIM">     4</i>
   <i type="int" name="NBLK">    -1</i>
   <i type="logical" name="LPLANE"> T  </i>
   <i type="logical" name="LSCALAPACK"> T  </i>
   <i type="logical" name="LSCAAWARE"> F  </i>
   <i type="logical" name="LSCALU"> F  </i>
   <i type="logical" name="LASYNC"> F  </i>
   <i type="logical" name="LORBITALREAL"> F  </i>
  </separator>
  <separator name="miscellaneous" >
   <i type="int" name="IDIOT">     3</i>
   <i type="int" name="ISPECIAL">     0</i>
   <i type="logical" name="LMUSIC"> F  </i>
   <v name="POMASS">     28.08500000     12.01100000</v>
   <v name="DARWINR">      0.00000000      0.00000000</v>
   <v name="DARWINV">      1.00000000      1.00000000</v>
   <i type="logical" name="LCORR"> T  </i>
  </separator>
  <i type="logical" name="GGA_COMPAT"> T  </i>
  <i type="logical" name="LBERRY"> F  </i>
  <i type="int" name="ICORELEVEL">     0</i>
  <i type="logical" name="LDAU"> F  </i>
  <i type="int" name="I_CONSTRAINED_M">     0</i>
  <separator name="electronic exchange-correlation" >
   <i type="string" name="GGA">--</i>
   <i type="int" name="VOSKOWN">     0</i>
   <i type="logical" name="LHFCALC"> F  </i>
   <i type="string" name="PRECFOCK"></i>
   <i type="logical" name="LSYMGRAD"> F  </i>
   <i type="logical" name="LHFONE"> F  </i>
   <i type="logical" name="LRHFCALC"> F  </i>
   <i type="logical" name="LTHOMAS"> F  </i>
   <i type="logical" name="LMODELHF"> F  </i>
   <i name="ENCUT4O">     -1.00000000</i>
   <i type="int" name="EXXOEP">     0</i>
   <i type="int" name="FOURORBIT">     0</i>
   <i name="AEXX">      0.00000000</i>
   <i name="HFALPHA">      0.00000000</i>
   <i name="MCALPHA">      0.00000000</i>
   <i name="ALDAX">      1.00000000</i>
   <i name="AGGAX">      1.00000000</i>
   <i name="ALDAC">      1.00000000</i>
   <i name="AGGAC">      1.00000000</i>
   <i type="int" name="NKREDX">     1</i>
   <i type="int" name="NKREDY">     1</i>
   <i type="int" name="NKREDZ">     1</i>
   <i type="logical" name="SHIFTRED"> F  </i>
   <i type="logical" name="ODDONLY"> F  </i>
   <i type="logical" name="EVENONLY"> F  </i>
   <i type="int" name="LMAXFOCK">     0</i>
   <i type="int" name="NMAXFOCKAE">     0</i>
   <i type="logical" name="LFOCKAEDFT"> F  </i>
   <i name="HFSCREEN">      0.00000000</i>
   <i name="HFSCREENC">      0.00000000</i>
   <i type="int" name="NBANDSGWLOW">     0</i>
  </separator>
  <separator name="vdW DFT" >
   <i type="logical" name="LUSE_VDW"> F  </i>
   <i name="Zab_VDW">     -0.84910000</i>
   <i name="PARAM1">      0.12340000</i>
   <i name="PARAM2">      1.00000000</i>
   <i name="PARAM3">      0.00000000</i>
  </separator>
  <separator name="model GW" >
   <i type="int" name="MODEL_GW">     0</i>
   <i name="MODEL_EPS0">      6.30017634</i>
   <i name="MODEL_ALPHA">      1.00000000</i>
  </separator>
  <separator name="linear response parameters" >
   <i type="logical" name="LEPSILON"> F  </i>
   <i type="logical" name="LRPA"> F  </i>
   <i type="logical" name="LNABLA"> F  </i>
   <i type="logical" name="LVEL"> F  </i>
   <i type="int" name="KINTER">     0</i>
   <i name="CSHIFT">      0.10000000</i>
   <i name="OMEGAMAX">     -1.00000000</i>
   <i name="DEG_THRESHOLD">      0.00200000</i>
   <i name="RTIME">     -0.10000000</i>
   <i name="WPLASMAI">      0.00000000</i>
   <v name="DFIELD">      0.00000000      0.00000000      0.00000000</v>
   <v name="WPLASMA">      0.00000000      0.00000000      0.00000000      0.00000000      0.00000000      0.00000000      0.00000000      0.00000000      0.00000000</v>
  </separator>
  <separator name="orbital magnetization" >
   <i type="logical" name="NUCIND"> F  </i>
   <v name="MAGPOS">      0.00000000      0.00000000      0.00000000</v>
   <i type="logical" name="LNICSALL"> T  </i>
   <i type="logical" name="ORBITALMAG"> F  </i>
   <i type="logical" name="LMAGBLOCH"> F  </i>
   <i type="logical" name="LCHIMAG"> F  </i>
   <i type="logical" name="LGAUGE"> T  </i>
   <i type="int" name="MAGATOM">     0</i>
   <v name="MAGDIPOL">      0.00000000      0.00000000      0.00000000</v>
   <v name="AVECCONST">      0.00000000      0.00000000      0.00000000</v>
  </separator>
  <separator name="response functions" >
   <i type="logical" name="LADDER"> F  </i>
   <i type="logical" name="LRPAFORCE"> F  </i>
   <i type="logical" name="LFXC"> F  </i>
   <i type="logical" name="LHARTREE"> T  </i>
   <i type="int" name="IBSE">     0</i>
   <v type="int" name="KPOINT">    -1     0     0     0</v>
   <i type="logical" name="LTCTE"> F  </i>
   <i type="logical" name="LTETE"> F  </i>
   <i type="logical" name="LTRIPLET"> F  </i>
   <i type="logical" name="LFXCEPS"> F  </i>
   <i type="logical" name="LFXHEG"> F  </i>
   <i type="int" name="NATURALO">     2</i>
   <i type="logical" name="L2ORDER"> F  </i>
   <i type="logical" name="LMP2LT"> F  </i>
   <i type="logical" name="LUSEW"> F  </i>
   <i name="ENCUTGW">     -2.00000000</i>
   <i name="ENCUTGWSOFT">     -2.00000000</i>
   <i name="ENCUTLF">     -1.00000000</i>
   <i type="int" name="LMAXMP2">    -1</i>
   <i name="SCISSOR">      0.00000000</i>
   <i type="int" name="NOMEGA">     0</i>
   <i type="int" name="NOMEGAR">     0</i>
   <i type="int" name="NBANDSGW">    -1</i>
   <i type="int" name="NBANDSO">    -1</i>
   <i type="int" name="NBANDSV">    -1</i>
   <i type="int" name="NELM">    60</i>
   <i type="int" name="NELMHF">     1</i>
   <i type="int" name="DIM">     3</i>
   <i type="int" name="ANTIRES">     0</i>
   <i name="OMEGAMAX">    -30.00000000</i>
   <i name="OMEGAMIN">    -30.00000000</i>
   <i name="OMEGATL">   -200.00000000</i>
   <i type="int" name="OMEGAGRID">   140</i>
   <i name="CSHIFT">     -0.10000000</i>
   <i type="logical" name="SELFENERGY"> F  </i>
   <i type="logical" name="LSPECTRAL"> F  </i>
   <i type="logical" name="LSPECTRALGW"> F  </i>
   <i type="logical" name="LSINGLES"> F  </i>
   <i type="logical" name="LFERMIGW"> F  </i>
   <i type="logical" name="ODDONLYGW"> F  </i>
   <i type="logical" name="EVENONLYGW"> F  </i>
   <i type="int" name="NKREDLFX">     1</i>
   <i type="int" name="NKREDLFY">     1</i>
   <i type="int" name="NKREDLFZ">     1</i>
   <i type="int" name="MAXMEM">  2800</i>
   <i type="int" name="TELESCOPE">     0</i>
   <i type="int" name="TAUPAR">     1</i>
   <i type="int" name="OMEGAPAR">    -1</i>
   <i name="LAMBDA">      1.00000000</i>
  </separator>
  <separator name="External order field" >
   <i name="OFIELD_KAPPA">      0.00000000</i>
   <v name="OFIELD_K">      0.00000000      0.00000000      0.00000000</v>
   <i name="OFIELD_Q6_NEAR">      0.00000000</i>
   <i name="OFIELD_Q6_FAR">      0.00000000</i>
   <i name="OFIELD_A">      0.00000000</i>
  </separator>
 </parameters>
 <atominfo>
  <atoms>       2 </atoms>
  <types>       2 </types>
  <array name="atoms" >
   <dimension dim="1">ion</dimension>
   <field type="string">element</field>
   <field type="int">atomtype</field>
   <set>
    <rc><c>Si</c><c>   1</c></rc>
    <rc><c>C </c><c>   2</c></rc>
   </set>
  </array>
  <array name="atomtypes" >
   <dimension dim="1">type</dimension>
   <field type="int">atomspertype</field>
   <field type="string">element</field>
   <field>mass</field>
   <field>valence</field>
   <field type="string">pseudopotential</field>
   <set>
    <rc><c>   1</c><c>Si</c><c>     28.08500000</c><c>      4.00000000</c><c>  PAW_PBE Si 05Jan2001                  </c></rc>
    <rc><c>   1</c><c>C </c><c>     12.01100000</c><c>      4.00000000</c><c>  PAW_PBE C 08Apr2002                   </c></rc>
   </set>
  </array>
 </atominfo>
 <structure name="initialpos" >
  <crystal>
   <varray name="basis" >
    <v>       0.00000000       2.18978000       2.18978000 </v>
    <v>       2.18978000       0.00000000       2.18978000 </v>
    <v>       2.18978000       2.18978000       0.00000000 </v>
   </varray>
   <i name="volume">     21.00058778 </i>
   <varray name="rec_basis" >
    <v>      -0.22833344       0.22833344       0.22833344 </v>
    <v>       0.22833344      -0.22833344       0.22833344 </v>
    <v>       0.22833344       0.22833344      -0.22833344 </v>
   </varray>
  </crystal>
  <varray name="positions" >
   <v>       0.25000000       0.25000000       0.25000000 </v>
   <v>       0.00000000       0.00000000       0.00000000 </v>
  </varray>
 </structure>
 <calculation>
  <scstep>
   <time name="dav">    0.79    0.79</time>
   <time name="total">    0.82    0.82</time>
   <energy>
    <i name="alphaZ">     11.02920051 </i>
    <i name="ewald">   -283.38461863 </i>
    <i name="hartreedc">    -32.03081441 </i>
    <i name="XCdc">      5.56860014 </i>
    <i name="pawpsdc">   1013.30967535 </i>
    <i name="pawaedc">   -996.46902585 </i>
    <i name="eentropy">     -0.00283832 </i>
    <i name="bandstr">     38.44755227 </i>
    <i name="atom">    250.21524468 </i>
    <i name="e_fr_energy">      6.68297575 </i>
    <i name="e_wo_entrp">      6.68581407 </i>
    <i name="e_0_energy">      6.68439491 </i>
   </energy>
  </scstep>
  <scstep>
   <time name="dav">    1.13    1.14</time>
   <time name="total">    1.13    1.14</time>
   <energy>
    <i name="e_fr_energy">    -13.19090371 </i>
    <i name="e_wo_entrp">    -13.19090371 </i>
    <i name="e_0_energy">    -13.19090371 </i>
   </energy>
  </scstep>
  <scstep>
   <time name="dav">    0.94    0.94</time>
   <time name="total">    0.94    0.94</time>
   <energy>
    <i name="e_fr_energy">    -13.50670372 </i>
    <i name="e_wo_entrp">    -13.50670372 </i>
    <i name="e_0_energy">    -13.50670372 </i>
   </energy>
  </scstep>
  <scstep>
   <time name="dav">    1.18    1.18</time>
   <time name="total">    1.18    1.18</time>
   <energy>
    <i name="e_fr_energy">    -13.50764694 </i>
    <i name="e_wo_entrp">    -13.50764694 </i>
    <i name="e_0_energy">    -13.50764694 </i>
   </energy>
  </scstep>
  <scstep>
   <time name="dav">    0.89    0.89</time>
   <time name="total">    0.89    0.89</time>
   <energy>
    <i name="e_fr_energy">    -13.50764800 </i>
    <i name="e_wo_entrp">    -13.50764800 </i>
    <i name="e_0_energy">    -13.50764800 </i>
   </energy>
  </scstep>
  <scstep>
   <time name="dav">    1.23    1.24</time>
   <time name="total">    1.23    1.24</time>
   <energy>
    <i name="alphaZ">     11.02920051 </i>
    <i name="ewald">   -283.38461863 </i>
    <i name="hartreedc">    -32.03081441 </i>
    <i name="XCdc">      5.56860014 </i>
    <i name="pawpsdc">   1013.30967535 </i>
    <i name="pawaedc">   -996.46902585 </i>
    <i name="eentropy">     -0.00000000 </i>
    <i name="bandstr">     18.25409020 </i>
    <i name="atom">    250.21524468 </i>
    <i name="e_fr_energy">    -13.50764801 </i>
    <i name="e_wo_entrp">    -13.50764801 </i>
    <i name="e_0_energy">    -13.50764801 </i>
   </energy>
  </scstep>
  <structure>
   <crystal>
    <varray name="basis" >
     <v>       0.00000000       2.18978000       2.18978000 </v>
     <v>       2.18978000       0.00000000       2.18978000 </v>
     <v>       2.18978000       2.18978000       0.00000000 </v>
    </varray>
    <i name="volume">     21.00058778 </i>
    <varray name="rec_basis" >
     <v>      -0.22833344       0.22833344       0.22833344 </v>
     <v>       0.22833344      -0.22833344       0.22833344 </v>
     <v>       0.22833344       0.22833344      -0.22833344 </v>
    </varray>
   </crystal>
   <varray name="positions" >
    <v>       0.25000000       0.25000000       0.25000000 </v>
    <v>       0.00000000       0.00000000       0.00000000 </v>
   </varray>
  </structure>
  <varray name="forces" >
   <v>      -0.00000000      -0.00000000      -0.00000000 </v>
   <v>       0.00000000       0.00000000       0.00000000 </v>
  </varray>
  <varray name="stress" >
   <v>     107.73689707       0.00000000      -0.00000000 </v>
   <v>       0.00000000     107.73689707      -0.00000000 </v>
   <v>       0.00000000      -0.00000000     107.73689707 </v>
  </varray>
  <energy>
   <i name="e_fr_energy">    -13.50764801 </i>
   <i name="e_wo_entrp">    -13.50764801 </i>
   <i name="e_0_energy">     -0.00000000 </i>
  </energy>
  <time name="totalsc">    7.13    7.14</time>
  <eigenvalues>
   <array>
    <dimension dim="1">band</dimension>
    <dimension dim="2">kpoint</dimension>
    <dimension dim="3">spin</dimension>
    <field>eigene</field>
    <field>occ</field>
    <set>
     <set comment="spin 1">
      <set comment="kpoint 1">
       <r>   -7.3459    1.0000 </r>
       <r>    7.9415    1.0000 </r>
       <r>    7.9415    1.0000 </r>
       <r>    7.9415    1.0000 </r>
       <r>   14.0022    0.0000 </r>
       <r>   15.1469    0.0000 </r>
       <r>   15.1469    0.0000 </r>
       <r>   15.1469    0.0000 </r>
      </set>
      <set comment="kpoint 2">
       <r>   -7.3281    1.0000 </r>
       <r>    7.8820    1.0000 </r>
       <r>    7.9052    1.0000 </r>
       <r>    7.9052    1.0000 </r>
       <r>   14.0570    0.0000 </r>
       <r>   15.0974    0.0000 </r>
       <r>   15.1994    0.0000 </r>
       <r>   15.1994    0.0000 </r>
      </set>
      <set comment="kpoint 3">
       <r>   -7.2745    1.0000 </r>
       <r>    7.7107    1.0000 </r>
       <r>    7.8002    1.0000 </r>
       <r>    7.8002    1.0000 </r>
       <r>   14.2052    0.0000 </r>
       <r>   14.9596    0.0000 </r>
       <r>   15.3527    0.0000 </r>
       <r>   15.3527    0.0000 </r>
      </set>
      <set comment="kpoint 4">
       <r>   -7.1853    1.0000 </r>
       <r>    7.4458    1.0000 </r>
       <r>    7.6367    1.0000 </r>
       <r>    7.6367    1.0000 </r>
       <r>   14.3699    0.0000 </r>
       <r>   14.7941    0.0000 </r>
       <r>   15.5959    0.0000 </r>
       <r>   15.5959    0.0000 </r>
      </set>
      <set comment="kpoint 5">
       <r>   -7.0608    1.0000 </r>
       <r>    7.1089    1.0000 </r>
       <r>    7.4282    1.0000 </r>
       <r>    7.4282    1.0000 </r>
       <r>   14.2721    0.0000 </r>
       <r>   14.8513    0.0000 </r>
       <r>   15.9143    0.0000 </r>
       <r>   15.9143    0.0000 </r>
      </set>
      <set comment="kpoint 6">
       <r>   -6.9013    1.0000 </r>
       <r>    6.7187    1.0000 </r>
       <r>    7.1889    1.0000 </r>
       <r>    7.1889    1.0000 </r>
       <r>   13.9454    0.0000 </r>
       <r>   15.0494    0.0000 </r>
       <r>   16.2923    0.0000 </r>
       <r>   16.2923    0.0000 </r>
      </set>
      <set comment="kpoint 7">
       <r>   -6.7073    1.0000 </r>
       <r>    6.2897    1.0000 </r>
       <r>    6.9317    1.0000 </r>
       <r>    6.9317    1.0000 </r>
       <r>   13.5492    0.0000 </r>
       <r>   15.1549    0.0000 </r>
       <r>   16.7155    0.0000 </r>
       <r>   16.7155    0.0000 </r>
      </set>
      <set comment="kpoint 8">
       <r>   -6.4794    1.0000 </r>
       <r>    5.8316    1.0000 </r>
       <r>    6.6673    1.0000 </r>
       <r>    6.6673    1.0000 </r>
       <r>   13.1157    0.0000 </r>
       <r>   15.0680    0.0000 </r>
       <r>   17.1713    0.0000 </r>
       <r>   17.1713    0.0000 </r>
      </set>
      <set comment="kpoint 9">
       <r>   -6.2185    1.0000 </r>
       <r>    5.3505    1.0000 </r>
       <r>    6.4043    1.0000 </r>
       <r>    6.4043    1.0000 </r>
       <r>   12.6584    0.0000 </r>
       <r>   14.7928    0.0000 </r>
       <r>   17.6493    0.0000 </r>
       <r>   17.6493    0.0000 </r>
      </set>
      <set comment="kpoint 10">
       <r>   -5.9256    1.0000 </r>
       <r>    4.8504    1.0000 </r>
       <r>    6.1495    1.0000 </r>
       <r>    6.1495    1.0000 </r>
       <r>   12.1885    0.0000 </r>
       <r>   14.4158    0.0000 </r>
       <r>   18.1407    0.0000 </r>
       <r>   18.1408    0.0000 </r>
      </set>
      <set comment="kpoint 11">
       <r>   -5.6020    1.0000 </r>
       <r>    4.3339    1.0000 </r>
       <r>    5.9081    1.0000 </r>
       <r>    5.9081    1.0000 </r>
       <r>   11.7182    0.0000 </r>
       <r>   14.0165    0.0000 </r>
       <r>   18.6380    0.0000 </r>
       <r>   18.6381    0.0000 </r>
      </set>
      <set comment="kpoint 12">
       <r>   -5.2496    1.0000 </r>
       <r>    3.8032    1.0000 </r>
       <r>    5.6843    1.0000 </r>
       <r>    5.6843    1.0000 </r>
       <r>   11.2616    0.0000 </r>
       <r>   13.6384    0.0000 </r>
       <r>   19.1344    0.0000 </r>
       <r>   19.1353    0.0000 </r>
      </set>
      <set comment="kpoint 13">
       <r>   -4.8708    1.0000 </r>
       <r>    3.2613    1.0000 </r>
       <r>    5.4811    1.0000 </r>
       <r>    5.4811    1.0000 </r>
       <r>   10.8328    0.0000 </r>
       <r>   13.3000    0.0000 </r>
       <r>   19.6226    0.0000 </r>
       <r>   19.6227    0.0000 </r>
      </set>
      <set comment="kpoint 14">
       <r>   -4.4692    1.0000 </r>
       <r>    2.7125    1.0000 </r>
       <r>    5.3011    1.0000 </r>
       <r>    5.3011    1.0000 </r>
       <r>   10.4442    0.0000 </r>
       <r>   13.0074    0.0000 </r>
       <r>   20.0947    0.0000 </r>
       <r>   20.0954    0.0000 </r>
      </set>
      <set comment="kpoint 15">
       <r>   -4.0500    1.0000 </r>
       <r>    2.1635    1.0000 </r>
       <r>    5.1461    1.0000 </r>
       <r>    5.1461    1.0000 </r>
       <r>   10.1053    0.0000 </r>
       <r>   12.7618    0.0000 </r>
       <r>   20.5403    0.0000 </r>
       <r>   20.5439    0.0000 </r>
      </set>
      <set comment="kpoint 16">
       <r>   -3.6217    1.0000 </r>
       <r>    1.6247    1.0000 </r>
       <r>    5.0175    1.0000 </r>
       <r>    5.0175    1.0000 </r>
       <r>    9.8226    0.0000 </r>
       <r>   12.5626    0.0000 </r>
       <r>   20.9463    0.0000 </r>
       <r>   20.9474    0.0000 </r>
      </set>
      <set comment="kpoint 17">
       <r>   -3.1993    1.0000 </r>
       <r>    1.1134    1.0000 </r>
       <r>    4.9165    1.0000 </r>
       <r>    4.9165    1.0000 </r>
       <r>    9.6003    0.0000 </r>
       <r>   12.4088    0.0000 </r>
       <r>   21.2958    0.0000 </r>
       <r>   21.2982    0.0000 </r>
      </set>
      <set comment="kpoint 18">
       <r>   -2.8117    1.0000 </r>
       <r>    0.6604    1.0000 </r>
       <r>    4.8438    1.0000 </r>
       <r>    4.8438    1.0000 </r>
       <r>    9.4405    0.0000 </r>
       <r>   12.2995    0.0000 </r>
       <r>   21.5685    0.0000 </r>
       <r>   21.5714    0.0000 </r>
      </set>
      <set comment="kpoint 19">
       <r>   -2.5152    1.0000 </r>
       <r>    0.3238    1.0000 </r>
       <r>    4.8000    1.0000 </r>
       <r>    4.8000    1.0000 </r>
       <r>    9.3443    0.0000 </r>
       <r>   12.2342    0.0000 </r>
       <r>   21.7435    0.0000 </r>
       <r>   21.7458    0.0000 </r>
      </set>
      <set comment="kpoint 20">
       <r>   -2.3983    1.0000 </r>
       <r>    0.1933    1.0000 </r>
       <r>    4.7853    1.0000 </r>
       <r>    4.7853    1.0000 </r>
       <r>    9.3122    0.0000 </r>
       <r>   12.2124    0.0000 </r>
       <r>   21.8037    0.0000 </r>
       <r>   21.8142    0.0000 </r>
      </set>
      <set comment="kpoint 21">
       <r>   -2.3983    1.0000 </r>
       <r>    0.1933    1.0000 </r>
       <r>    4.7853    1.0000 </r>
       <r>    4.7853    1.0000 </r>
       <r>    9.3122    0.0000 </r>
       <r>   12.2124    0.0000 </r>
       <r>   21.8037    0.0000 </r>
       <r>   21.8045    0.0000 </r>
      </set>
      <set comment="kpoint 22">
       <r>   -2.3976    1.0000 </r>
       <r>    0.1951    1.0000 </r>
       <r>    4.7703    1.0000 </r>
       <r>    4.7870    1.0000 </r>
       <r>    9.3240    0.0000 </r>
       <r>   12.2231    0.0000 </r>
       <r>   21.7963    0.0000 </r>
       <r>   21.8011    0.0000 </r>
      </set>
      <set comment="kpoint 23">
       <r>   -2.3955    1.0000 </r>
       <r>    0.2005    1.0000 </r>
       <r>    4.7260    1.0000 </r>
       <r>    4.7921    1.0000 </r>
       <r>    9.3588    0.0000 </r>
       <r>   12.2551    0.0000 </r>
       <r>   21.7744    0.0000 </r>
       <r>   21.7821    0.0000 </r>
      </set>
      <set comment="kpoint 24">
       <r>   -2.3921    1.0000 </r>
       <r>    0.2093    1.0000 </r>
       <r>    4.6544    1.0000 </r>
       <r>    4.8005    1.0000 </r>
       <r>    9.4142    0.0000 </r>
       <r>   12.3086    0.0000 </r>
       <r>   21.7377    0.0000 </r>
       <r>   21.7565    0.0000 </r>
      </set>
      <set comment="kpoint 25">
       <r>   -2.3875    1.0000 </r>
       <r>    0.2217    1.0000 </r>
       <r>    4.5587    1.0000 </r>
       <r>    4.8123    1.0000 </r>
       <r>    9.4871    0.0000 </r>
       <r>   12.3838    0.0000 </r>
       <r>   21.6766    0.0000 </r>
       <r>   21.7168    0.0000 </r>
      </set>
      <set comment="kpoint 26">
       <r>   -2.3819    1.0000 </r>
       <r>    0.2374    1.0000 </r>
       <r>    4.4425    1.0000 </r>
       <r>    4.8274    1.0000 </r>
       <r>    9.5737    0.0000 </r>
       <r>   12.4810    0.0000 </r>
       <r>   21.6099    0.0000 </r>
       <r>   21.6719    0.0000 </r>
      </set>
      <set comment="kpoint 27">
       <r>   -2.3753    1.0000 </r>
       <r>    0.2565    1.0000 </r>
       <r>    4.3096    1.0000 </r>
       <r>    4.8459    1.0000 </r>
       <r>    9.6702    0.0000 </r>
       <r>   12.6001    0.0000 </r>
       <r>   21.5223    0.0000 </r>
       <r>   21.6480    0.0000 </r>
      </set>
      <set comment="kpoint 28">
       <r>   -2.3680    1.0000 </r>
       <r>    0.2788    1.0000 </r>
       <r>    4.1639    1.0000 </r>
       <r>    4.8676    1.0000 </r>
       <r>    9.7732    0.0000 </r>
       <r>   12.7410    0.0000 </r>
       <r>   21.4261    0.0000 </r>
       <r>   21.5458    0.0000 </r>
      </set>
      <set comment="kpoint 29">
       <r>   -2.3605    1.0000 </r>
       <r>    0.3042    1.0000 </r>
       <r>    4.0090    1.0000 </r>
       <r>    4.8927    1.0000 </r>
       <r>    9.8797    0.0000 </r>
       <r>   12.9031    0.0000 </r>
       <r>   21.3179    0.0000 </r>
       <r>   21.4712    0.0000 </r>
      </set>
      <set comment="kpoint 30">
       <r>   -2.3529    1.0000 </r>
       <r>    0.3325    1.0000 </r>
       <r>    3.8480    1.0000 </r>
       <r>    4.9209    1.0000 </r>
       <r>    9.9878    0.0000 </r>
       <r>   13.0856    0.0000 </r>
       <r>   21.1992    0.0000 </r>
       <r>   21.3878    0.0000 </r>
      </set>
      <set comment="kpoint 31">
       <r>   -2.3457    1.0000 </r>
       <r>    0.3635    1.0000 </r>
       <r>    3.6840    1.0000 </r>
       <r>    4.9524    1.0000 </r>
       <r>   10.0958    0.0000 </r>
       <r>   13.2871    0.0000 </r>
       <r>   21.0721    0.0000 </r>
       <r>   21.2976    0.0000 </r>
      </set>
      <set comment="kpoint 32">
       <r>   -2.3393    1.0000 </r>
       <r>    0.3969    1.0000 </r>
       <r>    3.5196    1.0000 </r>
       <r>    4.9869    1.0000 </r>
       <r>   10.2030    0.0000 </r>
       <r>   13.5060    0.0000 </r>
       <r>   20.9346    0.0000 </r>
       <r>   21.2011    0.0000 </r>
      </set>
      <set comment="kpoint 33">
       <r>   -2.3344    1.0000 </r>
       <r>    0.4324    1.0000 </r>
       <r>    3.3574    1.0000 </r>
       <r>    5.0247    1.0000 </r>
       <r>   10.3090    0.0000 </r>
       <r>   13.7405    0.0000 </r>
       <r>   20.7918    0.0000 </r>
       <r>   21.0983    0.0000 </r>
      </set>
      <set comment="kpoint 34">
       <r>   -2.3316    1.0000 </r>
       <r>    0.4698    1.0000 </r>
       <r>    3.1998    1.0000 </r>
       <r>    5.0654    1.0000 </r>
       <r>   10.4138    0.0000 </r>
       <r>   13.9885    0.0000 </r>
       <r>   20.6412    0.0000 </r>
       <r>   20.9903    0.0000 </r>
      </set>
      <set comment="kpoint 35">
       <r>   -2.3315    1.0000 </r>
       <r>    0.5085    1.0000 </r>
       <r>    3.0490    1.0000 </r>
       <r>    5.1091    1.0000 </r>
       <r>   10.5177    0.0000 </r>
       <r>   14.2477    0.0000 </r>
       <r>   20.4859    0.0000 </r>
       <r>   20.8765    0.0000 </r>
      </set>
      <set comment="kpoint 36">
       <r>   -2.3350    1.0000 </r>
       <r>    0.5481    1.0000 </r>
       <r>    2.9073    1.0000 </r>
       <r>    5.1558    1.0000 </r>
       <r>   10.6210    0.0000 </r>
       <r>   14.5159    0.0000 </r>
       <r>   20.3266    0.0000 </r>
       <r>   20.7594    0.0000 </r>
      </set>
      <set comment="kpoint 37">
       <r>   -2.3430    1.0000 </r>
       <r>    0.5881    1.0000 </r>
       <r>    2.7768    1.0000 </r>
       <r>    5.2053    1.0000 </r>
       <r>   10.7241    0.0000 </r>
       <r>   14.7903    0.0000 </r>
       <r>   20.1641    0.0000 </r>
       <r>   20.6419    0.0000 </r>
      </set>
      <set comment="kpoint 38">
       <r>   -2.3563    1.0000 </r>
       <r>    0.6279    1.0000 </r>
       <r>    2.6597    1.0000 </r>
       <r>    5.2576    1.0000 </r>
       <r>   10.8275    0.0000 </r>
       <r>   15.0685    0.0000 </r>
       <r>   19.9984    0.0000 </r>
       <r>   20.5087    0.0000 </r>
      </set>
      <set comment="kpoint 39">
       <r>   -2.3759    1.0000 </r>
       <r>    0.6671    1.0000 </r>
       <r>    2.5580    1.0000 </r>
       <r>    5.3125    1.0000 </r>
       <r>   10.9316    0.0000 </r>
       <r>   15.3472    0.0000 </r>
       <r>   19.8312    0.0000 </r>
       <r>   20.3771    0.0000 </r>
      </set>
      <set comment="kpoint 40">
       <r>   -2.4027    1.0000 </r>
       <r>    0.7053    1.0000 </r>
       <r>    2.4733    1.0000 </r>
       <r>    5.3700    1.0000 </r>
       <r>   11.0367    0.0000 </r>
       <r>   15.6231    0.0000 </r>
       <r>   19.6627    0.0000 </r>
       <r>   20.2417    0.0000 </r>
      </set>
      <set comment="kpoint 41">
       <r>   -2.4027    1.0000 </r>
       <r>    0.7053    1.0000 </r>
       <r>    2.4733    1.0000 </r>
       <r>    5.3700    1.0000 </r>
       <r>   11.0367    0.0000 </r>
       <r>   15.6231    0.0000 </r>
       <r>   19.6627    0.0000 </r>
       <r>   20.2422    0.0000 </r>
      </set>
      <set comment="kpoint 42">
       <r>   -2.5343    1.0000 </r>
       <r>    0.8132    1.0000 </r>
       <r>    2.3340    1.0000 </r>
       <r>    5.5571    1.0000 </r>
       <r>   11.3615    0.0000 </r>
       <r>   16.3923    0.0000 </r>
       <r>   19.1574    0.0000 </r>
       <r>   19.8178    0.0000 </r>
      </set>
      <set comment="kpoint 43">
       <r>   -2.7518    1.0000 </r>
       <r>    0.9257    1.0000 </r>
       <r>    2.3661    1.0000 </r>
       <r>    5.7632    1.0000 </r>
       <r>   11.7048    0.0000 </r>
       <r>   16.9621    0.0000 </r>
       <r>   18.6627    0.0000 </r>
       <r>   19.3812    0.0000 </r>
      </set>
      <set comment="kpoint 44">
       <r>   -3.0509    1.0000 </r>
       <r>    1.0758    1.0000 </r>
       <r>    2.5366    1.0000 </r>
       <r>    5.9846    1.0000 </r>
       <r>   12.0695    0.0000 </r>
       <r>   17.2131    0.0000 </r>
       <r>   18.1908    0.0000 </r>
       <r>   18.9487    0.0000 </r>
      </set>
      <set comment="kpoint 45">
       <r>   -3.4118    1.0000 </r>
       <r>    1.2875    1.0000 </r>
       <r>    2.8029    1.0000 </r>
       <r>    6.2163    1.0000 </r>
       <r>   12.4557    0.0000 </r>
       <r>   17.1731    0.0000 </r>
       <r>   17.7509    0.0000 </r>
       <r>   18.5320    0.0000 </r>
      </set>
      <set comment="kpoint 46">
       <r>   -3.8097    1.0000 </r>
       <r>    1.5663    1.0000 </r>
       <r>    3.1345    1.0000 </r>
       <r>    6.4529    1.0000 </r>
       <r>   12.8605    0.0000 </r>
       <r>   16.9649    0.0000 </r>
       <r>   17.3502    0.0000 </r>
       <r>   18.1385    0.0000 </r>
      </set>
      <set comment="kpoint 47">
       <r>   -4.2230    1.0000 </r>
       <r>    1.9074    1.0000 </r>
       <r>    3.5126    1.0000 </r>
       <r>    6.6881    1.0000 </r>
       <r>   13.2782    0.0000 </r>
       <r>   16.6826    0.0000 </r>
       <r>   16.9937    0.0000 </r>
       <r>   17.7751    0.0000 </r>
      </set>
      <set comment="kpoint 48">
       <r>   -4.6352    1.0000 </r>
       <r>    2.3032    1.0000 </r>
       <r>    3.9248    1.0000 </r>
       <r>    6.9152    1.0000 </r>
       <r>   13.6988    0.0000 </r>
       <r>   16.3765    0.0000 </r>
       <r>   16.6836    0.0000 </r>
       <r>   17.4490    0.0000 </r>
      </set>
      <set comment="kpoint 49">
       <r>   -5.0347    1.0000 </r>
       <r>    2.7465    1.0000 </r>
       <r>    4.3616    1.0000 </r>
       <r>    7.1274    1.0000 </r>
       <r>   14.1058    0.0000 </r>
       <r>   16.0728    0.0000 </r>
       <r>   16.4190    0.0000 </r>
       <r>   17.1707    0.0000 </r>
      </set>
      <set comment="kpoint 50">
       <r>   -5.4135    1.0000 </r>
       <r>    3.2309    1.0000 </r>
       <r>    4.8143    1.0000 </r>
       <r>    7.3184    1.0000 </r>
       <r>   14.4733    0.0000 </r>
       <r>   15.7859    0.0000 </r>
       <r>   16.1957    0.0000 </r>
       <r>   16.9543    0.0000 </r>
      </set>
      <set comment="kpoint 51">
       <r>   -5.7659    1.0000 </r>
       <r>    3.7505    1.0000 </r>
       <r>    5.2743    1.0000 </r>
       <r>    7.4834    1.0000 </r>
       <r>   14.7651    0.0000 </r>
       <r>   15.5243    0.0000 </r>
       <r>   16.0062    0.0000 </r>
       <r>   16.8156    0.0000 </r>
      </set>
      <set comment="kpoint 52">
       <r>   -6.0880    1.0000 </r>
       <r>    4.2988    1.0000 </r>
       <r>    5.7318    1.0000 </r>
       <r>    7.6195    1.0000 </r>
       <r>   14.9461    0.0000 </r>
       <r>   15.2947    0.0000 </r>
       <r>   15.8420    0.0000 </r>
       <r>   16.7539    0.0000 </r>
      </set>
      <set comment="kpoint 53">
       <r>   -6.3769    1.0000 </r>
       <r>    4.8688    1.0000 </r>
       <r>    6.1761    1.0000 </r>
       <r>    7.7264    1.0000 </r>
       <r>   14.9898    0.0000 </r>
       <r>   15.1249    0.0000 </r>
       <r>   15.6958    0.0000 </r>
       <r>   16.7199    0.0000 </r>
      </set>
      <set comment="kpoint 54">
       <r>   -6.6304    1.0000 </r>
       <r>    5.4512    1.0000 </r>
       <r>    6.5954    1.0000 </r>
       <r>    7.8058    1.0000 </r>
       <r>   14.8634    0.0000 </r>
       <r>   15.0832    0.0000 </r>
       <r>   15.5637    0.0000 </r>
       <r>   16.6220    0.0000 </r>
      </set>
      <set comment="kpoint 55">
       <r>   -6.8471    1.0000 </r>
       <r>    6.0332    1.0000 </r>
       <r>    6.9771    1.0000 </r>
       <r>    7.8616    1.0000 </r>
       <r>   14.7031    0.0000 </r>
       <r>   15.0712    0.0000 </r>
       <r>   15.4455    0.0000 </r>
       <r>   16.3959    0.0000 </r>
      </set>
      <set comment="kpoint 56">
       <r>   -7.0257    1.0000 </r>
       <r>    6.5962    1.0000 </r>
       <r>    7.3088    1.0000 </r>
       <r>    7.8983    1.0000 </r>
       <r>   14.5440    0.0000 </r>
       <r>   15.0713    0.0000 </r>
       <r>   15.3431    0.0000 </r>
       <r>   16.0599    0.0000 </r>
      </set>
      <set comment="kpoint 57">
       <r>   -7.1654    1.0000 </r>
       <r>    7.1129    1.0000 </r>
       <r>    7.5789    1.0000 </r>
       <r>    7.9208    1.0000 </r>
       <r>   14.3794    0.0000 </r>
       <r>   15.0874    0.0000 </r>
       <r>   15.2596    0.0000 </r>
       <r>   15.6950    0.0000 </r>
      </set>
      <set comment="kpoint 58">
       <r>   -7.2656    1.0000 </r>
       <r>    7.5435    1.0000 </r>
       <r>    7.7783    1.0000 </r>
       <r>    7.9335    1.0000 </r>
       <r>   14.2082    0.0000 </r>
       <r>   15.1136    0.0000 </r>
       <r>   15.1977    0.0000 </r>
       <r>   15.3923    0.0000 </r>
      </set>
      <set comment="kpoint 59">
       <r>   -7.3258    1.0000 </r>
       <r>    7.8365    1.0000 </r>
       <r>    7.9004    1.0000 </r>
       <r>    7.9397    1.0000 </r>
       <r>   14.0619    0.0000 </r>
       <r>   15.1374    0.0000 </r>
       <r>   15.1597    0.0000 </r>
       <r>   15.2070    0.0000 </r>
      </set>
      <set comment="kpoint 60">
       <r>   -7.3459    1.0000 </r>
       <r>    7.9415    1.0000 </r>
       <r>    7.9415    1.0000 </r>
       <r>    7.9415    1.0000 </r>
       <r>   14.0022    0.0000 </r>
       <r>   15.1469    0.0000 </r>
       <r>   15.1469    0.0000 </r>
       <r>   15.1469    0.0000 </r>
      </set>
      <set comment="kpoint 61">
       <r>   -7.3459    1.0000 </r>
       <r>    7.9415    1.0000 </r>
       <r>    7.9415    1.0000 </r>
       <r>    7.9415    1.0000 </r>
       <r>   14.0022    0.0000 </r>
       <r>   15.1469    0.0000 </r>
       <r>   15.1469    0.0000 </r>
       <r>   15.1469    0.0000 </r>
      </set>
      <set comment="kpoint 62">
       <r>   -7.3325    1.0000 </r>
       <r>    7.8623    1.0000 </r>
       <r>    7.9316    1.0000 </r>
       <r>    7.9316    1.0000 </r>
       <r>   14.0424    0.0000 </r>
       <r>   15.1516    0.0000 </r>
       <r>   15.1657    0.0000 </r>
       <r>   15.1657    0.0000 </r>
      </set>
      <set comment="kpoint 63">
       <r>   -7.2923    1.0000 </r>
       <r>    7.6347    1.0000 </r>
       <r>    7.9026    1.0000 </r>
       <r>    7.9026    1.0000 </r>
       <r>   14.1421    0.0000 </r>
       <r>   15.1784    0.0000 </r>
       <r>   15.2201    0.0000 </r>
       <r>   15.2201    0.0000 </r>
      </set>
      <set comment="kpoint 64">
       <r>   -7.2255    1.0000 </r>
       <r>    7.2840    1.0000 </r>
       <r>    7.8562    1.0000 </r>
       <r>    7.8562    1.0000 </r>
       <r>   14.2439    0.0000 </r>
       <r>   15.2643    0.0000 </r>
       <r>   15.3047    0.0000 </r>
       <r>   15.3047    0.0000 </r>
      </set>
      <set comment="kpoint 65">
       <r>   -7.1321    1.0000 </r>
       <r>    6.8399    1.0000 </r>
       <r>    7.7949    1.0000 </r>
       <r>    7.7949    1.0000 </r>
       <r>   14.2872    0.0000 </r>
       <r>   15.4103    0.0000 </r>
       <r>   15.4103    0.0000 </r>
       <r>   15.4468    0.0000 </r>
      </set>
      <set comment="kpoint 66">
       <r>   -7.0126    1.0000 </r>
       <r>    6.3293    1.0000 </r>
       <r>    7.7221    1.0000 </r>
       <r>    7.7221    1.0000 </r>
       <r>   14.2588    0.0000 </r>
       <r>   15.5243    0.0000 </r>
       <r>   15.5243    0.0000 </r>
       <r>   15.7197    0.0000 </r>
      </set>
      <set comment="kpoint 67">
       <r>   -6.8673    1.0000 </r>
       <r>    5.7735    1.0000 </r>
       <r>    7.6411    1.0000 </r>
       <r>    7.6411    1.0000 </r>
       <r>   14.1823    0.0000 </r>
       <r>   15.6316    0.0000 </r>
       <r>   15.6316    0.0000 </r>
       <r>   16.0443    0.0000 </r>
      </set>
      <set comment="kpoint 68">
       <r>   -6.6967    1.0000 </r>
       <r>    5.1889    1.0000 </r>
       <r>    7.5551    1.0000 </r>
       <r>    7.5551    1.0000 </r>
       <r>   14.0809    0.0000 </r>
       <r>   15.7163    0.0000 </r>
       <r>   15.7163    0.0000 </r>
       <r>   16.3854    0.0000 </r>
      </set>
      <set comment="kpoint 69">
       <r>   -6.5015    1.0000 </r>
       <r>    4.5878    1.0000 </r>
       <r>    7.4673    1.0000 </r>
       <r>    7.4673    1.0000 </r>
       <r>   13.9691    0.0000 </r>
       <r>   15.7650    0.0000 </r>
       <r>   15.7650    0.0000 </r>
       <r>   16.7183    0.0000 </r>
      </set>
      <set comment="kpoint 70">
       <r>   -6.2828    1.0000 </r>
       <r>    3.9800    1.0000 </r>
       <r>    7.3802    1.0000 </r>
       <r>    7.3802    1.0000 </r>
       <r>   13.8558    0.0000 </r>
       <r>   15.7709    0.0000 </r>
       <r>   15.7709    0.0000 </r>
       <r>   17.0246    0.0000 </r>
      </set>
      <set comment="kpoint 71">
       <r>   -6.0418    1.0000 </r>
       <r>    3.3735    1.0000 </r>
       <r>    7.2963    1.0000 </r>
       <r>    7.2963    1.0000 </r>
       <r>   13.7463    0.0000 </r>
       <r>   15.7353    0.0000 </r>
       <r>   15.7353    0.0000 </r>
       <r>   17.2907    0.0000 </r>
      </set>
      <set comment="kpoint 72">
       <r>   -5.7804    1.0000 </r>
       <r>    2.7750    1.0000 </r>
       <r>    7.2174    1.0000 </r>
       <r>    7.2174    1.0000 </r>
       <r>   13.6443    0.0000 </r>
       <r>   15.6665    0.0000 </r>
       <r>   15.6665    0.0000 </r>
       <r>   17.5074    0.0000 </r>
      </set>
      <set comment="kpoint 73">
       <r>   -5.5010    1.0000 </r>
       <r>    2.1911    1.0000 </r>
       <r>    7.1450    1.0000 </r>
       <r>    7.1450    1.0000 </r>
       <r>   13.5518    0.0000 </r>
       <r>   15.5764    0.0000 </r>
       <r>   15.5764    0.0000 </r>
       <r>   17.6709    0.0000 </r>
      </set>
      <set comment="kpoint 74">
       <r>   -5.2076    1.0000 </r>
       <r>    1.6287    1.0000 </r>
       <r>    7.0803    1.0000 </r>
       <r>    7.0803    1.0000 </r>
       <r>   13.4704    0.0000 </r>
       <r>   15.4768    0.0000 </r>
       <r>   15.4768    0.0000 </r>
       <r>   17.7840    0.0000 </r>
      </set>
      <set comment="kpoint 75">
       <r>   -4.9058    1.0000 </r>
       <r>    1.0958    1.0000 </r>
       <r>    7.0243    1.0000 </r>
       <r>    7.0243    1.0000 </r>
       <r>   13.4009    0.0000 </r>
       <r>   15.3779    0.0000 </r>
       <r>   15.3779    0.0000 </r>
       <r>   17.8540    0.0000 </r>
      </set>
      <set comment="kpoint 76">
       <r>   -4.6047    1.0000 </r>
       <r>    0.6034    1.0000 </r>
       <r>    6.9777    1.0000 </r>
       <r>    6.9777    1.0000 </r>
       <r>   13.3438    0.0000 </r>
       <r>   15.2877    0.0000 </r>
       <r>   15.2877    0.0000 </r>
       <r>   17.8921    0.0000 </r>
      </set>
      <set comment="kpoint 77">
       <r>   -4.3191    1.0000 </r>
       <r>    0.1676    1.0000 </r>
       <r>    6.9410    1.0000 </r>
       <r>    6.9410    1.0000 </r>
       <r>   13.2992    0.0000 </r>
       <r>   15.2123    0.0000 </r>
       <r>   15.2123    0.0000 </r>
       <r>   17.9090    0.0000 </r>
      </set>
      <set comment="kpoint 78">
       <r>   -4.0723    1.0000 </r>
       <r>   -0.1872    1.0000 </r>
       <r>    6.9145    1.0000 </r>
       <r>    6.9145    1.0000 </r>
       <r>   13.2674    0.0000 </r>
       <r>   15.1557    0.0000 </r>
       <r>   15.1557    0.0000 </r>
       <r>   17.9140    0.0000 </r>
      </set>
      <set comment="kpoint 79">
       <r>   -3.8983    1.0000 </r>
       <r>   -0.4262    1.0000 </r>
       <r>    6.8985    1.0000 </r>
       <r>    6.8985    1.0000 </r>
       <r>   13.2484    0.0000 </r>
       <r>   15.1207    0.0000 </r>
       <r>   15.1207    0.0000 </r>
       <r>   17.9142    0.0000 </r>
      </set>
      <set comment="kpoint 80">
       <r>   -3.8345    1.0000 </r>
       <r>   -0.5117    1.0000 </r>
       <r>    6.8932    1.0000 </r>
       <r>    6.8932    1.0000 </r>
       <r>   13.2420    0.0000 </r>
       <r>   15.1088    0.0000 </r>
       <r>   15.1088    0.0000 </r>
       <r>   17.9139    0.0000 </r>
      </set>
      <set comment="kpoint 81">
       <r>   -3.8345    1.0000 </r>
       <r>   -0.5117    1.0000 </r>
       <r>    6.8932    1.0000 </r>
       <r>    6.8932    1.0000 </r>
       <r>   13.2420    0.0000 </r>
       <r>   15.1088    0.0000 </r>
       <r>   15.1088    0.0000 </r>
       <r>   17.9139    0.0000 </r>
      </set>
      <set comment="kpoint 82">
       <r>   -3.8270    1.0000 </r>
       <r>   -0.5036    1.0000 </r>
       <r>    6.8445    1.0000 </r>
       <r>    6.8805    1.0000 </r>
       <r>   13.2755    0.0000 </r>
       <r>   15.0617    0.0000 </r>
       <r>   15.1379    0.0000 </r>
       <r>   17.9699    0.0000 </r>
      </set>
      <set comment="kpoint 83">
       <r>   -3.8045    1.0000 </r>
       <r>   -0.4792    1.0000 </r>
       <r>    6.7038    1.0000 </r>
       <r>    6.8423    1.0000 </r>
       <r>   13.3648    0.0000 </r>
       <r>   14.9394    0.0000 </r>
       <r>   15.2281    0.0000 </r>
       <r>   18.1197    0.0000 </r>
      </set>
      <set comment="kpoint 84">
       <r>   -3.7672    1.0000 </r>
       <r>   -0.4387    1.0000 </r>
       <r>    6.4850    1.0000 </r>
       <r>    6.7780    1.0000 </r>
       <r>   13.4778    0.0000 </r>
       <r>   14.7870    0.0000 </r>
       <r>   15.3868    0.0000 </r>
       <r>   18.3219    0.0000 </r>
      </set>
      <set comment="kpoint 85">
       <r>   -3.7153    1.0000 </r>
       <r>   -0.3824    1.0000 </r>
       <r>    6.2057    1.0000 </r>
       <r>    6.6869    1.0000 </r>
       <r>   13.5661    0.0000 </r>
       <r>   14.6596    0.0000 </r>
       <r>   15.6228    0.0000 </r>
       <r>   18.5331    0.0000 </r>
      </set>
      <set comment="kpoint 86">
       <r>   -3.6492    1.0000 </r>
       <r>   -0.3106    1.0000 </r>
       <r>    5.8836    1.0000 </r>
       <r>    6.5683    1.0000 </r>
       <r>   13.5822    0.0000 </r>
       <r>   14.6075    0.0000 </r>
       <r>   15.9388    0.0000 </r>
       <r>   18.7172    0.0000 </r>
      </set>
      <set comment="kpoint 87">
       <r>   -3.5694    1.0000 </r>
       <r>   -0.2239    1.0000 </r>
       <r>    5.5341    1.0000 </r>
       <r>    6.4220    1.0000 </r>
       <r>   13.5182    0.0000 </r>
       <r>   14.6444    0.0000 </r>
       <r>   16.3277    0.0000 </r>
       <r>   18.8482    0.0000 </r>
      </set>
      <set comment="kpoint 88">
       <r>   -3.4765    1.0000 </r>
       <r>   -0.1232    1.0000 </r>
       <r>    5.1696    1.0000 </r>
       <r>    6.2483    1.0000 </r>
       <r>   13.4111    0.0000 </r>
       <r>   14.7432    0.0000 </r>
       <r>   16.7734    0.0000 </r>
       <r>   18.9121    0.0000 </r>
      </set>
      <set comment="kpoint 89">
       <r>   -3.3714    1.0000 </r>
       <r>   -0.0095    1.0000 </r>
       <r>    4.8007    1.0000 </r>
       <r>    6.0484    1.0000 </r>
       <r>   13.2981    0.0000 </r>
       <r>   14.8763    0.0000 </r>
       <r>   17.2541    0.0000 </r>
       <r>   18.9082    0.0000 </r>
      </set>
      <set comment="kpoint 90">
       <r>   -3.2553    1.0000 </r>
       <r>    0.1155    1.0000 </r>
       <r>    4.4360    1.0000 </r>
       <r>    5.8247    1.0000 </r>
       <r>   13.1994    0.0000 </r>
       <r>   15.0306    0.0000 </r>
       <r>   17.7395    0.0000 </r>
       <r>   18.8520    0.0000 </r>
      </set>
      <set comment="kpoint 91">
       <r>   -3.1297    1.0000 </r>
       <r>    0.2496    1.0000 </r>
       <r>    4.0838    1.0000 </r>
       <r>    5.5802    1.0000 </r>
       <r>   13.1237    0.0000 </r>
       <r>   15.2013    0.0000 </r>
       <r>   18.1620    0.0000 </r>
       <r>   18.7967    0.0000 </r>
      </set>
      <set comment="kpoint 92">
       <r>   -2.9965    1.0000 </r>
       <r>    0.3894    1.0000 </r>
       <r>    3.7522    1.0000 </r>
       <r>    5.3188    1.0000 </r>
       <r>   13.0729    0.0000 </r>
       <r>   15.3867    0.0000 </r>
       <r>   18.3206    0.0000 </r>
       <r>   18.9118    0.0000 </r>
      </set>
      <set comment="kpoint 93">
       <r>   -2.8583    1.0000 </r>
       <r>    0.5301    1.0000 </r>
       <r>    3.4505    1.0000 </r>
       <r>    5.0448    1.0000 </r>
       <r>   13.0457    0.0000 </r>
       <r>   15.5862    0.0000 </r>
       <r>   18.2162    0.0000 </r>
       <r>   19.1161    0.0000 </r>
      </set>
      <set comment="kpoint 94">
       <r>   -2.7187    1.0000 </r>
       <r>    0.6642    1.0000 </r>
       <r>    3.1904    1.0000 </r>
       <r>    4.7627    1.0000 </r>
       <r>   13.0387    0.0000 </r>
       <r>   15.7996    0.0000 </r>
       <r>   18.0471    0.0000 </r>
       <r>   19.1188    0.0000 </r>
      </set>
      <set comment="kpoint 95">
       <r>   -2.5819    1.0000 </r>
       <r>    0.7817    1.0000 </r>
       <r>    2.9862    1.0000 </r>
       <r>    4.4776    1.0000 </r>
       <r>   13.0471    0.0000 </r>
       <r>   16.0264    0.0000 </r>
       <r>   17.8701    0.0000 </r>
       <r>   18.9279    0.0000 </r>
      </set>
      <set comment="kpoint 96">
       <r>   -2.4537    1.0000 </r>
       <r>    0.8710    1.0000 </r>
       <r>    2.8541    1.0000 </r>
       <r>    4.1945    1.0000 </r>
       <r>   13.0654    0.0000 </r>
       <r>   16.2662    0.0000 </r>
       <r>   17.7048    0.0000 </r>
       <r>   18.6533    0.0000 </r>
      </set>
      <set comment="kpoint 97">
       <r>   -2.3411    1.0000 </r>
       <r>    0.9241    1.0000 </r>
       <r>    2.8065    1.0000 </r>
       <r>    3.9194    1.0000 </r>
       <r>   13.0879    0.0000 </r>
       <r>   16.5174    0.0000 </r>
       <r>   17.5629    0.0000 </r>
       <r>   18.3530    0.0000 </r>
      </set>
      <set comment="kpoint 98">
       <r>   -2.2521    1.0000 </r>
       <r>    0.9439    1.0000 </r>
       <r>    2.8427    1.0000 </r>
       <r>    3.6604    1.0000 </r>
       <r>   13.1088    0.0000 </r>
       <r>   16.7771    0.0000 </r>
       <r>   17.4514    0.0000 </r>
       <r>   18.0536    0.0000 </r>
      </set>
      <set comment="kpoint 99">
       <r>   -2.1946    1.0000 </r>
       <r>    0.9449    1.0000 </r>
       <r>    2.9417    1.0000 </r>
       <r>    3.4340    1.0000 </r>
       <r>   13.1236    0.0000 </r>
       <r>   17.0356    0.0000 </r>
       <r>   17.3674    0.0000 </r>
       <r>   17.7834    0.0000 </r>
      </set>
      <set comment="kpoint 100">
       <r>   -2.1746    1.0000 </r>
       <r>    0.9430    1.0000 </r>
       <r>    3.0215    1.0000 </r>
       <r>    3.3130    1.0000 </r>
       <r>   13.1289    0.0000 </r>
       <r>   17.2424    0.0000 </r>
       <r>   17.2667    0.0000 </r>
       <r>   17.6444    0.0000 </r>
      </set>
      <set comment="kpoint 101">
       <r>   -2.1746    1.0000 </r>
       <r>    0.9430    1.0000 </r>
       <r>    3.0215    1.0000 </r>
       <r>    3.3130    1.0000 </r>
       <r>   13.1289    0.0000 </r>
       <r>   17.2424    0.0000 </r>
       <r>   17.2667    0.0000 </r>
       <r>   17.6444    0.0000 </r>
      </set>
      <set comment="kpoint 102">
       <r>   -2.1763    1.0000 </r>
       <r>    0.9347    1.0000 </r>
       <r>    3.0353    1.0000 </r>
       <r>    3.3208    1.0000 </r>
       <r>   13.0875    0.0000 </r>
       <r>   16.9869    0.0000 </r>
       <r>   17.3126    0.0000 </r>
       <r>   17.9021    0.0000 </r>
      </set>
      <set comment="kpoint 103">
       <r>   -2.1813    1.0000 </r>
       <r>    0.9108    1.0000 </r>
       <r>    3.0759    1.0000 </r>
       <r>    3.3442    1.0000 </r>
       <r>   12.9689    0.0000 </r>
       <r>   16.6031    0.0000 </r>
       <r>   17.4447    0.0000 </r>
       <r>   18.2921    0.0000 </r>
      </set>
      <set comment="kpoint 104">
       <r>   -2.1894    1.0000 </r>
       <r>    0.8733    1.0000 </r>
       <r>    3.1409    1.0000 </r>
       <r>    3.3829    1.0000 </r>
       <r>   12.7867    0.0000 </r>
       <r>   16.2108    0.0000 </r>
       <r>   17.6489    0.0000 </r>
       <r>   18.6944    0.0000 </r>
      </set>
      <set comment="kpoint 105">
       <r>   -2.2003    1.0000 </r>
       <r>    0.8250    1.0000 </r>
       <r>    3.2270    1.0000 </r>
       <r>    3.4362    1.0000 </r>
       <r>   12.5576    0.0000 </r>
       <r>   15.8220    0.0000 </r>
       <r>   17.9083    0.0000 </r>
       <r>   19.0958    0.0000 </r>
      </set>
      <set comment="kpoint 106">
       <r>   -2.2137    1.0000 </r>
       <r>    0.7693    1.0000 </r>
       <r>    3.3305    1.0000 </r>
       <r>    3.5033    1.0000 </r>
       <r>   12.2965    0.0000 </r>
       <r>   15.4407    0.0000 </r>
       <r>   18.2075    0.0000 </r>
       <r>   19.4915    0.0000 </r>
      </set>
      <set comment="kpoint 107">
       <r>   -2.2291    1.0000 </r>
       <r>    0.7089    1.0000 </r>
       <r>    3.4479    1.0000 </r>
       <r>    3.5833    1.0000 </r>
       <r>   12.0155    0.0000 </r>
       <r>   15.0694    0.0000 </r>
       <r>   18.5335    0.0000 </r>
       <r>   19.8773    0.0000 </r>
      </set>
      <set comment="kpoint 108">
       <r>   -2.2460    1.0000 </r>
       <r>    0.6463    1.0000 </r>
       <r>    3.5757    1.0000 </r>
       <r>    3.6749    1.0000 </r>
       <r>   11.7238    0.0000 </r>
       <r>   14.7101    0.0000 </r>
       <r>   18.8760    0.0000 </r>
       <r>   20.2491    0.0000 </r>
      </set>
      <set comment="kpoint 109">
       <r>   -2.2640    1.0000 </r>
       <r>    0.5838    1.0000 </r>
       <r>    3.7105    1.0000 </r>
       <r>    3.7766    1.0000 </r>
       <r>   11.4285    0.0000 </r>
       <r>   14.3649    0.0000 </r>
       <r>   19.2269    0.0000 </r>
       <r>   20.6029    0.0000 </r>
      </set>
      <set comment="kpoint 110">
       <r>   -2.2824    1.0000 </r>
       <r>    0.5229    1.0000 </r>
       <r>    3.8493    1.0000 </r>
       <r>    3.8867    1.0000 </r>
       <r>   11.1354    0.0000 </r>
       <r>   14.0360    0.0000 </r>
       <r>   19.5791    0.0000 </r>
       <r>   20.9359    0.0000 </r>
      </set>
      <set comment="kpoint 111">
       <r>   -2.3008    1.0000 </r>
       <r>    0.4650    1.0000 </r>
       <r>    3.9892    1.0000 </r>
       <r>    4.0030    1.0000 </r>
       <r>   10.8492    0.0000 </r>
       <r>   13.7255    0.0000 </r>
       <r>   19.9261    0.0000 </r>
       <r>   21.2402    0.0000 </r>
      </set>
      <set comment="kpoint 112">
       <r>   -2.3187    1.0000 </r>
       <r>    0.4111    1.0000 </r>
       <r>    4.1232    1.0000 </r>
       <r>    4.1270    1.0000 </r>
       <r>   10.5742    0.0000 </r>
       <r>   13.4359    0.0000 </r>
       <r>   20.2619    0.0000 </r>
       <r>   21.5158    0.0000 </r>
      </set>
      <set comment="kpoint 113">
       <r>   -2.3356    1.0000 </r>
       <r>    0.3621    1.0000 </r>
       <r>    4.2443    1.0000 </r>
       <r>    4.2598    1.0000 </r>
       <r>   10.3146    0.0000 </r>
       <r>   13.1699    0.0000 </r>
       <r>   20.5804    0.0000 </r>
       <r>   21.7539    0.0000 </r>
      </set>
      <set comment="kpoint 114">
       <r>   -2.3511    1.0000 </r>
       <r>    0.3185    1.0000 </r>
       <r>    4.3631    1.0000 </r>
       <r>    4.3844    1.0000 </r>
       <r>   10.0747    0.0000 </r>
       <r>   12.9303    0.0000 </r>
       <r>   20.8754    0.0000 </r>
       <r>   21.8451    0.0000 </r>
      </set>
      <set comment="kpoint 115">
       <r>   -2.3649    1.0000 </r>
       <r>    0.2810    1.0000 </r>
       <r>    4.4755    1.0000 </r>
       <r>    4.4975    1.0000 </r>
       <r>    9.8589    0.0000 </r>
       <r>   12.7202    0.0000 </r>
       <r>   21.1402    0.0000 </r>
       <r>   21.8360    0.0000 </r>
      </set>
      <set comment="kpoint 116">
       <r>   -2.3766    1.0000 </r>
       <r>    0.2498    1.0000 </r>
       <r>    4.5773    1.0000 </r>
       <r>    4.5958    1.0000 </r>
       <r>    9.6722    0.0000 </r>
       <r>   12.5426    0.0000 </r>
       <r>   21.3690    0.0000 </r>
       <r>   21.8253    0.0000 </r>
      </set>
      <set comment="kpoint 117">
       <r>   -2.3859    1.0000 </r>
       <r>    0.2252    1.0000 </r>
       <r>    4.6635    1.0000 </r>
       <r>    4.6762    1.0000 </r>
       <r>    9.5196    0.0000 </r>
       <r>   12.4005    0.0000 </r>
       <r>   21.5548    0.0000 </r>
       <r>   21.8140    0.0000 </r>
      </set>
      <set comment="kpoint 118">
       <r>   -2.3927    1.0000 </r>
       <r>    0.2076    1.0000 </r>
       <r>    4.7295    1.0000 </r>
       <r>    4.7360    1.0000 </r>
       <r>    9.4060    0.0000 </r>
       <r>   12.2969    0.0000 </r>
       <r>   21.6913    0.0000 </r>
       <r>   21.8129    0.0000 </r>
      </set>
      <set comment="kpoint 119">
       <r>   -2.3969    1.0000 </r>
       <r>    0.1969    1.0000 </r>
       <r>    4.7711    1.0000 </r>
       <r>    4.7729    1.0000 </r>
       <r>    9.3359    0.0000 </r>
       <r>   12.2337    0.0000 </r>
       <r>   21.7771    0.0000 </r>
       <r>   21.8051    0.0000 </r>
      </set>
      <set comment="kpoint 120">
       <r>   -2.3983    1.0000 </r>
       <r>    0.1933    1.0000 </r>
       <r>    4.7853    1.0000 </r>
       <r>    4.7853    1.0000 </r>
       <r>    9.3122    0.0000 </r>
       <r>   12.2124    0.0000 </r>
       <r>   21.8037    0.0000 </r>
       <r>   21.8049    0.0000 </r>
      </set>
      <set comment="kpoint 121">
       <r>   -7.3459    1.0000 </r>
       <r>    7.9415    1.0000 </r>
       <r>    7.9415    1.0000 </r>
       <r>    7.9415    1.0000 </r>
       <r>   14.0022    0.0000 </r>
       <r>   15.1469    0.0000 </r>
       <r>   15.1469    0.0000 </r>
       <r>   15.1469    0.0000 </r>
      </set>
      <set comment="kpoint 122">
       <r>   -7.3281    1.0000 </r>
       <r>    7.8820    1.0000 </r>
       <r>    7.9052    1.0000 </r>
       <r>    7.9052    1.0000 </r>
       <r>   14.0570    0.0000 </r>
       <r>   15.0974    0.0000 </r>
       <r>   15.1994    0.0000 </r>
       <r>   15.1994    0.0000 </r>
      </set>
      <set comment="kpoint 123">
       <r>   -7.2745    1.0000 </r>
       <r>    7.7107    1.0000 </r>
       <r>    7.8002    1.0000 </r>
       <r>    7.8002    1.0000 </r>
       <r>   14.2052    0.0000 </r>
       <r>   14.9596    0.0000 </r>
       <r>   15.3527    0.0000 </r>
       <r>   15.3527    0.0000 </r>
      </set>
      <set comment="kpoint 124">
       <r>   -7.1853    1.0000 </r>
       <r>    7.4458    1.0000 </r>
       <r>    7.6367    1.0000 </r>
       <r>    7.6367    1.0000 </r>
       <r>   14.3699    0.0000 </r>
       <r>   14.7941    0.0000 </r>
       <r>   15.5959    0.0000 </r>
       <r>   15.5959    0.0000 </r>
      </set>
      <set comment="kpoint 125">
       <r>   -7.0608    1.0000 </r>
       <r>    7.1089    1.0000 </r>
       <r>    7.4282    1.0000 </r>
       <r>    7.4282    1.0000 </r>
       <r>   14.2721    0.0000 </r>
       <r>   14.8513    0.0000 </r>
       <r>   15.9143    0.0000 </r>
       <r>   15.9143    0.0000 </r>
      </set>
      <set comment="kpoint 126">
       <r>   -6.9013    1.0000 </r>
       <r>    6.7187    1.0000 </r>
       <r>    7.1889    1.0000 </r>
       <r>    7.1889    1.0000 </r>
       <r>   13.9454    0.0000 </r>
       <r>   15.0494    0.0000 </r>
       <r>   16.2923    0.0000 </r>
       <r>   16.2923    0.0000 </r>
      </set>
      <set comment="kpoint 127">
       <r>   -6.7073    1.0000 </r>
       <r>    6.2897    1.0000 </r>
       <r>    6.9317    1.0000 </r>
       <r>    6.9317    1.0000 </r>
       <r>   13.5492    0.0000 </r>
       <r>   15.1549    0.0000 </r>
       <r>   16.7155    0.0000 </r>
       <r>   16.7155    0.0000 </r>
      </set>
      <set comment="kpoint 128">
       <r>   -6.4794    1.0000 </r>
       <r>    5.8316    1.0000 </r>
       <r>    6.6673    1.0000 </r>
       <r>    6.6673    1.0000 </r>
       <r>   13.1157    0.0000 </r>
       <r>   15.0680    0.0000 </r>
       <r>   17.1713    0.0000 </r>
       <r>   17.1713    0.0000 </r>
      </set>
      <set comment="kpoint 129">
       <r>   -6.2185    1.0000 </r>
       <r>    5.3505    1.0000 </r>
       <r>    6.4043    1.0000 </r>
       <r>    6.4043    1.0000 </r>
       <r>   12.6584    0.0000 </r>
       <r>   14.7928    0.0000 </r>
       <r>   17.6493    0.0000 </r>
       <r>   17.6493    0.0000 </r>
      </set>
      <set comment="kpoint 130">
       <r>   -5.9256    1.0000 </r>
       <r>    4.8504    1.0000 </r>
       <r>    6.1495    1.0000 </r>
       <r>    6.1495    1.0000 </r>
       <r>   12.1885    0.0000 </r>
       <r>   14.4158    0.0000 </r>
       <r>   18.1407    0.0000 </r>
       <r>   18.1408    0.0000 </r>
      </set>
      <set comment="kpoint 131">
       <r>   -5.6020    1.0000 </r>
       <r>    4.3339    1.0000 </r>
       <r>    5.9081    1.0000 </r>
       <r>    5.9081    1.0000 </r>
       <r>   11.7182    0.0000 </r>
       <r>   14.0165    0.0000 </r>
       <r>   18.6380    0.0000 </r>
       <r>   18.6380    0.0000 </r>
      </set>
      <set comment="kpoint 132">
       <r>   -5.2496    1.0000 </r>
       <r>    3.8032    1.0000 </r>
       <r>    5.6843    1.0000 </r>
       <r>    5.6843    1.0000 </r>
       <r>   11.2616    0.0000 </r>
       <r>   13.6384    0.0000 </r>
       <r>   19.1344    0.0000 </r>
       <r>   19.1345    0.0000 </r>
      </set>
      <set comment="kpoint 133">
       <r>   -4.8708    1.0000 </r>
       <r>    3.2613    1.0000 </r>
       <r>    5.4811    1.0000 </r>
       <r>    5.4811    1.0000 </r>
       <r>   10.8328    0.0000 </r>
       <r>   13.3000    0.0000 </r>
       <r>   19.6226    0.0000 </r>
       <r>   19.6227    0.0000 </r>
      </set>
      <set comment="kpoint 134">
       <r>   -4.4692    1.0000 </r>
       <r>    2.7125    1.0000 </r>
       <r>    5.3011    1.0000 </r>
       <r>    5.3011    1.0000 </r>
       <r>   10.4442    0.0000 </r>
       <r>   13.0074    0.0000 </r>
       <r>   20.0947    0.0000 </r>
       <r>   20.0973    0.0000 </r>
      </set>
      <set comment="kpoint 135">
       <r>   -4.0500    1.0000 </r>
       <r>    2.1635    1.0000 </r>
       <r>    5.1461    1.0000 </r>
       <r>    5.1461    1.0000 </r>
       <r>   10.1053    0.0000 </r>
       <r>   12.7618    0.0000 </r>
       <r>   20.5403    0.0000 </r>
       <r>   20.5424    0.0000 </r>
      </set>
      <set comment="kpoint 136">
       <r>   -3.6217    1.0000 </r>
       <r>    1.6247    1.0000 </r>
       <r>    5.0175    1.0000 </r>
       <r>    5.0175    1.0000 </r>
       <r>    9.8226    0.0000 </r>
       <r>   12.5626    0.0000 </r>
       <r>   20.9463    0.0000 </r>
       <r>   20.9465    0.0000 </r>
      </set>
      <set comment="kpoint 137">
       <r>   -3.1993    1.0000 </r>
       <r>    1.1134    1.0000 </r>
       <r>    4.9165    1.0000 </r>
       <r>    4.9165    1.0000 </r>
       <r>    9.6003    0.0000 </r>
       <r>   12.4088    0.0000 </r>
       <r>   21.2958    0.0000 </r>
       <r>   21.3001    0.0000 </r>
      </set>
      <set comment="kpoint 138">
       <r>   -2.8117    1.0000 </r>
       <r>    0.6604    1.0000 </r>
       <r>    4.8438    1.0000 </r>
       <r>    4.8438    1.0000 </r>
       <r>    9.4405    0.0000 </r>
       <r>   12.2995    0.0000 </r>
       <r>   21.5685    0.0000 </r>
       <r>   21.5692    0.0000 </r>
      </set>
      <set comment="kpoint 139">
       <r>   -2.5152    1.0000 </r>
       <r>    0.3238    1.0000 </r>
       <r>    4.8000    1.0000 </r>
       <r>    4.8000    1.0000 </r>
       <r>    9.3443    0.0000 </r>
       <r>   12.2342    0.0000 </r>
       <r>   21.7435    0.0000 </r>
       <r>   21.7611    0.0000 </r>
      </set>
      <set comment="kpoint 140">
       <r>   -2.3983    1.0000 </r>
       <r>    0.1933    1.0000 </r>
       <r>    4.7853    1.0000 </r>
       <r>    4.7853    1.0000 </r>
       <r>    9.3122    0.0000 </r>
       <r>   12.2124    0.0000 </r>
       <r>   21.8037    0.0000 </r>
       <r>   21.8039    0.0000 </r>
      </set>
      <set comment="kpoint 141">
       <r>   -2.3983    1.0000 </r>
       <r>    0.1933    1.0000 </r>
       <r>    4.7853    1.0000 </r>
       <r>    4.7853    1.0000 </r>
       <r>    9.3122    0.0000 </r>
       <r>   12.2124    0.0000 </r>
       <r>   21.8037    0.0000 </r>
       <r>   21.8264    0.0000 </r>
      </set>
      <set comment="kpoint 142">
       <r>   -2.3976    1.0000 </r>
       <r>    0.1951    1.0000 </r>
       <r>    4.7703    1.0000 </r>
       <r>    4.7870    1.0000 </r>
       <r>    9.3240    0.0000 </r>
       <r>   12.2231    0.0000 </r>
       <r>   21.7960    0.0000 </r>
       <r>   21.7983    0.0000 </r>
      </set>
      <set comment="kpoint 143">
       <r>   -2.3955    1.0000 </r>
       <r>    0.2005    1.0000 </r>
       <r>    4.7260    1.0000 </r>
       <r>    4.7921    1.0000 </r>
       <r>    9.3588    0.0000 </r>
       <r>   12.2551    0.0000 </r>
       <r>   21.7778    0.0000 </r>
       <r>   21.7827    0.0000 </r>
      </set>
      <set comment="kpoint 144">
       <r>   -2.3921    1.0000 </r>
       <r>    0.2093    1.0000 </r>
       <r>    4.6544    1.0000 </r>
       <r>    4.8005    1.0000 </r>
       <r>    9.4142    0.0000 </r>
       <r>   12.3086    0.0000 </r>
       <r>   21.7315    0.0000 </r>
       <r>   21.7555    0.0000 </r>
      </set>
      <set comment="kpoint 145">
       <r>   -2.3875    1.0000 </r>
       <r>    0.2217    1.0000 </r>
       <r>    4.5587    1.0000 </r>
       <r>    4.8123    1.0000 </r>
       <r>    9.4871    0.0000 </r>
       <r>   12.3838    0.0000 </r>
       <r>   21.6796    0.0000 </r>
       <r>   21.7186    0.0000 </r>
      </set>
      <set comment="kpoint 146">
       <r>   -2.3819    1.0000 </r>
       <r>    0.2374    1.0000 </r>
       <r>    4.4425    1.0000 </r>
       <r>    4.8274    1.0000 </r>
       <r>    9.5737    0.0000 </r>
       <r>   12.4810    0.0000 </r>
       <r>   21.6068    0.0000 </r>
       <r>   21.6692    0.0000 </r>
      </set>
      <set comment="kpoint 147">
       <r>   -2.3753    1.0000 </r>
       <r>    0.2565    1.0000 </r>
       <r>    4.3096    1.0000 </r>
       <r>    4.8459    1.0000 </r>
       <r>    9.6702    0.0000 </r>
       <r>   12.6001    0.0000 </r>
       <r>   21.5224    0.0000 </r>
       <r>   21.6144    0.0000 </r>
      </set>
      <set comment="kpoint 148">
       <r>   -2.3680    1.0000 </r>
       <r>    0.2788    1.0000 </r>
       <r>    4.1639    1.0000 </r>
       <r>    4.8676    1.0000 </r>
       <r>    9.7732    0.0000 </r>
       <r>   12.7410    0.0000 </r>
       <r>   21.4263    0.0000 </r>
       <r>   21.5453    0.0000 </r>
      </set>
      <set comment="kpoint 149">
       <r>   -2.3605    1.0000 </r>
       <r>    0.3042    1.0000 </r>
       <r>    4.0090    1.0000 </r>
       <r>    4.8927    1.0000 </r>
       <r>    9.8797    0.0000 </r>
       <r>   12.9031    0.0000 </r>
       <r>   21.3191    0.0000 </r>
       <r>   21.4715    0.0000 </r>
      </set>
      <set comment="kpoint 150">
       <r>   -2.3529    1.0000 </r>
       <r>    0.3325    1.0000 </r>
       <r>    3.8480    1.0000 </r>
       <r>    4.9209    1.0000 </r>
       <r>    9.9878    0.0000 </r>
       <r>   13.0856    0.0000 </r>
       <r>   21.2003    0.0000 </r>
       <r>   21.3877    0.0000 </r>
      </set>
      <set comment="kpoint 151">
       <r>   -2.3457    1.0000 </r>
       <r>    0.3635    1.0000 </r>
       <r>    3.6840    1.0000 </r>
       <r>    4.9524    1.0000 </r>
       <r>   10.0958    0.0000 </r>
       <r>   13.2871    0.0000 </r>
       <r>   21.0716    0.0000 </r>
       <r>   21.2984    0.0000 </r>
      </set>
      <set comment="kpoint 152">
       <r>   -2.3393    1.0000 </r>
       <r>    0.3969    1.0000 </r>
       <r>    3.5196    1.0000 </r>
       <r>    4.9869    1.0000 </r>
       <r>   10.2030    0.0000 </r>
       <r>   13.5060    0.0000 </r>
       <r>   20.9350    0.0000 </r>
       <r>   21.2094    0.0000 </r>
      </set>
      <set comment="kpoint 153">
       <r>   -2.3344    1.0000 </r>
       <r>    0.4324    1.0000 </r>
       <r>    3.3574    1.0000 </r>
       <r>    5.0247    1.0000 </r>
       <r>   10.3090    0.0000 </r>
       <r>   13.7405    0.0000 </r>
       <r>   20.7919    0.0000 </r>
       <r>   21.0993    0.0000 </r>
      </set>
      <set comment="kpoint 154">
       <r>   -2.3316    1.0000 </r>
       <r>    0.4698    1.0000 </r>
       <r>    3.1998    1.0000 </r>
       <r>    5.0654    1.0000 </r>
       <r>   10.4138    0.0000 </r>
       <r>   13.9885    0.0000 </r>
       <r>   20.6413    0.0000 </r>
       <r>   20.9899    0.0000 </r>
      </set>
      <set comment="kpoint 155">
       <r>   -2.3315    1.0000 </r>
       <r>    0.5085    1.0000 </r>
       <r>    3.0490    1.0000 </r>
       <r>    5.1091    1.0000 </r>
       <r>   10.5177    0.0000 </r>
       <r>   14.2477    0.0000 </r>
       <r>   20.4864    0.0000 </r>
       <r>   20.8782    0.0000 </r>
      </set>
      <set comment="kpoint 156">
       <r>   -2.3350    1.0000 </r>
       <r>    0.5481    1.0000 </r>
       <r>    2.9073    1.0000 </r>
       <r>    5.1558    1.0000 </r>
       <r>   10.6210    0.0000 </r>
       <r>   14.5159    0.0000 </r>
       <r>   20.3266    0.0000 </r>
       <r>   20.7585    0.0000 </r>
      </set>
      <set comment="kpoint 157">
       <r>   -2.3430    1.0000 </r>
       <r>    0.5881    1.0000 </r>
       <r>    2.7768    1.0000 </r>
       <r>    5.2053    1.0000 </r>
       <r>   10.7241    0.0000 </r>
       <r>   14.7903    0.0000 </r>
       <r>   20.1643    0.0000 </r>
       <r>   20.6359    0.0000 </r>
      </set>
      <set comment="kpoint 158">
       <r>   -2.3563    1.0000 </r>
       <r>    0.6279    1.0000 </r>
       <r>    2.6597    1.0000 </r>
       <r>    5.2576    1.0000 </r>
       <r>   10.8275    0.0000 </r>
       <r>   15.0685    0.0000 </r>
       <r>   19.9984    0.0000 </r>
       <r>   20.5085    0.0000 </r>
      </set>
      <set comment="kpoint 159">
       <r>   -2.3759    1.0000 </r>
       <r>    0.6671    1.0000 </r>
       <r>    2.5580    1.0000 </r>
       <r>    5.3125    1.0000 </r>
       <r>   10.9316    0.0000 </r>
       <r>   15.3472    0.0000 </r>
       <r>   19.8310    0.0000 </r>
       <r>   20.3769    0.0000 </r>
      </set>
      <set comment="kpoint 160">
       <r>   -2.4027    1.0000 </r>
       <r>    0.7053    1.0000 </r>
       <r>    2.4733    1.0000 </r>
       <r>    5.3700    1.0000 </r>
       <r>   11.0367    0.0000 </r>
       <r>   15.6231    0.0000 </r>
       <r>   19.6627    0.0000 </r>
       <r>   20.2418    0.0000 </r>
      </set>
      <set comment="kpoint 161">
       <r>   -2.4027    1.0000 </r>
       <r>    0.7053    1.0000 </r>
       <r>    2.4733    1.0000 </r>
       <r>    5.3700    1.0000 </r>
       <r>   11.0367    0.0000 </r>
       <r>   15.6231    0.0000 </r>
       <r>   19.6627    0.0000 </r>
       <r>   20.2417    0.0000 </r>
      </set>
      <set comment="kpoint 162">
       <r>   -2.5343    1.0000 </r>
       <r>    0.8132    1.0000 </r>
       <r>    2.3340    1.0000 </r>
       <r>    5.5571    1.0000 </r>
       <r>   11.3615    0.0000 </r>
       <r>   16.3923    0.0000 </r>
       <r>   19.1574    0.0000 </r>
       <r>   19.8179    0.0000 </r>
      </set>
      <set comment="kpoint 163">
       <r>   -2.7518    1.0000 </r>
       <r>    0.9257    1.0000 </r>
       <r>    2.3661    1.0000 </r>
       <r>    5.7632    1.0000 </r>
       <r>   11.7048    0.0000 </r>
       <r>   16.9621    0.0000 </r>
       <r>   18.6627    0.0000 </r>
       <r>   19.3812    0.0000 </r>
      </set>
      <set comment="kpoint 164">
       <r>   -3.0509    1.0000 </r>
       <r>    1.0758    1.0000 </r>
       <r>    2.5366    1.0000 </r>
       <r>    5.9846    1.0000 </r>
       <r>   12.0695    0.0000 </r>
       <r>   17.2131    0.0000 </r>
       <r>   18.1908    0.0000 </r>
       <r>   18.9487    0.0000 </r>
      </set>
      <set comment="kpoint 165">
       <r>   -3.4118    1.0000 </r>
       <r>    1.2875    1.0000 </r>
       <r>    2.8029    1.0000 </r>
       <r>    6.2163    1.0000 </r>
       <r>   12.4557    0.0000 </r>
       <r>   17.1731    0.0000 </r>
       <r>   17.7509    0.0000 </r>
       <r>   18.5320    0.0000 </r>
      </set>
      <set comment="kpoint 166">
       <r>   -3.8097    1.0000 </r>
       <r>    1.5663    1.0000 </r>
       <r>    3.1345    1.0000 </r>
       <r>    6.4529    1.0000 </r>
       <r>   12.8605    0.0000 </r>
       <r>   16.9649    0.0000 </r>
       <r>   17.3502    0.0000 </r>
       <r>   18.1385    0.0000 </r>
      </set>
      <set comment="kpoint 167">
       <r>   -4.2230    1.0000 </r>
       <r>    1.9074    1.0000 </r>
       <r>    3.5126    1.0000 </r>
       <r>    6.6881    1.0000 </r>
       <r>   13.2782    0.0000 </r>
       <r>   16.6826    0.0000 </r>
       <r>   16.9937    0.0000 </r>
       <r>   17.7751    0.0000 </r>
      </set>
      <set comment="kpoint 168">
       <r>   -4.6352    1.0000 </r>
       <r>    2.3032    1.0000 </r>
       <r>    3.9248    1.0000 </r>
       <r>    6.9152    1.0000 </r>
       <r>   13.6988    0.0000 </r>
       <r>   16.3765    0.0000 </r>
       <r>   16.6836    0.0000 </r>
       <r>   17.4490    0.0000 </r>
      </set>
      <set comment="kpoint 169">
       <r>   -5.0347    1.0000 </r>
       <r>    2.7465    1.0000 </r>
       <r>    4.3616    1.0000 </r>
       <r>    7.1274    1.0000 </r>
       <r>   14.1058    0.0000 </r>
       <r>   16.0728    0.0000 </r>
       <r>   16.4190    0.0000 </r>
       <r>   17.1707    0.0000 </r>
      </set>
      <set comment="kpoint 170">
       <r>   -5.4135    1.0000 </r>
       <r>    3.2309    1.0000 </r>
       <r>    4.8143    1.0000 </r>
       <r>    7.3184    1.0000 </r>
       <r>   14.4733    0.0000 </r>
       <r>   15.7859    0.0000 </r>
       <r>   16.1957    0.0000 </r>
       <r>   16.9543    0.0000 </r>
      </set>
      <set comment="kpoint 171">
       <r>   -5.7659    1.0000 </r>
       <r>    3.7505    1.0000 </r>
       <r>    5.2743    1.0000 </r>
       <r>    7.4834    1.0000 </r>
       <r>   14.7651    0.0000 </r>
       <r>   15.5243    0.0000 </r>
       <r>   16.0062    0.0000 </r>
       <r>   16.8156    0.0000 </r>
      </set>
      <set comment="kpoint 172">
       <r>   -6.0880    1.0000 </r>
       <r>    4.2988    1.0000 </r>
       <r>    5.7318    1.0000 </r>
       <r>    7.6195    1.0000 </r>
       <r>   14.9461    0.0000 </r>
       <r>   15.2947    0.0000 </r>
       <r>   15.8420    0.0000 </r>
       <r>   16.7539    0.0000 </r>
      </set>
      <set comment="kpoint 173">
       <r>   -6.3769    1.0000 </r>
       <r>    4.8688    1.0000 </r>
       <r>    6.1761    1.0000 </r>
       <r>    7.7264    1.0000 </r>
       <r>   14.9898    0.0000 </r>
       <r>   15.1249    0.0000 </r>
       <r>   15.6958    0.0000 </r>
       <r>   16.7199    0.0000 </r>
      </set>
      <set comment="kpoint 174">
       <r>   -6.6304    1.0000 </r>
       <r>    5.4512    1.0000 </r>
       <r>    6.5954    1.0000 </r>
       <r>    7.8058    1.0000 </r>
       <r>   14.8634    0.0000 </r>
       <r>   15.0832    0.0000 </r>
       <r>   15.5637    0.0000 </r>
       <r>   16.6220    0.0000 </r>
      </set>
      <set comment="kpoint 175">
       <r>   -6.8471    1.0000 </r>
       <r>    6.0332    1.0000 </r>
       <r>    6.9771    1.0000 </r>
       <r>    7.8616    1.0000 </r>
       <r>   14.7031    0.0000 </r>
       <r>   15.0712    0.0000 </r>
       <r>   15.4455    0.0000 </r>
       <r>   16.3959    0.0000 </r>
      </set>
      <set comment="kpoint 176">
       <r>   -7.0257    1.0000 </r>
       <r>    6.5962    1.0000 </r>
       <r>    7.3088    1.0000 </r>
       <r>    7.8983    1.0000 </r>
       <r>   14.5440    0.0000 </r>
       <r>   15.0713    0.0000 </r>
       <r>   15.3431    0.0000 </r>
       <r>   16.0599    0.0000 </r>
      </set>
      <set comment="kpoint 177">
       <r>   -7.1654    1.0000 </r>
       <r>    7.1129    1.0000 </r>
       <r>    7.5789    1.0000 </r>
       <r>    7.9208    1.0000 </r>
       <r>   14.3794    0.0000 </r>
       <r>   15.0874    0.0000 </r>
       <r>   15.2596    0.0000 </r>
       <r>   15.6950    0.0000 </r>
      </set>
      <set comment="kpoint 178">
       <r>   -7.2656    1.0000 </r>
       <r>    7.5435    1.0000 </r>
       <r>    7.7783    1.0000 </r>
       <r>    7.9335    1.0000 </r>
       <r>   14.2082    0.0000 </r>
       <r>   15.1136    0.0000 </r>
       <r>   15.1977    0.0000 </r>
       <r>   15.3923    0.0000 </r>
      </set>
      <set comment="kpoint 179">
       <r>   -7.3258    1.0000 </r>
       <r>    7.8365    1.0000 </r>
       <r>    7.9004    1.0000 </r>
       <r>    7.9397    1.0000 </r>
       <r>   14.0619    0.0000 </r>
       <r>   15.1374    0.0000 </r>
       <r>   15.1597    0.0000 </r>
       <r>   15.2070    0.0000 </r>
      </set>
      <set comment="kpoint 180">
       <r>   -7.3459    1.0000 </r>
       <r>    7.9415    1.0000 </r>
       <r>    7.9415    1.0000 </r>
       <r>    7.9415    1.0000 </r>
       <r>   14.0022    0.0000 </r>
       <r>   15.1469    0.0000 </r>
       <r>   15.1469    0.0000 </r>
       <r>   15.1469    0.0000 </r>
      </set>
      <set comment="kpoint 181">
       <r>   -7.3459    1.0000 </r>
       <r>    7.9415    1.0000 </r>
       <r>    7.9415    1.0000 </r>
       <r>    7.9415    1.0000 </r>
       <r>   14.0022    0.0000 </r>
       <r>   15.1469    0.0000 </r>
       <r>   15.1469    0.0000 </r>
       <r>   15.1469    0.0000 </r>
      </set>
      <set comment="kpoint 182">
       <r>   -7.3325    1.0000 </r>
       <r>    7.8623    1.0000 </r>
       <r>    7.9316    1.0000 </r>
       <r>    7.9316    1.0000 </r>
       <r>   14.0424    0.0000 </r>
       <r>   15.1516    0.0000 </r>
       <r>   15.1657    0.0000 </r>
       <r>   15.1657    0.0000 </r>
      </set>
      <set comment="kpoint 183">
       <r>   -7.2923    1.0000 </r>
       <r>    7.6347    1.0000 </r>
       <r>    7.9026    1.0000 </r>
       <r>    7.9026    1.0000 </r>
       <r>   14.1421    0.0000 </r>
       <r>   15.1784    0.0000 </r>
       <r>   15.2201    0.0000 </r>
       <r>   15.2201    0.0000 </r>
      </set>
      <set comment="kpoint 184">
       <r>   -7.2255    1.0000 </r>
       <r>    7.2840    1.0000 </r>
       <r>    7.8562    1.0000 </r>
       <r>    7.8562    1.0000 </r>
       <r>   14.2439    0.0000 </r>
       <r>   15.2643    0.0000 </r>
       <r>   15.3047    0.0000 </r>
       <r>   15.3047    0.0000 </r>
      </set>
      <set comment="kpoint 185">
       <r>   -7.1321    1.0000 </r>
       <r>    6.8399    1.0000 </r>
       <r>    7.7949    1.0000 </r>
       <r>    7.7949    1.0000 </r>
       <r>   14.2872    0.0000 </r>
       <r>   15.4103    0.0000 </r>
       <r>   15.4103    0.0000 </r>
       <r>   15.4468    0.0000 </r>
      </set>
      <set comment="kpoint 186">
       <r>   -7.0126    1.0000 </r>
       <r>    6.3293    1.0000 </r>
       <r>    7.7221    1.0000 </r>
       <r>    7.7221    1.0000 </r>
       <r>   14.2588    0.0000 </r>
       <r>   15.5243    0.0000 </r>
       <r>   15.5243    0.0000 </r>
       <r>   15.7197    0.0000 </r>
      </set>
      <set comment="kpoint 187">
       <r>   -6.8673    1.0000 </r>
       <r>    5.7735    1.0000 </r>
       <r>    7.6411    1.0000 </r>
       <r>    7.6411    1.0000 </r>
       <r>   14.1823    0.0000 </r>
       <r>   15.6316    0.0000 </r>
       <r>   15.6316    0.0000 </r>
       <r>   16.0443    0.0000 </r>
      </set>
      <set comment="kpoint 188">
       <r>   -6.6967    1.0000 </r>
       <r>    5.1889    1.0000 </r>
       <r>    7.5551    1.0000 </r>
       <r>    7.5551    1.0000 </r>
       <r>   14.0809    0.0000 </r>
       <r>   15.7163    0.0000 </r>
       <r>   15.7163    0.0000 </r>
       <r>   16.3854    0.0000 </r>
      </set>
      <set comment="kpoint 189">
       <r>   -6.5015    1.0000 </r>
       <r>    4.5878    1.0000 </r>
       <r>    7.4673    1.0000 </r>
       <r>    7.4673    1.0000 </r>
       <r>   13.9691    0.0000 </r>
       <r>   15.7650    0.0000 </r>
       <r>   15.7650    0.0000 </r>
       <r>   16.7183    0.0000 </r>
      </set>
      <set comment="kpoint 190">
       <r>   -6.2828    1.0000 </r>
       <r>    3.9800    1.0000 </r>
       <r>    7.3802    1.0000 </r>
       <r>    7.3802    1.0000 </r>
       <r>   13.8558    0.0000 </r>
       <r>   15.7709    0.0000 </r>
       <r>   15.7709    0.0000 </r>
       <r>   17.0246    0.0000 </r>
      </set>
      <set comment="kpoint 191">
       <r>   -6.0418    1.0000 </r>
       <r>    3.3735    1.0000 </r>
       <r>    7.2963    1.0000 </r>
       <r>    7.2963    1.0000 </r>
       <r>   13.7463    0.0000 </r>
       <r>   15.7353    0.0000 </r>
       <r>   15.7353    0.0000 </r>
       <r>   17.2907    0.0000 </r>
      </set>
      <set comment="kpoint 192">
       <r>   -5.7804    1.0000 </r>
       <r>    2.7750    1.0000 </r>
       <r>    7.2174    1.0000 </r>
       <r>    7.2174    1.0000 </r>
       <r>   13.6443    0.0000 </r>
       <r>   15.6665    0.0000 </r>
       <r>   15.6665    0.0000 </r>
       <r>   17.5074    0.0000 </r>
      </set>
      <set comment="kpoint 193">
       <r>   -5.5010    1.0000 </r>
       <r>    2.1911    1.0000 </r>
       <r>    7.1450    1.0000 </r>
       <r>    7.1450    1.0000 </r>
       <r>   13.5518    0.0000 </r>
       <r>   15.5764    0.0000 </r>
       <r>   15.5764    0.0000 </r>
       <r>   17.6709    0.0000 </r>
      </set>
      <set comment="kpoint 194">
       <r>   -5.2076    1.0000 </r>
       <r>    1.6287    1.0000 </r>
       <r>    7.0803    1.0000 </r>
       <r>    7.0803    1.0000 </r>
       <r>   13.4704    0.0000 </r>
       <r>   15.4768    0.0000 </r>
       <r>   15.4768    0.0000 </r>
       <r>   17.7840    0.0000 </r>
      </set>
      <set comment="kpoint 195">
       <r>   -4.9058    1.0000 </r>
       <r>    1.0958    1.0000 </r>
       <r>    7.0243    1.0000 </r>
       <r>    7.0243    1.0000 </r>
       <r>   13.4009    0.0000 </r>
       <r>   15.3779    0.0000 </r>
       <r>   15.3779    0.0000 </r>
       <r>   17.8540    0.0000 </r>
      </set>
      <set comment="kpoint 196">
       <r>   -4.6047    1.0000 </r>
       <r>    0.6034    1.0000 </r>
       <r>    6.9777    1.0000 </r>
       <r>    6.9777    1.0000 </r>
       <r>   13.3438    0.0000 </r>
       <r>   15.2877    0.0000 </r>
       <r>   15.2877    0.0000 </r>
       <r>   17.8921    0.0000 </r>
      </set>
      <set comment="kpoint 197">
       <r>   -4.3191    1.0000 </r>
       <r>    0.1676    1.0000 </r>
       <r>    6.9410    1.0000 </r>
       <r>    6.9410    1.0000 </r>
       <r>   13.2992    0.0000 </r>
       <r>   15.2123    0.0000 </r>
       <r>   15.2123    0.0000 </r>
       <r>   17.9090    0.0000 </r>
      </set>
      <set comment="kpoint 198">
       <r>   -4.0723    1.0000 </r>
       <r>   -0.1872    1.0000 </r>
       <r>    6.9145    1.0000 </r>
       <r>    6.9145    1.0000 </r>
       <r>   13.2674    0.0000 </r>
       <r>   15.1557    0.0000 </r>
       <r>   15.1557    0.0000 </r>
       <r>   17.9140    0.0000 </r>
      </set>
      <set comment="kpoint 199">
       <r>   -3.8983    1.0000 </r>
       <r>   -0.4262    1.0000 </r>
       <r>    6.8985    1.0000 </r>
       <r>    6.8985    1.0000 </r>
       <r>   13.2484    0.0000 </r>
       <r>   15.1207    0.0000 </r>
       <r>   15.1207    0.0000 </r>
       <r>   17.9142    0.0000 </r>
      </set>
      <set comment="kpoint 200">
       <r>   -3.8345    1.0000 </r>
       <r>   -0.5117    1.0000 </r>
       <r>    6.8932    1.0000 </r>
       <r>    6.8932    1.0000 </r>
       <r>   13.2420    0.0000 </r>
       <r>   15.1088    0.0000 </r>
       <r>   15.1088    0.0000 </r>
       <r>   17.9139    0.0000 </r>
      </set>
      <set comment="kpoint 201">
       <r>   -3.8345    1.0000 </r>
       <r>   -0.5117    1.0000 </r>
       <r>    6.8932    1.0000 </r>
       <r>    6.8932    1.0000 </r>
       <r>   13.2420    0.0000 </r>
       <r>   15.1088    0.0000 </r>
       <r>   15.1088    0.0000 </r>
       <r>   17.9139    0.0000 </r>
      </set>
      <set comment="kpoint 202">
       <r>   -3.8270    1.0000 </r>
       <r>   -0.5036    1.0000 </r>
       <r>    6.8445    1.0000 </r>
       <r>    6.8805    1.0000 </r>
       <r>   13.2755    0.0000 </r>
       <r>   15.0617    0.0000 </r>
       <r>   15.1379    0.0000 </r>
       <r>   17.9699    0.0000 </r>
      </set>
      <set comment="kpoint 203">
       <r>   -3.8045    1.0000 </r>
       <r>   -0.4792    1.0000 </r>
       <r>    6.7038    1.0000 </r>
       <r>    6.8423    1.0000 </r>
       <r>   13.3648    0.0000 </r>
       <r>   14.9394    0.0000 </r>
       <r>   15.2281    0.0000 </r>
       <r>   18.1197    0.0000 </r>
      </set>
      <set comment="kpoint 204">
       <r>   -3.7672    1.0000 </r>
       <r>   -0.4387    1.0000 </r>
       <r>    6.4850    1.0000 </r>
       <r>    6.7780    1.0000 </r>
       <r>   13.4778    0.0000 </r>
       <r>   14.7870    0.0000 </r>
       <r>   15.3869    0.0000 </r>
       <r>   18.3219    0.0000 </r>
      </set>
      <set comment="kpoint 205">
       <r>   -3.7153    1.0000 </r>
       <r>   -0.3824    1.0000 </r>
       <r>    6.2057    1.0000 </r>
       <r>    6.6869    1.0000 </r>
       <r>   13.5661    0.0000 </r>
       <r>   14.6596    0.0000 </r>
       <r>   15.6228    0.0000 </r>
       <r>   18.5331    0.0000 </r>
      </set>
      <set comment="kpoint 206">
       <r>   -3.6492    1.0000 </r>
       <r>   -0.3106    1.0000 </r>
       <r>    5.8836    1.0000 </r>
       <r>    6.5683    1.0000 </r>
       <r>   13.5822    0.0000 </r>
       <r>   14.6075    0.0000 </r>
       <r>   15.9388    0.0000 </r>
       <r>   18.7172    0.0000 </r>
      </set>
      <set comment="kpoint 207">
       <r>   -3.5694    1.0000 </r>
       <r>   -0.2239    1.0000 </r>
       <r>    5.5341    1.0000 </r>
       <r>    6.4220    1.0000 </r>
       <r>   13.5182    0.0000 </r>
       <r>   14.6444    0.0000 </r>
       <r>   16.3277    0.0000 </r>
       <r>   18.8482    0.0000 </r>
      </set>
      <set comment="kpoint 208">
       <r>   -3.4765    1.0000 </r>
       <r>   -0.1232    1.0000 </r>
       <r>    5.1696    1.0000 </r>
       <r>    6.2483    1.0000 </r>
       <r>   13.4111    0.0000 </r>
       <r>   14.7432    0.0000 </r>
       <r>   16.7734    0.0000 </r>
       <r>   18.9121    0.0000 </r>
      </set>
      <set comment="kpoint 209">
       <r>   -3.3714    1.0000 </r>
       <r>   -0.0095    1.0000 </r>
       <r>    4.8007    1.0000 </r>
       <r>    6.0484    1.0000 </r>
       <r>   13.2981    0.0000 </r>
       <r>   14.8763    0.0000 </r>
       <r>   17.2541    0.0000 </r>
       <r>   18.9082    0.0000 </r>
      </set>
      <set comment="kpoint 210">
       <r>   -3.2553    1.0000 </r>
       <r>    0.1155    1.0000 </r>
       <r>    4.4360    1.0000 </r>
       <r>    5.8247    1.0000 </r>
       <r>   13.1994    0.0000 </r>
       <r>   15.0306    0.0000 </r>
       <r>   17.7395    0.0000 </r>
       <r>   18.8520    0.0000 </r>
      </set>
      <set comment="kpoint 211">
       <r>   -3.1297    1.0000 </r>
       <r>    0.2496    1.0000 </r>
       <r>    4.0838    1.0000 </r>
       <r>    5.5802    1.0000 </r>
       <r>   13.1237    0.0000 </r>
       <r>   15.2013    0.0000 </r>
       <r>   18.1620    0.0000 </r>
       <r>   18.7967    0.0000 </r>
      </set>
      <set comment="kpoint 212">
       <r>   -2.9965    1.0000 </r>
       <r>    0.3894    1.0000 </r>
       <r>    3.7522    1.0000 </r>
       <r>    5.3188    1.0000 </r>
       <r>   13.0729    0.0000 </r>
       <r>   15.3867    0.0000 </r>
       <r>   18.3206    0.0000 </r>
       <r>   18.9119    0.0000 </r>
      </set>
      <set comment="kpoint 213">
       <r>   -2.8583    1.0000 </r>
       <r>    0.5301    1.0000 </r>
       <r>    3.4505    1.0000 </r>
       <r>    5.0448    1.0000 </r>
       <r>   13.0457    0.0000 </r>
       <r>   15.5862    0.0000 </r>
       <r>   18.2162    0.0000 </r>
       <r>   19.1161    0.0000 </r>
      </set>
      <set comment="kpoint 214">
       <r>   -2.7187    1.0000 </r>
       <r>    0.6642    1.0000 </r>
       <r>    3.1904    1.0000 </r>
       <r>    4.7627    1.0000 </r>
       <r>   13.0387    0.0000 </r>
       <r>   15.7996    0.0000 </r>
       <r>   18.0471    0.0000 </r>
       <r>   19.1188    0.0000 </r>
      </set>
      <set comment="kpoint 215">
       <r>   -2.5819    1.0000 </r>
       <r>    0.7817    1.0000 </r>
       <r>    2.9862    1.0000 </r>
       <r>    4.4776    1.0000 </r>
       <r>   13.0471    0.0000 </r>
       <r>   16.0264    0.0000 </r>
       <r>   17.8701    0.0000 </r>
       <r>   18.9279    0.0000 </r>
      </set>
      <set comment="kpoint 216">
       <r>   -2.4537    1.0000 </r>
       <r>    0.8710    1.0000 </r>
       <r>    2.8541    1.0000 </r>
       <r>    4.1945    1.0000 </r>
       <r>   13.0654    0.0000 </r>
       <r>   16.2662    0.0000 </r>
       <r>   17.7048    0.0000 </r>
       <r>   18.6533    0.0000 </r>
      </set>
      <set comment="kpoint 217">
       <r>   -2.3411    1.0000 </r>
       <r>    0.9241    1.0000 </r>
       <r>    2.8065    1.0000 </r>
       <r>    3.9194    1.0000 </r>
       <r>   13.0879    0.0000 </r>
       <r>   16.5174    0.0000 </r>
       <r>   17.5629    0.0000 </r>
       <r>   18.3530    0.0000 </r>
      </set>
      <set comment="kpoint 218">
       <r>   -2.2521    1.0000 </r>
       <r>    0.9439    1.0000 </r>
       <r>    2.8427    1.0000 </r>
       <r>    3.6604    1.0000 </r>
       <r>   13.1088    0.0000 </r>
       <r>   16.7771    0.0000 </r>
       <r>   17.4514    0.0000 </r>
       <r>   18.0536    0.0000 </r>
      </set>
      <set comment="kpoint 219">
       <r>   -2.1946    1.0000 </r>
       <r>    0.9449    1.0000 </r>
       <r>    2.9417    1.0000 </r>
       <r>    3.4340    1.0000 </r>
       <r>   13.1236    0.0000 </r>
       <r>   17.0356    0.0000 </r>
       <r>   17.3674    0.0000 </r>
       <r>   17.7834    0.0000 </r>
      </set>
      <set comment="kpoint 220">
       <r>   -2.1746    1.0000 </r>
       <r>    0.9430    1.0000 </r>
       <r>    3.0215    1.0000 </r>
       <r>    3.3130    1.0000 </r>
       <r>   13.1289    0.0000 </r>
       <r>   17.2424    0.0000 </r>
       <r>   17.2667    0.0000 </r>
       <r>   17.6444    0.0000 </r>
      </set>
      <set comment="kpoint 221">
       <r>   -2.1746    1.0000 </r>
       <r>    0.9430    1.0000 </r>
       <r>    3.0215    1.0000 </r>
       <r>    3.3130    1.0000 </r>
       <r>   13.1289    0.0000 </r>
       <r>   17.2424    0.0000 </r>
       <r>   17.2667    0.0000 </r>
       <r>   17.6444    0.0000 </r>
      </set>
      <set comment="kpoint 222">
       <r>   -2.1763    1.0000 </r>
       <r>    0.9347    1.0000 </r>
       <r>    3.0353    1.0000 </r>
       <r>    3.3208    1.0000 </r>
       <r>   13.0875    0.0000 </r>
       <r>   16.9869    0.0000 </r>
       <r>   17.3126    0.0000 </r>
       <r>   17.9021    0.0000 </r>
      </set>
      <set comment="kpoint 223">
       <r>   -2.1813    1.0000 </r>
       <r>    0.9108    1.0000 </r>
       <r>    3.0759    1.0000 </r>
       <r>    3.3442    1.0000 </r>
       <r>   12.9689    0.0000 </r>
       <r>   16.6031    0.0000 </r>
       <r>   17.4447    0.0000 </r>
       <r>   18.2921    0.0000 </r>
      </set>
      <set comment="kpoint 224">
       <r>   -2.1894    1.0000 </r>
       <r>    0.8733    1.0000 </r>
       <r>    3.1409    1.0000 </r>
       <r>    3.3829    1.0000 </r>
       <r>   12.7867    0.0000 </r>
       <r>   16.2108    0.0000 </r>
       <r>   17.6489    0.0000 </r>
       <r>   18.6944    0.0000 </r>
      </set>
      <set comment="kpoint 225">
       <r>   -2.2003    1.0000 </r>
       <r>    0.8250    1.0000 </r>
       <r>    3.2270    1.0000 </r>
       <r>    3.4362    1.0000 </r>
       <r>   12.5576    0.0000 </r>
       <r>   15.8220    0.0000 </r>
       <r>   17.9083    0.0000 </r>
       <r>   19.0958    0.0000 </r>
      </set>
      <set comment="kpoint 226">
       <r>   -2.2137    1.0000 </r>
       <r>    0.7693    1.0000 </r>
       <r>    3.3305    1.0000 </r>
       <r>    3.5033    1.0000 </r>
       <r>   12.2965    0.0000 </r>
       <r>   15.4407    0.0000 </r>
       <r>   18.2075    0.0000 </r>
       <r>   19.4915    0.0000 </r>
      </set>
      <set comment="kpoint 227">
       <r>   -2.2291    1.0000 </r>
       <r>    0.7089    1.0000 </r>
       <r>    3.4479    1.0000 </r>
       <r>    3.5833    1.0000 </r>
       <r>   12.0155    0.0000 </r>
       <r>   15.0694    0.0000 </r>
       <r>   18.5335    0.0000 </r>
       <r>   19.8773    0.0000 </r>
      </set>
      <set comment="kpoint 228">
       <r>   -2.2460    1.0000 </r>
       <r>    0.6463    1.0000 </r>
       <r>    3.5757    1.0000 </r>
       <r>    3.6749    1.0000 </r>
       <r>   11.7238    0.0000 </r>
       <r>   14.7101    0.0000 </r>
       <r>   18.8760    0.0000 </r>
       <r>   20.2491    0.0000 </r>
      </set>
      <set comment="kpoint 229">
       <r>   -2.2640    1.0000 </r>
       <r>    0.5838    1.0000 </r>
       <r>    3.7105    1.0000 </r>
       <r>    3.7766    1.0000 </r>
       <r>   11.4285    0.0000 </r>
       <r>   14.3649    0.0000 </r>
       <r>   19.2269    0.0000 </r>
       <r>   20.6029    0.0000 </r>
      </set>
      <set comment="kpoint 230">
       <r>   -2.2824    1.0000 </r>
       <r>    0.5229    1.0000 </r>
       <r>    3.8493    1.0000 </r>
       <r>    3.8867    1.0000 </r>
       <r>   11.1354    0.0000 </r>
       <r>   14.0360    0.0000 </r>
       <r>   19.5791    0.0000 </r>
       <r>   20.9346    0.0000 </r>
      </set>
      <set comment="kpoint 231">
       <r>   -2.3008    1.0000 </r>
       <r>    0.4650    1.0000 </r>
       <r>    3.9892    1.0000 </r>
       <r>    4.0030    1.0000 </r>
       <r>   10.8492    0.0000 </r>
       <r>   13.7255    0.0000 </r>
       <r>   19.9261    0.0000 </r>
       <r>   21.2410    0.0000 </r>
      </set>
      <set comment="kpoint 232">
       <r>   -2.3187    1.0000 </r>
       <r>    0.4111    1.0000 </r>
       <r>    4.1232    1.0000 </r>
       <r>    4.1270    1.0000 </r>
       <r>   10.5742    0.0000 </r>
       <r>   13.4359    0.0000 </r>
       <r>   20.2619    0.0000 </r>
       <r>   21.5205    0.0000 </r>
      </set>
      <set comment="kpoint 233">
       <r>   -2.3356    1.0000 </r>
       <r>    0.3621    1.0000 </r>
       <r>    4.2443    1.0000 </r>
       <r>    4.2598    1.0000 </r>
       <r>   10.3146    0.0000 </r>
       <r>   13.1699    0.0000 </r>
       <r>   20.5804    0.0000 </r>
       <r>   21.7513    0.0000 </r>
      </set>
      <set comment="kpoint 234">
       <r>   -2.3511    1.0000 </r>
       <r>    0.3185    1.0000 </r>
       <r>    4.3631    1.0000 </r>
       <r>    4.3844    1.0000 </r>
       <r>   10.0747    0.0000 </r>
       <r>   12.9303    0.0000 </r>
       <r>   20.8754    0.0000 </r>
       <r>   21.8367    0.0000 </r>
      </set>
      <set comment="kpoint 235">
       <r>   -2.3649    1.0000 </r>
       <r>    0.2810    1.0000 </r>
       <r>    4.4755    1.0000 </r>
       <r>    4.4975    1.0000 </r>
       <r>    9.8589    0.0000 </r>
       <r>   12.7202    0.0000 </r>
       <r>   21.1404    0.0000 </r>
       <r>   21.8357    0.0000 </r>
      </set>
      <set comment="kpoint 236">
       <r>   -2.3766    1.0000 </r>
       <r>    0.2498    1.0000 </r>
       <r>    4.5773    1.0000 </r>
       <r>    4.5958    1.0000 </r>
       <r>    9.6722    0.0000 </r>
       <r>   12.5426    0.0000 </r>
       <r>   21.3692    0.0000 </r>
       <r>   21.8216    0.0000 </r>
      </set>
      <set comment="kpoint 237">
       <r>   -2.3859    1.0000 </r>
       <r>    0.2252    1.0000 </r>
       <r>    4.6635    1.0000 </r>
       <r>    4.6762    1.0000 </r>
       <r>    9.5196    0.0000 </r>
       <r>   12.4005    0.0000 </r>
       <r>   21.5541    0.0000 </r>
       <r>   21.8160    0.0000 </r>
      </set>
      <set comment="kpoint 238">
       <r>   -2.3927    1.0000 </r>
       <r>    0.2076    1.0000 </r>
       <r>    4.7295    1.0000 </r>
       <r>    4.7360    1.0000 </r>
       <r>    9.4060    0.0000 </r>
       <r>   12.2969    0.0000 </r>
       <r>   21.6940    0.0000 </r>
       <r>   21.8103    0.0000 </r>
      </set>
      <set comment="kpoint 239">
       <r>   -2.3969    1.0000 </r>
       <r>    0.1969    1.0000 </r>
       <r>    4.7711    1.0000 </r>
       <r>    4.7729    1.0000 </r>
       <r>    9.3359    0.0000 </r>
       <r>   12.2337    0.0000 </r>
       <r>   21.7758    0.0000 </r>
       <r>   21.8134    0.0000 </r>
      </set>
      <set comment="kpoint 240">
       <r>   -2.3983    1.0000 </r>
       <r>    0.1933    1.0000 </r>
       <r>    4.7853    1.0000 </r>
       <r>    4.7853    1.0000 </r>
       <r>    9.3122    0.0000 </r>
       <r>   12.2124    0.0000 </r>
       <r>   21.8037    0.0000 </r>
       <r>   21.8138    0.0000 </r>
      </set>
     </set>
    </set>
   </array>
  </eigenvalues>
  <separator name="orbital magnetization" >
   <v name="MAGDIPOLOUT">      0.00000000      0.00000000      0.00000000</v>
  </separator>
  <dos>
   <i name="efermi">      8.43032463 </i>
   <total>
    <array>
     <dimension dim="1">gridpoints</dimension>
     <dimension dim="2">spin</dimension>
     <field>energy</field>
     <field>total</field>
     <field>integrated</field>
     <set>
      <set comment="spin 1">
       <r>    -8.8055     0.0000     0.0000 </r>
       <r>    -8.6984     0.0000     0.0000 </r>
       <r>    -8.5914     0.0000     0.0000 </r>
       <r>    -8.4844     0.0000     0.0000 </r>
       <r>    -8.3773     0.0000     0.0000 </r>
       <r>    -8.2703     0.0000     0.0000 </r>
       <r>    -8.1633     0.0000     0.0000 </r>
       <r>    -8.0562     0.0000     0.0000 </r>
       <r>    -7.9492     0.0000     0.0000 </r>
       <r>    -7.8422     0.0000     0.0000 </r>
       <r>    -7.7351     0.0000     0.0000 </r>
       <r>    -7.6281     0.0000     0.0000 </r>
       <r>    -7.5211     0.0048     0.0005 </r>
       <r>    -7.4140     0.1408     0.0156 </r>
       <r>    -7.3070     0.6650     0.0868 </r>
       <r>    -7.2000     0.7458     0.1666 </r>
       <r>    -7.0929     0.4745     0.2174 </r>
       <r>    -6.9859     0.3632     0.2563 </r>
       <r>    -6.8789     0.3068     0.2891 </r>
       <r>    -6.7718     0.2703     0.3180 </r>
       <r>    -6.6648     0.2553     0.3453 </r>
       <r>    -6.5578     0.2238     0.3693 </r>
       <r>    -6.4507     0.2202     0.3929 </r>
       <r>    -6.3437     0.2025     0.4146 </r>
       <r>    -6.2367     0.1970     0.4356 </r>
       <r>    -6.1296     0.1758     0.4545 </r>
       <r>    -6.0226     0.1938     0.4752 </r>
       <r>    -5.9156     0.1627     0.4926 </r>
       <r>    -5.8085     0.1579     0.5095 </r>
       <r>    -5.7015     0.1864     0.5295 </r>
       <r>    -5.5945     0.1341     0.5438 </r>
       <r>    -5.4874     0.1624     0.5612 </r>
       <r>    -5.3804     0.1561     0.5779 </r>
       <r>    -5.2734     0.1317     0.5920 </r>
       <r>    -5.1663     0.1731     0.6105 </r>
       <r>    -5.0593     0.1136     0.6227 </r>
       <r>    -4.9523     0.1397     0.6376 </r>
       <r>    -4.8452     0.1846     0.6574 </r>
       <r>    -4.7382     0.0964     0.6677 </r>
       <r>    -4.6312     0.1284     0.6815 </r>
       <r>    -4.5241     0.1787     0.7006 </r>
       <r>    -4.4171     0.1269     0.7142 </r>
       <r>    -4.3101     0.1242     0.7275 </r>
       <r>    -4.2030     0.1495     0.7435 </r>
       <r>    -4.0960     0.1532     0.7599 </r>
       <r>    -3.9890     0.1939     0.7806 </r>
       <r>    -3.8819     0.2828     0.8109 </r>
       <r>    -3.7749     0.5822     0.8732 </r>
       <r>    -3.6678     0.4570     0.9221 </r>
       <r>    -3.5608     0.3179     0.9561 </r>
       <r>    -3.4538     0.2484     0.9827 </r>
       <r>    -3.3467     0.2455     1.0090 </r>
       <r>    -3.2397     0.2110     1.0316 </r>
       <r>    -3.1327     0.2372     1.0570 </r>
       <r>    -3.0256     0.2324     1.0819 </r>
       <r>    -2.9186     0.1860     1.1018 </r>
       <r>    -2.8116     0.2226     1.1256 </r>
       <r>    -2.7045     0.2749     1.1550 </r>
       <r>    -2.5975     0.2203     1.1786 </r>
       <r>    -2.4905     0.5464     1.2371 </r>
       <r>    -2.3834     2.0695     1.4586 </r>
       <r>    -2.2764     2.8474     1.7634 </r>
       <r>    -2.1694     1.5955     1.9341 </r>
       <r>    -2.0623     0.5621     1.9943 </r>
       <r>    -1.9553     0.0526     1.9999 </r>
       <r>    -1.8483     0.0008     2.0000 </r>
       <r>    -1.7412     0.0000     2.0000 </r>
       <r>    -1.6342     0.0000     2.0000 </r>
       <r>    -1.5272     0.0000     2.0000 </r>
       <r>    -1.4201     0.0000     2.0000 </r>
       <r>    -1.3131     0.0000     2.0000 </r>
       <r>    -1.2061     0.0000     2.0000 </r>
       <r>    -1.0990     0.0000     2.0000 </r>
       <r>    -0.9920     0.0000     2.0000 </r>
       <r>    -0.8850     0.0000     2.0000 </r>
       <r>    -0.7779     0.0000     2.0000 </r>
       <r>    -0.6709     0.0058     2.0006 </r>
       <r>    -0.5639     0.1254     2.0141 </r>
       <r>    -0.4568     0.4651     2.0638 </r>
       <r>    -0.3498     0.4471     2.1117 </r>
       <r>    -0.2428     0.2732     2.1409 </r>
       <r>    -0.1357     0.2593     2.1687 </r>
       <r>    -0.0287     0.1862     2.1886 </r>
       <r>     0.0783     0.2206     2.2122 </r>
       <r>     0.1854     0.8980     2.3083 </r>
       <r>     0.2924     1.6215     2.4819 </r>
       <r>     0.3994     1.2596     2.6167 </r>
       <r>     0.5065     0.9363     2.7169 </r>
       <r>     0.6135     0.9492     2.8185 </r>
       <r>     0.7205     0.9771     2.9231 </r>
       <r>     0.8276     0.8033     3.0091 </r>
       <r>     0.9346     0.9380     3.1095 </r>
       <r>     1.0416     0.7127     3.1858 </r>
       <r>     1.1487     0.3396     3.2221 </r>
       <r>     1.2557     0.1496     3.2381 </r>
       <r>     1.3627     0.0889     3.2476 </r>
       <r>     1.4698     0.0388     3.2518 </r>
       <r>     1.5768     0.1451     3.2673 </r>
       <r>     1.6838     0.2326     3.2922 </r>
       <r>     1.7909     0.0771     3.3005 </r>
       <r>     1.8979     0.0651     3.3074 </r>
       <r>     2.0049     0.0757     3.3155 </r>
       <r>     2.1120     0.0676     3.3228 </r>
       <r>     2.2190     0.1959     3.3438 </r>
       <r>     2.3260     0.2714     3.3728 </r>
       <r>     2.4331     0.3155     3.4066 </r>
       <r>     2.5401     0.3468     3.4437 </r>
       <r>     2.6472     0.3096     3.4768 </r>
       <r>     2.7542     0.4669     3.5268 </r>
       <r>     2.8612     0.6648     3.5980 </r>
       <r>     2.9683     0.5740     3.6594 </r>
       <r>     3.0753     0.6548     3.7295 </r>
       <r>     3.1823     0.6528     3.7994 </r>
       <r>     3.2894     0.7928     3.8842 </r>
       <r>     3.3964     0.9696     3.9880 </r>
       <r>     3.5034     0.8540     4.0794 </r>
       <r>     3.6105     0.6226     4.1460 </r>
       <r>     3.7175     0.6138     4.2117 </r>
       <r>     3.8245     0.6828     4.2848 </r>
       <r>     3.9316     0.6574     4.3552 </r>
       <r>     4.0386     0.6247     4.4220 </r>
       <r>     4.1456     0.5372     4.4795 </r>
       <r>     4.2527     0.5602     4.5395 </r>
       <r>     4.3597     0.6878     4.6131 </r>
       <r>     4.4667     0.7257     4.6908 </r>
       <r>     4.5738     0.6867     4.7643 </r>
       <r>     4.6808     0.8686     4.8573 </r>
       <r>     4.7878     1.9101     5.0617 </r>
       <r>     4.8949     2.2142     5.2987 </r>
       <r>     5.0019     1.1908     5.4262 </r>
       <r>     5.1089     0.8405     5.5161 </r>
       <r>     5.2160     0.8244     5.6044 </r>
       <r>     5.3230     0.8474     5.6951 </r>
       <r>     5.4300     0.7082     5.7709 </r>
       <r>     5.5371     0.5292     5.8275 </r>
       <r>     5.6441     0.4265     5.8732 </r>
       <r>     5.7511     0.4676     5.9232 </r>
       <r>     5.8582     0.5552     5.9826 </r>
       <r>     5.9652     0.4873     6.0348 </r>
       <r>     6.0722     0.3931     6.0769 </r>
       <r>     6.1793     0.4787     6.1281 </r>
       <r>     6.2863     0.5455     6.1865 </r>
       <r>     6.3933     0.4752     6.2374 </r>
       <r>     6.5004     0.4906     6.2899 </r>
       <r>     6.6074     0.4969     6.3431 </r>
       <r>     6.7144     0.6965     6.4176 </r>
       <r>     6.8215     0.8179     6.5052 </r>
       <r>     6.9285     1.5094     6.6667 </r>
       <r>     7.0355     1.3953     6.8161 </r>
       <r>     7.1426     0.9809     6.9210 </r>
       <r>     7.2496     0.8907     7.0164 </r>
       <r>     7.3566     0.8060     7.1027 </r>
       <r>     7.4637     0.8260     7.1911 </r>
       <r>     7.5707     0.8792     7.2852 </r>
       <r>     7.6777     1.0090     7.3932 </r>
       <r>     7.7848     1.1861     7.5201 </r>
       <r>     7.8918     1.9515     7.7290 </r>
       <r>     7.9988     1.9988     7.9429 </r>
       <r>     8.1059     0.5114     7.9977 </r>
       <r>     8.2129     0.0216     8.0000 </r>
       <r>     8.3199     0.0001     8.0000 </r>
       <r>     8.4270     0.0000     8.0000 </r>
       <r>     8.5340     0.0000     8.0000 </r>
       <r>     8.6410     0.0000     8.0000 </r>
       <r>     8.7481     0.0000     8.0000 </r>
       <r>     8.8551     0.0000     8.0000 </r>
       <r>     8.9621     0.0000     8.0000 </r>
       <r>     9.0692     0.0002     8.0000 </r>
       <r>     9.1762     0.0195     8.0021 </r>
       <r>     9.2833     0.2854     8.0327 </r>
       <r>     9.3903     0.7473     8.1126 </r>
       <r>     9.4973     0.6074     8.1777 </r>
       <r>     9.6044     0.4211     8.2227 </r>
       <r>     9.7114     0.3510     8.2603 </r>
       <r>     9.8184     0.3182     8.2944 </r>
       <r>     9.9255     0.3173     8.3283 </r>
       <r>    10.0325     0.2544     8.3555 </r>
       <r>    10.1395     0.3253     8.3904 </r>
       <r>    10.2466     0.2539     8.4175 </r>
       <r>    10.3536     0.2623     8.4456 </r>
       <r>    10.4606     0.2868     8.4763 </r>
       <r>    10.5677     0.2847     8.5068 </r>
       <r>    10.6747     0.2422     8.5327 </r>
       <r>    10.7817     0.2333     8.5577 </r>
       <r>    10.8888     0.3338     8.5934 </r>
       <r>    10.9958     0.2746     8.6228 </r>
       <r>    11.1028     0.2507     8.6496 </r>
       <r>    11.2099     0.1731     8.6681 </r>
       <r>    11.3169     0.1573     8.6850 </r>
       <r>    11.4239     0.1830     8.7046 </r>
       <r>    11.5310     0.1024     8.7155 </r>
       <r>    11.6380     0.0747     8.7235 </r>
       <r>    11.7450     0.2444     8.7497 </r>
       <r>    11.8521     0.1475     8.7655 </r>
       <r>    11.9591     0.0535     8.7712 </r>
       <r>    12.0661     0.1725     8.7897 </r>
       <r>    12.1732     0.4234     8.8350 </r>
       <r>    12.2802     0.9222     8.9337 </r>
       <r>    12.3872     0.7875     9.0180 </r>
       <r>    12.4943     0.5609     9.0780 </r>
       <r>    12.6013     0.5119     9.1328 </r>
       <r>    12.7083     0.4384     9.1797 </r>
       <r>    12.8154     0.4423     9.2271 </r>
       <r>    12.9224     0.4336     9.2735 </r>
       <r>    13.0294     0.7736     9.3563 </r>
       <r>    13.1365     1.3310     9.4988 </r>
       <r>    13.2435     1.2297     9.6304 </r>
       <r>    13.3505     1.1315     9.7515 </r>
       <r>    13.4576     0.8424     9.8416 </r>
       <r>    13.5646     0.8032     9.9276 </r>
       <r>    13.6716     0.6657     9.9989 </r>
       <r>    13.7787     0.4969    10.0521 </r>
       <r>    13.8857     0.3271    10.0871 </r>
       <r>    13.9927     0.6858    10.1605 </r>
       <r>    14.0998     1.0271    10.2704 </r>
       <r>    14.2068     0.8100    10.3571 </r>
       <r>    14.3138     0.7680    10.4393 </r>
       <r>    14.4209     0.5811    10.5015 </r>
       <r>    14.5279     0.4350    10.5481 </r>
       <r>    14.6349     0.4489    10.5961 </r>
       <r>    14.7420     0.6784    10.6687 </r>
       <r>    14.8490     0.8337    10.7580 </r>
       <r>    14.9560     0.7722    10.8406 </r>
       <r>    15.0631     1.6356    11.0157 </r>
       <r>    15.1701     3.4499    11.3849 </r>
       <r>    15.2771     2.8817    11.6934 </r>
       <r>    15.3842     1.7967    11.8857 </r>
       <r>    15.4912     1.4486    12.0407 </r>
       <r>    15.5983     1.3944    12.1900 </r>
       <r>    15.7053     1.5894    12.3601 </r>
       <r>    15.8123     1.3729    12.5070 </r>
       <r>    15.9194     0.7631    12.5887 </r>
       <r>    16.0264     0.5525    12.6478 </r>
       <r>    16.1334     0.4609    12.6972 </r>
       <r>    16.2405     0.3992    12.7399 </r>
       <r>    16.3475     0.6111    12.8053 </r>
       <r>    16.4545     0.5971    12.8692 </r>
       <r>    16.5616     0.3350    12.9051 </r>
       <r>    16.6686     0.5187    12.9606 </r>
       <r>    16.7756     0.8190    13.0482 </r>
       <r>    16.8827     0.5141    13.1033 </r>
       <r>    16.9897     0.5229    13.1592 </r>
       <r>    17.0967     0.5584    13.2190 </r>
       <r>    17.2038     0.6834    13.2921 </r>
       <r>    17.3108     0.9178    13.3904 </r>
       <r>    17.4178     0.6433    13.4592 </r>
       <r>    17.5249     0.4879    13.5115 </r>
       <r>    17.6319     0.5872    13.5743 </r>
       <r>    17.7389     0.8529    13.6656 </r>
       <r>    17.8460     0.8895    13.7608 </r>
       <r>    17.9530     1.0275    13.8708 </r>
       <r>    18.0600     0.6772    13.9433 </r>
       <r>    18.1671     0.6996    14.0181 </r>
       <r>    18.2741     0.6680    14.0896 </r>
       <r>    18.3811     0.4361    14.1363 </r>
       <r>    18.4882     0.2516    14.1633 </r>
       <r>    18.5952     0.4177    14.2080 </r>
       <r>    18.7022     0.5763    14.2696 </r>
       <r>    18.8093     0.5028    14.3235 </r>
       <r>    18.9163     0.6655    14.3947 </r>
       <r>    19.0233     0.5242    14.4508 </r>
       <r>    19.1304     0.4927    14.5035 </r>
       <r>    19.2374     0.4642    14.5532 </r>
       <r>    19.3444     0.1668    14.5711 </r>
       <r>    19.4515     0.1424    14.5863 </r>
       <r>    19.5585     0.2389    14.6119 </r>
       <r>    19.6655     0.4179    14.6566 </r>
       <r>    19.7726     0.3108    14.6899 </r>
       <r>    19.8796     0.3091    14.7230 </r>
       <r>    19.9866     0.2971    14.7548 </r>
       <r>    20.0937     0.2825    14.7850 </r>
       <r>    20.2007     0.3899    14.8267 </r>
       <r>    20.3077     0.4870    14.8788 </r>
       <r>    20.4148     0.3369    14.9149 </r>
       <r>    20.5218     0.3974    14.9574 </r>
       <r>    20.6288     0.5580    15.0172 </r>
       <r>    20.7359     0.3714    15.0569 </r>
       <r>    20.8429     0.3455    15.0939 </r>
       <r>    20.9499     0.5615    15.1540 </r>
       <r>    21.0570     0.5035    15.2079 </r>
       <r>    21.1640     0.4213    15.2530 </r>
       <r>    21.2710     0.5565    15.3125 </r>
       <r>    21.3781     0.6276    15.3797 </r>
       <r>    21.4851     0.5795    15.4417 </r>
       <r>    21.5921     0.7779    15.5250 </r>
       <r>    21.6992     1.0505    15.6374 </r>
       <r>    21.8062     1.8609    15.8366 </r>
       <r>    21.9132     1.3279    15.9788 </r>
       <r>    22.0203     0.1940    15.9995 </r>
       <r>    22.1273     0.0045    16.0000 </r>
       <r>    22.2344     0.0000    16.0000 </r>
       <r>    22.3414     0.0000    16.0000 </r>
       <r>    22.4484     0.0000    16.0000 </r>
       <r>    22.5555     0.0000    16.0000 </r>
       <r>    22.6625     0.0000    16.0000 </r>
       <r>    22.7695     0.0000    16.0000 </r>
       <r>    22.8766     0.0000    16.0000 </r>
       <r>    22.9836     0.0000    16.0000 </r>
       <r>    23.0906     0.0000    16.0000 </r>
       <r>    23.1977     0.0000    16.0000 </r>
       <r>    23.3047     0.0000    16.0000 </r>
      </set>
     </set>
    </array>
   </total>
   <partial>
    <array>
     <dimension dim="1">gridpoints</dimension>
     <dimension dim="2">spin</dimension>
     <dimension dim="3">ion</dimension>
     <field>energy</field>
     <field>    s</field>
     <field>   py</field>
     <field>   pz</field>
     <field>   px</field>
     <field>  dxy</field>
     <field>  dyz</field>
     <field>  dz2</field>
     <field>  dxz</field>
     <field>x2-y2</field>
     <set>
      <set comment="ion 1">
       <set comment="spin 1">
        <r>    -8.8055     0.0000     0.0000     0.0000     0.0000     0.0000     0.0000     0.0000     0.0000     0.0000 </r>
        <r>    -8.6984     0.0000     0.0000     0.0000     0.0000     0.0000     0.0000     0.0000     0.0000     0.0000 </r>
        <r>    -8.5914     0.0000     0.0000     0.0000     0.0000     0.0000     0.0000     0.0000     0.0000     0.0000 </r>
        <r>    -8.4844     0.0000     0.0000     0.0000     0.0000     0.0000     0.0000     0.0000     0.0000     0.0000 </r>
        <r>    -8.3773     0.0000     0.0000     0.0000     0.0000     0.0000     0.0000     0.0000     0.0000     0.0000 </r>
        <r>    -8.2703     0.0000     0.0000     0.0000     0.0000     0.0000     0.0000     0.0000     0.0000     0.0000 </r>
        <r>    -8.1633     0.0000     0.0000     0.0000     0.0000     0.0000     0.0000     0.0000     0.0000     0.0000 </r>
        <r>    -8.0562     0.0000     0.0000     0.0000     0.0000     0.0000     0.0000     0.0000     0.0000     0.0000 </r>
        <r>    -7.9492     0.0000     0.0000     0.0000     0.0000     0.0000     0.0000     0.0000     0.0000     0.0000 </r>
        <r>    -7.8422     0.0000     0.0000     0.0000     0.0000     0.0000     0.0000     0.0000     0.0000     0.0000 </r>
        <r>    -7.7351     0.0000     0.0000     0.0000     0.0000     0.0000     0.0000     0.0000     0.0000     0.0000 </r>
        <r>    -7.6281     0.0000     0.0000     0.0000     0.0000     0.0000     0.0000     0.0000     0.0000     0.0000 </r>
        <r>    -7.5211     0.0012     0.0000     0.0000     0.0000     0.0000     0.0000     0.0000     0.0000     0.0000 </r>
        <r>    -7.4140     0.0343     0.0000     0.0000     0.0000     0.0000     0.0000     0.0000     0.0000     0.0000 </r>
        <r>    -7.3070     0.1617     0.0002     0.0000     0.0001     0.0000     0.0000     0.0000     0.0000     0.0000 </r>
        <r>    -7.2000     0.1805     0.0006     0.0001     0.0003     0.0000     0.0000     0.0000     0.0000     0.0000 </r>
        <r>    -7.0929     0.1136     0.0010     0.0002     0.0005     0.0000     0.0000     0.0000     0.0000     0.0000 </r>
        <r>    -6.9859     0.0860     0.0012     0.0003     0.0006     0.0000     0.0000     0.0000     0.0000     0.0000 </r>
        <r>    -6.8789     0.0717     0.0015     0.0003     0.0007     0.0000     0.0000     0.0000     0.0000     0.0000 </r>
        <r>    -6.7718     0.0626     0.0016     0.0003     0.0008     0.0000     0.0000     0.0000     0.0000     0.0000 </r>
        <r>    -6.6648     0.0583     0.0019     0.0004     0.0008     0.0000     0.0000     0.0000     0.0000     0.0000 </r>
        <r>    -6.5578     0.0507     0.0018     0.0004     0.0009     0.0000     0.0000     0.0000     0.0000     0.0000 </r>
        <r>    -6.4507     0.0491     0.0023     0.0005     0.0008     0.0000     0.0000     0.0000     0.0000     0.0000 </r>
        <r>    -6.3437     0.0447     0.0021     0.0004     0.0011     0.0000     0.0000     0.0000     0.0000     0.0000 </r>
        <r>    -6.2367     0.0429     0.0023     0.0006     0.0010     0.0000     0.0000     0.0000     0.0000     0.0000 </r>
        <r>    -6.1296     0.0378     0.0026     0.0004     0.0009     0.0000     0.0000     0.0000     0.0000     0.0000 </r>
        <r>    -6.0226     0.0412     0.0023     0.0007     0.0016     0.0000     0.0000     0.0000     0.0000     0.0000 </r>
        <r>    -5.9156     0.0341     0.0029     0.0005     0.0008     0.0000     0.0000     0.0000     0.0000     0.0000 </r>
        <r>    -5.8085     0.0326     0.0028     0.0005     0.0011     0.0000     0.0000     0.0000     0.0000     0.0000 </r>
        <r>    -5.7015     0.0381     0.0026     0.0008     0.0020     0.0000     0.0000     0.0000     0.0000     0.0000 </r>
        <r>    -5.5945     0.0269     0.0032     0.0004     0.0007     0.0000     0.0000     0.0000     0.0000     0.0000 </r>
        <r>    -5.4874     0.0321     0.0034     0.0009     0.0012     0.0000     0.0000     0.0000     0.0000     0.0000 </r>
        <r>    -5.3804     0.0306     0.0026     0.0008     0.0021     0.0000     0.0000     0.0000     0.0000     0.0000 </r>
        <r>    -5.2734     0.0252     0.0034     0.0005     0.0012     0.0000     0.0000     0.0000     0.0000     0.0000 </r>
        <r>    -5.1663     0.0327     0.0045     0.0011     0.0012     0.0000     0.0000     0.0000     0.0000     0.0000 </r>
        <r>    -5.0593     0.0212     0.0023     0.0007     0.0016     0.0000     0.0000     0.0000     0.0000     0.0000 </r>
        <r>    -4.9523     0.0255     0.0031     0.0008     0.0021     0.0000     0.0000     0.0000     0.0000     0.0000 </r>
        <r>    -4.8452     0.0331     0.0055     0.0012     0.0016     0.0000     0.0000     0.0000     0.0000     0.0000 </r>
        <r>    -4.7382     0.0170     0.0033     0.0005     0.0007     0.0000     0.0000     0.0000     0.0000     0.0000 </r>
        <r>    -4.6312     0.0221     0.0027     0.0011     0.0024     0.0000     0.0000     0.0000     0.0000     0.0000 </r>
        <r>    -4.5241     0.0304     0.0046     0.0015     0.0027     0.0000     0.0000     0.0000     0.0000     0.0000 </r>
        <r>    -4.4171     0.0207     0.0057     0.0005     0.0007     0.0000     0.0000     0.0000     0.0000     0.0000 </r>
        <r>    -4.3101     0.0201     0.0036     0.0013     0.0016     0.0000     0.0000     0.0000     0.0000     0.0000 </r>
        <r>    -4.2030     0.0238     0.0033     0.0016     0.0030     0.0000     0.0000     0.0000     0.0000     0.0000 </r>
        <r>    -4.0960     0.0234     0.0050     0.0014     0.0024     0.0000     0.0000     0.0000     0.0000     0.0000 </r>
        <r>    -3.9890     0.0287     0.0077     0.0018     0.0019     0.0000     0.0000     0.0000     0.0000     0.0000 </r>
        <r>    -3.8819     0.0410     0.0067     0.0044     0.0047     0.0000     0.0000     0.0000     0.0000     0.0000 </r>
        <r>    -3.7749     0.0831     0.0115     0.0100     0.0109     0.0000     0.0000     0.0000     0.0000     0.0000 </r>
        <r>    -3.6678     0.0632     0.0114     0.0077     0.0076     0.0000     0.0000     0.0000     0.0000     0.0000 </r>
        <r>    -3.5608     0.0411     0.0118     0.0050     0.0039     0.0000     0.0000     0.0000     0.0000     0.0000 </r>
        <r>    -3.4538     0.0308     0.0077     0.0050     0.0039     0.0000     0.0000     0.0000     0.0000     0.0000 </r>
        <r>    -3.3467     0.0291     0.0068     0.0056     0.0046     0.0000     0.0000     0.0000     0.0000     0.0000 </r>
        <r>    -3.2397     0.0229     0.0086     0.0046     0.0027     0.0000     0.0000     0.0000     0.0000     0.0000 </r>
        <r>    -3.1327     0.0235     0.0124     0.0047     0.0022     0.0000     0.0000     0.0000     0.0000     0.0000 </r>
        <r>    -3.0256     0.0221     0.0087     0.0065     0.0036     0.0000     0.0000     0.0000     0.0000     0.0000 </r>
        <r>    -2.9186     0.0163     0.0069     0.0059     0.0027     0.0000     0.0000     0.0000     0.0000     0.0000 </r>
        <r>    -2.8116     0.0158     0.0128     0.0061     0.0020     0.0000     0.0000     0.0000     0.0000     0.0000 </r>
        <r>    -2.7045     0.0181     0.0144     0.0088     0.0031     0.0000     0.0000     0.0000     0.0000     0.0000 </r>
        <r>    -2.5975     0.0119     0.0107     0.0088     0.0023     0.0000     0.0000     0.0000     0.0000     0.0000 </r>
        <r>    -2.4905     0.0127     0.0468     0.0135     0.0033     0.0000     0.0000     0.0000     0.0000     0.0000 </r>
        <r>    -2.3834     0.0151     0.2291     0.0229     0.0073     0.0000     0.0000     0.0000     0.0000     0.0000 </r>
        <r>    -2.2764     0.0127     0.3145     0.0342     0.0086     0.0000     0.0000     0.0000     0.0000     0.0000 </r>
        <r>    -2.1694     0.0038     0.1476     0.0455     0.0023     0.0000     0.0000     0.0000     0.0000     0.0000 </r>
        <r>    -2.0623     0.0005     0.0424     0.0250     0.0001     0.0000     0.0000     0.0000     0.0000     0.0000 </r>
        <r>    -1.9553     0.0000     0.0037     0.0026     0.0000     0.0000     0.0000     0.0000     0.0000     0.0000 </r>
        <r>    -1.8483     0.0000     0.0001     0.0000     0.0000     0.0000     0.0000     0.0000     0.0000     0.0000 </r>
        <r>    -1.7412     0.0000     0.0000     0.0000     0.0000     0.0000     0.0000     0.0000     0.0000     0.0000 </r>
        <r>    -1.6342     0.0000     0.0000     0.0000     0.0000     0.0000     0.0000     0.0000     0.0000     0.0000 </r>
        <r>    -1.5272     0.0000     0.0000     0.0000     0.0000     0.0000     0.0000     0.0000     0.0000     0.0000 </r>
        <r>    -1.4201     0.0000     0.0000     0.0000     0.0000     0.0000     0.0000     0.0000     0.0000     0.0000 </r>
        <r>    -1.3131     0.0000     0.0000     0.0000     0.0000     0.0000     0.0000     0.0000     0.0000     0.0000 </r>
        <r>    -1.2061     0.0000     0.0000     0.0000     0.0000     0.0000     0.0000     0.0000     0.0000     0.0000 </r>
        <r>    -1.0990     0.0000     0.0000     0.0000     0.0000     0.0000     0.0000     0.0000     0.0000     0.0000 </r>
        <r>    -0.9920     0.0000     0.0000     0.0000     0.0000     0.0000     0.0000     0.0000     0.0000     0.0000 </r>
        <r>    -0.8850     0.0000     0.0000     0.0000     0.0000     0.0000     0.0000     0.0000     0.0000     0.0000 </r>
        <r>    -0.7779     0.0000     0.0000     0.0000     0.0000     0.0000     0.0000     0.0000     0.0000     0.0000 </r>
        <r>    -0.6709     0.0009     0.0002     0.0002     0.0002     0.0000     0.0000     0.0000     0.0000     0.0000 </r>
        <r>    -0.5639     0.0201     0.0048     0.0048     0.0048     0.0000     0.0000     0.0000     0.0000     0.0000 </r>
        <r>    -0.4568     0.0745     0.0178     0.0178     0.0178     0.0000     0.0000     0.0000     0.0000     0.0000 </r>
        <r>    -0.3498     0.0721     0.0171     0.0171     0.0169     0.0000     0.0000     0.0000     0.0000     0.0000 </r>
        <r>    -0.2428     0.0447     0.0104     0.0104     0.0102     0.0000     0.0000     0.0000     0.0000     0.0000 </r>
        <r>    -0.1357     0.0424     0.0098     0.0098     0.0095     0.0000     0.0000     0.0000     0.0000     0.0000 </r>
        <r>    -0.0287     0.0320     0.0069     0.0069     0.0066     0.0000     0.0000     0.0000     0.0000     0.0000 </r>
        <r>     0.0783     0.0505     0.0057     0.0057     0.0053     0.0000     0.0000     0.0000     0.0000     0.0000 </r>
        <r>     0.1854     0.2772     0.0076     0.0076     0.0072     0.0000     0.0000     0.0000     0.0000     0.0000 </r>
        <r>     0.2924     0.5374     0.0069     0.0067     0.0065     0.0000     0.0000     0.0000     0.0000     0.0000 </r>
        <r>     0.3994     0.4257     0.0051     0.0046     0.0047     0.0000     0.0000     0.0000     0.0000     0.0000 </r>
        <r>     0.5065     0.3168     0.0054     0.0047     0.0048     0.0000     0.0000     0.0000     0.0000     0.0000 </r>
        <r>     0.6135     0.3103     0.0096     0.0072     0.0070     0.0000     0.0000     0.0000     0.0000     0.0000 </r>
        <r>     0.7205     0.3235     0.0111     0.0079     0.0061     0.0000     0.0000     0.0000     0.0000     0.0000 </r>
        <r>     0.8276     0.2831     0.0060     0.0080     0.0033     0.0000     0.0000     0.0000     0.0000     0.0000 </r>
        <r>     0.9346     0.3508     0.0037     0.0098     0.0020     0.0000     0.0000     0.0000     0.0000     0.0000 </r>
        <r>     1.0416     0.2566     0.0037     0.0100     0.0019     0.0000     0.0000     0.0000     0.0000     0.0000 </r>
        <r>     1.1487     0.0843     0.0065     0.0107     0.0035     0.0000     0.0000     0.0000     0.0000     0.0000 </r>
        <r>     1.2557     0.0303     0.0029     0.0074     0.0014     0.0000     0.0000     0.0000     0.0000     0.0000 </r>
        <r>     1.3627     0.0173     0.0002     0.0077     0.0001     0.0000     0.0000     0.0000     0.0000     0.0000 </r>
        <r>     1.4698     0.0070     0.0002     0.0033     0.0001     0.0000     0.0000     0.0000     0.0000     0.0000 </r>
        <r>     1.5768     0.0235     0.0031     0.0088     0.0015     0.0000     0.0000     0.0000     0.0000     0.0000 </r>
        <r>     1.6838     0.0376     0.0074     0.0096     0.0035     0.0000     0.0000     0.0000     0.0000     0.0000 </r>
        <r>     1.7909     0.0122     0.0027     0.0028     0.0013     0.0000     0.0000     0.0000     0.0000     0.0000 </r>
        <r>     1.8979     0.0087     0.0003     0.0064     0.0002     0.0000     0.0000     0.0000     0.0000     0.0000 </r>
        <r>     2.0049     0.0101     0.0003     0.0076     0.0002     0.0000     0.0000     0.0000     0.0000     0.0000 </r>
        <r>     2.1120     0.0102     0.0026     0.0022     0.0008     0.0000     0.0000     0.0000     0.0000     0.0000 </r>
        <r>     2.2190     0.0264     0.0085     0.0058     0.0041     0.0000     0.0000     0.0000     0.0000     0.0000 </r>
        <r>     2.3260     0.0211     0.0110     0.0164     0.0094     0.0000     0.0000     0.0000     0.0000     0.0000 </r>
        <r>     2.4331     0.0097     0.0167     0.0205     0.0173     0.0000     0.0000     0.0000     0.0000     0.0000 </r>
        <r>     2.5401     0.0050     0.0208     0.0212     0.0232     0.0000     0.0000     0.0000     0.0000     0.0000 </r>
        <r>     2.6472     0.0098     0.0168     0.0184     0.0188     0.0000     0.0000     0.0000     0.0000     0.0000 </r>
        <r>     2.7542     0.0303     0.0199     0.0249     0.0224     0.0000     0.0000     0.0000     0.0000     0.0000 </r>
        <r>     2.8612     0.0311     0.0271     0.0331     0.0450     0.0000     0.0000     0.0000     0.0000     0.0000 </r>
        <r>     2.9683     0.0125     0.0185     0.0226     0.0578     0.0000     0.0000     0.0000     0.0000     0.0000 </r>
        <r>     3.0753     0.0098     0.0122     0.0161     0.0822     0.0000     0.0000     0.0000     0.0000     0.0000 </r>
        <r>     3.1823     0.0204     0.0161     0.0209     0.0691     0.0000     0.0000     0.0000     0.0000     0.0000 </r>
        <r>     3.2894     0.0320     0.0381     0.0478     0.0476     0.0000     0.0000     0.0000     0.0000     0.0000 </r>
        <r>     3.3964     0.0240     0.0648     0.0805     0.0421     0.0000     0.0000     0.0000     0.0000     0.0000 </r>
        <r>     3.5034     0.0205     0.0512     0.0709     0.0453     0.0000     0.0000     0.0000     0.0000     0.0000 </r>
        <r>     3.6105     0.0136     0.0307     0.0520     0.0403     0.0000     0.0000     0.0000     0.0000     0.0000 </r>
        <r>     3.7175     0.0150     0.0257     0.0523     0.0387     0.0000     0.0000     0.0000     0.0000     0.0000 </r>
        <r>     3.8245     0.0283     0.0251     0.0518     0.0384     0.0000     0.0000     0.0000     0.0000     0.0000 </r>
        <r>     3.9316     0.0226     0.0259     0.0485     0.0433     0.0000     0.0000     0.0000     0.0000     0.0000 </r>
        <r>     4.0386     0.0183     0.0224     0.0479     0.0452     0.0000     0.0000     0.0000     0.0000     0.0000 </r>
        <r>     4.1456     0.0137     0.0160     0.0453     0.0416     0.0000     0.0000     0.0000     0.0000     0.0000 </r>
        <r>     4.2527     0.0116     0.0156     0.0488     0.0435     0.0000     0.0000     0.0000     0.0000     0.0000 </r>
        <r>     4.3597     0.0236     0.0188     0.0533     0.0471     0.0000     0.0000     0.0000     0.0000     0.0000 </r>
        <r>     4.4667     0.0217     0.0206     0.0572     0.0554     0.0000     0.0000     0.0000     0.0000     0.0000 </r>
        <r>     4.5738     0.0111     0.0140     0.0614     0.0612     0.0000     0.0000     0.0000     0.0000     0.0000 </r>
        <r>     4.6808     0.0074     0.0083     0.0856     0.0872     0.0000     0.0000     0.0000     0.0000     0.0000 </r>
        <r>     4.7878     0.0128     0.0153     0.1940     0.1969     0.0000     0.0000     0.0000     0.0000     0.0000 </r>
        <r>     4.8949     0.0223     0.0190     0.2193     0.2173     0.0000     0.0000     0.0000     0.0000     0.0000 </r>
        <r>     5.0019     0.0087     0.0077     0.1202     0.1180     0.0000     0.0000     0.0000     0.0000     0.0000 </r>
        <r>     5.1089     0.0038     0.0079     0.0834     0.0835     0.0000     0.0000     0.0000     0.0000     0.0000 </r>
        <r>     5.2160     0.0107     0.0126     0.0733     0.0724     0.0000     0.0000     0.0000     0.0000     0.0000 </r>
        <r>     5.3230     0.0129     0.0204     0.0649     0.0714     0.0000     0.0000     0.0000     0.0000     0.0000 </r>
        <r>     5.4300     0.0116     0.0221     0.0469     0.0557     0.0000     0.0000     0.0000     0.0000     0.0000 </r>
        <r>     5.5371     0.0087     0.0181     0.0350     0.0381     0.0000     0.0000     0.0000     0.0000     0.0000 </r>
        <r>     5.6441     0.0053     0.0191     0.0250     0.0331     0.0000     0.0000     0.0000     0.0000     0.0000 </r>
        <r>     5.7511     0.0068     0.0188     0.0249     0.0355     0.0000     0.0000     0.0000     0.0000     0.0000 </r>
        <r>     5.8582     0.0124     0.0263     0.0237     0.0335     0.0000     0.0000     0.0000     0.0000     0.0000 </r>
        <r>     5.9652     0.0083     0.0193     0.0265     0.0308     0.0000     0.0000     0.0000     0.0000     0.0000 </r>
        <r>     6.0722     0.0045     0.0157     0.0198     0.0269     0.0000     0.0000     0.0000     0.0000     0.0000 </r>
        <r>     6.1793     0.0053     0.0178     0.0264     0.0321     0.0000     0.0000     0.0000     0.0000     0.0000 </r>
        <r>     6.2863     0.0087     0.0261     0.0229     0.0318     0.0000     0.0000     0.0000     0.0000     0.0000 </r>
        <r>     6.3933     0.0071     0.0181     0.0196     0.0274     0.0000     0.0000     0.0000     0.0000     0.0000 </r>
        <r>     6.5004     0.0034     0.0199     0.0238     0.0325     0.0000     0.0000     0.0000     0.0000     0.0000 </r>
        <r>     6.6074     0.0047     0.0201     0.0223     0.0290     0.0000     0.0000     0.0000     0.0000     0.0000 </r>
        <r>     6.7144     0.0059     0.0266     0.0296     0.0401     0.0000     0.0000     0.0000     0.0000     0.0000 </r>
        <r>     6.8215     0.0048     0.0358     0.0334     0.0461     0.0000     0.0000     0.0000     0.0000     0.0000 </r>
        <r>     6.9285     0.0026     0.0674     0.0696     0.0847     0.0000     0.0000     0.0000     0.0000     0.0000 </r>
        <r>     7.0355     0.0021     0.0619     0.0650     0.0730     0.0000     0.0000     0.0000     0.0000     0.0000 </r>
        <r>     7.1426     0.0039     0.0420     0.0379     0.0434     0.0000     0.0000     0.0000     0.0000     0.0000 </r>
        <r>     7.2496     0.0027     0.0318     0.0343     0.0393     0.0000     0.0000     0.0000     0.0000     0.0000 </r>
        <r>     7.3566     0.0018     0.0288     0.0287     0.0334     0.0000     0.0000     0.0000     0.0000     0.0000 </r>
        <r>     7.4637     0.0019     0.0273     0.0261     0.0316     0.0000     0.0000     0.0000     0.0000     0.0000 </r>
        <r>     7.5707     0.0019     0.0271     0.0249     0.0304     0.0000     0.0000     0.0000     0.0000     0.0000 </r>
        <r>     7.6777     0.0015     0.0273     0.0271     0.0322     0.0000     0.0000     0.0000     0.0000     0.0000 </r>
        <r>     7.7848     0.0011     0.0305     0.0269     0.0330     0.0000     0.0000     0.0000     0.0000     0.0000 </r>
        <r>     7.8918     0.0007     0.0435     0.0374     0.0472     0.0000     0.0000     0.0000     0.0000     0.0000 </r>
        <r>     7.9988     0.0003     0.0421     0.0349     0.0441     0.0000     0.0000     0.0000     0.0000     0.0000 </r>
        <r>     8.1059     0.0000     0.0105     0.0087     0.0109     0.0000     0.0000     0.0000     0.0000     0.0000 </r>
        <r>     8.2129     0.0000     0.0004     0.0004     0.0005     0.0000     0.0000     0.0000     0.0000     0.0000 </r>
        <r>     8.3199     0.0000     0.0000     0.0000     0.0000     0.0000     0.0000     0.0000     0.0000     0.0000 </r>
        <r>     8.4270     0.0000     0.0000     0.0000     0.0000     0.0000     0.0000     0.0000     0.0000     0.0000 </r>
        <r>     8.5340     0.0000     0.0000     0.0000     0.0000     0.0000     0.0000     0.0000     0.0000     0.0000 </r>
        <r>     8.6410     0.0000     0.0000     0.0000     0.0000     0.0000     0.0000     0.0000     0.0000     0.0000 </r>
        <r>     8.7481     0.0000     0.0000     0.0000     0.0000     0.0000     0.0000     0.0000     0.0000     0.0000 </r>
        <r>     8.8551     0.0000     0.0000     0.0000     0.0000     0.0000     0.0000     0.0000     0.0000     0.0000 </r>
        <r>     8.9621     0.0000     0.0000     0.0000     0.0000     0.0000     0.0000     0.0000     0.0000     0.0000 </r>
        <r>     9.0692     0.0000     0.0000     0.0000     0.0000     0.0000     0.0000     0.0000     0.0000     0.0000 </r>
        <r>     9.1762     0.0000     0.0019     0.0000     0.0000     0.0000     0.0000     0.0000     0.0000     0.0000 </r>
        <r>     9.2833     0.0000     0.0281     0.0001     0.0000     0.0000     0.0000     0.0000     0.0000     0.0000 </r>
        <r>     9.3903     0.0002     0.0735     0.0003     0.0001     0.0000     0.0000     0.0000     0.0000     0.0000 </r>
        <r>     9.4973     0.0005     0.0593     0.0007     0.0003     0.0000     0.0000     0.0000     0.0000     0.0000 </r>
        <r>     9.6044     0.0009     0.0407     0.0010     0.0004     0.0000     0.0000     0.0000     0.0000     0.0000 </r>
        <r>     9.7114     0.0012     0.0332     0.0011     0.0004     0.0000     0.0000     0.0000     0.0000     0.0000 </r>
        <r>     9.8184     0.0020     0.0301     0.0011     0.0004     0.0000     0.0000     0.0000     0.0000     0.0000 </r>
        <r>     9.9255     0.0025     0.0294     0.0013     0.0004     0.0000     0.0000     0.0000     0.0000     0.0000 </r>
        <r>    10.0325     0.0028     0.0225     0.0011     0.0004     0.0000     0.0000     0.0000     0.0000     0.0000 </r>
        <r>    10.1395     0.0046     0.0305     0.0014     0.0003     0.0000     0.0000     0.0000     0.0000     0.0000 </r>
        <r>    10.2466     0.0047     0.0223     0.0010     0.0003     0.0000     0.0000     0.0000     0.0000     0.0000 </r>
        <r>    10.3536     0.0051     0.0212     0.0014     0.0002     0.0000     0.0000     0.0000     0.0000     0.0000 </r>
        <r>    10.4606     0.0076     0.0270     0.0009     0.0001     0.0000     0.0000     0.0000     0.0000     0.0000 </r>
        <r>    10.5677     0.0080     0.0249     0.0011     0.0001     0.0000     0.0000     0.0000     0.0000     0.0000 </r>
        <r>    10.6747     0.0074     0.0177     0.0012     0.0000     0.0000     0.0000     0.0000     0.0000     0.0000 </r>
        <r>    10.7817     0.0092     0.0195     0.0006     0.0000     0.0000     0.0000     0.0000     0.0000     0.0000 </r>
        <r>    10.8888     0.0118     0.0311     0.0016     0.0000     0.0000     0.0000     0.0000     0.0000     0.0000 </r>
        <r>    10.9958     0.0125     0.0188     0.0034     0.0000     0.0000     0.0000     0.0000     0.0000     0.0000 </r>
        <r>    11.1028     0.0119     0.0111     0.0063     0.0000     0.0000     0.0000     0.0000     0.0000     0.0000 </r>
        <r>    11.2099     0.0049     0.0136     0.0032     0.0000     0.0000     0.0000     0.0000     0.0000     0.0000 </r>
        <r>    11.3169     0.0067     0.0188     0.0030     0.0000     0.0000     0.0000     0.0000     0.0000     0.0000 </r>
        <r>    11.4239     0.0073     0.0101     0.0064     0.0001     0.0000     0.0000     0.0000     0.0000     0.0000 </r>
        <r>    11.5310     0.0021     0.0046     0.0029     0.0000     0.0000     0.0000     0.0000     0.0000     0.0000 </r>
        <r>    11.6380     0.0030     0.0059     0.0021     0.0001     0.0000     0.0000     0.0000     0.0000     0.0000 </r>
        <r>    11.7450     0.0107     0.0225     0.0063     0.0002     0.0000     0.0000     0.0000     0.0000     0.0000 </r>
        <r>    11.8521     0.0058     0.0143     0.0033     0.0001     0.0000     0.0000     0.0000     0.0000     0.0000 </r>
        <r>    11.9591     0.0012     0.0028     0.0012     0.0001     0.0000     0.0000     0.0000     0.0000     0.0000 </r>
        <r>    12.0661     0.0092     0.0059     0.0050     0.0003     0.0000     0.0000     0.0000     0.0000     0.0000 </r>
        <r>    12.1732     0.0733     0.0170     0.0047     0.0004     0.0000     0.0000     0.0000     0.0000     0.0000 </r>
        <r>    12.2802     0.2006     0.0220     0.0014     0.0005     0.0000     0.0000     0.0000     0.0000     0.0000 </r>
        <r>    12.3872     0.1697     0.0074     0.0026     0.0013     0.0000     0.0000     0.0000     0.0000     0.0000 </r>
        <r>    12.4943     0.1124     0.0031     0.0061     0.0022     0.0000     0.0000     0.0000     0.0000     0.0000 </r>
        <r>    12.6013     0.0895     0.0126     0.0038     0.0022     0.0000     0.0000     0.0000     0.0000     0.0000 </r>
        <r>    12.7083     0.0732     0.0271     0.0014     0.0021     0.0000     0.0000     0.0000     0.0000     0.0000 </r>
        <r>    12.8154     0.0701     0.0135     0.0035     0.0027     0.0000     0.0000     0.0000     0.0000     0.0000 </r>
        <r>    12.9224     0.0595     0.0043     0.0066     0.0036     0.0000     0.0000     0.0000     0.0000     0.0000 </r>
        <r>    13.0294     0.0657     0.0114     0.0059     0.0045     0.0000     0.0000     0.0000     0.0000     0.0000 </r>
        <r>    13.1365     0.0780     0.0349     0.0092     0.0061     0.0000     0.0000     0.0000     0.0000     0.0000 </r>
        <r>    13.2435     0.1527     0.0286     0.0134     0.0091     0.0000     0.0000     0.0000     0.0000     0.0000 </r>
        <r>    13.3505     0.2219     0.0161     0.0183     0.0114     0.0000     0.0000     0.0000     0.0000     0.0000 </r>
        <r>    13.4576     0.1666     0.0181     0.0144     0.0106     0.0000     0.0000     0.0000     0.0000     0.0000 </r>
        <r>    13.5646     0.1436     0.0404     0.0148     0.0095     0.0000     0.0000     0.0000     0.0000     0.0000 </r>
        <r>    13.6716     0.1130     0.0328     0.0145     0.0095     0.0000     0.0000     0.0000     0.0000     0.0000 </r>
        <r>    13.7787     0.0852     0.0121     0.0135     0.0128     0.0000     0.0000     0.0000     0.0000     0.0000 </r>
        <r>    13.8857     0.0505     0.0188     0.0091     0.0097     0.0000     0.0000     0.0000     0.0000     0.0000 </r>
        <r>    13.9927     0.0902     0.0410     0.0096     0.0111     0.0000     0.0000     0.0000     0.0000     0.0000 </r>
        <r>    14.0998     0.1363     0.0268     0.0144     0.0161     0.0000     0.0000     0.0000     0.0000     0.0000 </r>
        <r>    14.2068     0.0941     0.0274     0.0186     0.0171     0.0000     0.0000     0.0000     0.0000     0.0000 </r>
        <r>    14.3138     0.0781     0.0512     0.0180     0.0179     0.0000     0.0000     0.0000     0.0000     0.0000 </r>
        <r>    14.4209     0.0632     0.0337     0.0120     0.0122     0.0000     0.0000     0.0000     0.0000     0.0000 </r>
        <r>    14.5279     0.0494     0.0141     0.0160     0.0090     0.0000     0.0000     0.0000     0.0000     0.0000 </r>
        <r>    14.6349     0.0356     0.0229     0.0303     0.0102     0.0000     0.0000     0.0000     0.0000     0.0000 </r>
        <r>    14.7420     0.0575     0.0452     0.0414     0.0176     0.0000     0.0000     0.0000     0.0000     0.0000 </r>
        <r>    14.8490     0.0815     0.0690     0.0388     0.0196     0.0000     0.0000     0.0000     0.0000     0.0000 </r>
        <r>    14.9560     0.0618     0.0898     0.0362     0.0282     0.0000     0.0000     0.0000     0.0000     0.0000 </r>
        <r>    15.0631     0.1061     0.2008     0.0983     0.1362     0.0000     0.0000     0.0000     0.0000     0.0000 </r>
        <r>    15.1701     0.1229     0.4345     0.3363     0.4214     0.0000     0.0000     0.0000     0.0000     0.0000 </r>
        <r>    15.2771     0.0501     0.3470     0.3612     0.4039     0.0000     0.0000     0.0000     0.0000     0.0000 </r>
        <r>    15.3842     0.0355     0.1775     0.2345     0.2433     0.0000     0.0000     0.0000     0.0000     0.0000 </r>
        <r>    15.4912     0.0378     0.1398     0.1757     0.1828     0.0000     0.0000     0.0000     0.0000     0.0000 </r>
        <r>    15.5983     0.0332     0.1339     0.1605     0.1780     0.0000     0.0000     0.0000     0.0000     0.0000 </r>
        <r>    15.7053     0.0368     0.1529     0.1928     0.1954     0.0000     0.0000     0.0000     0.0000     0.0000 </r>
        <r>    15.8123     0.0303     0.1447     0.1665     0.1599     0.0000     0.0000     0.0000     0.0000     0.0000 </r>
        <r>    15.9194     0.0214     0.0626     0.0840     0.1047     0.0000     0.0000     0.0000     0.0000     0.0000 </r>
        <r>    16.0264     0.0153     0.0333     0.0641     0.0715     0.0000     0.0000     0.0000     0.0000     0.0000 </r>
        <r>    16.1334     0.0185     0.0269     0.0565     0.0335     0.0000     0.0000     0.0000     0.0000     0.0000 </r>
        <r>    16.2405     0.0215     0.0232     0.0340     0.0434     0.0000     0.0000     0.0000     0.0000     0.0000 </r>
        <r>    16.3475     0.0260     0.0219     0.0645     0.0688     0.0000     0.0000     0.0000     0.0000     0.0000 </r>
        <r>    16.4545     0.0267     0.0245     0.0586     0.0439     0.0000     0.0000     0.0000     0.0000     0.0000 </r>
        <r>    16.5616     0.0215     0.0163     0.0284     0.0183     0.0000     0.0000     0.0000     0.0000     0.0000 </r>
        <r>    16.6686     0.0288     0.0150     0.0551     0.0346     0.0000     0.0000     0.0000     0.0000     0.0000 </r>
        <r>    16.7756     0.0359     0.0220     0.0880     0.0631     0.0000     0.0000     0.0000     0.0000     0.0000 </r>
        <r>    16.8827     0.0327     0.0119     0.0422     0.0285     0.0000     0.0000     0.0000     0.0000     0.0000 </r>
        <r>    16.9897     0.0465     0.0148     0.0199     0.0171     0.0000     0.0000     0.0000     0.0000     0.0000 </r>
        <r>    17.0967     0.0464     0.0189     0.0263     0.0253     0.0000     0.0000     0.0000     0.0000     0.0000 </r>
        <r>    17.2038     0.0533     0.0150     0.0551     0.0407     0.0000     0.0000     0.0000     0.0000     0.0000 </r>
        <r>    17.3108     0.0734     0.0425     0.0629     0.0368     0.0000     0.0000     0.0000     0.0000     0.0000 </r>
        <r>    17.4178     0.0495     0.0418     0.0369     0.0213     0.0000     0.0000     0.0000     0.0000     0.0000 </r>
        <r>    17.5249     0.0448     0.0201     0.0239     0.0148     0.0000     0.0000     0.0000     0.0000     0.0000 </r>
        <r>    17.6319     0.0307     0.0131     0.0367     0.0485     0.0000     0.0000     0.0000     0.0000     0.0000 </r>
        <r>    17.7389     0.0344     0.0215     0.0474     0.0773     0.0000     0.0000     0.0000     0.0000     0.0000 </r>
        <r>    17.8460     0.0415     0.0217     0.0229     0.0465     0.0000     0.0000     0.0000     0.0000     0.0000 </r>
        <r>    17.9530     0.0324     0.0177     0.0217     0.0252     0.0000     0.0000     0.0000     0.0000     0.0000 </r>
        <r>    18.0600     0.0247     0.0125     0.0215     0.0237     0.0000     0.0000     0.0000     0.0000     0.0000 </r>
        <r>    18.1671     0.0360     0.0178     0.0455     0.0508     0.0000     0.0000     0.0000     0.0000     0.0000 </r>
        <r>    18.2741     0.0384     0.0234     0.0392     0.0456     0.0000     0.0000     0.0000     0.0000     0.0000 </r>
        <r>    18.3811     0.0273     0.0136     0.0153     0.0229     0.0000     0.0000     0.0000     0.0000     0.0000 </r>
        <r>    18.4882     0.0133     0.0084     0.0136     0.0076     0.0000     0.0000     0.0000     0.0000     0.0000 </r>
        <r>    18.5952     0.0163     0.0140     0.0341     0.0191     0.0000     0.0000     0.0000     0.0000     0.0000 </r>
        <r>    18.7022     0.0151     0.0193     0.0418     0.0479     0.0000     0.0000     0.0000     0.0000     0.0000 </r>
        <r>    18.8093     0.0179     0.0183     0.0254     0.0215     0.0000     0.0000     0.0000     0.0000     0.0000 </r>
        <r>    18.9163     0.0271     0.0254     0.0350     0.0047     0.0000     0.0000     0.0000     0.0000     0.0000 </r>
        <r>    19.0233     0.0241     0.0162     0.0261     0.0084     0.0000     0.0000     0.0000     0.0000     0.0000 </r>
        <r>    19.1304     0.0130     0.0116     0.0293     0.0339     0.0000     0.0000     0.0000     0.0000     0.0000 </r>
        <r>    19.2374     0.0055     0.0157     0.0368     0.0348     0.0000     0.0000     0.0000     0.0000     0.0000 </r>
        <r>    19.3444     0.0053     0.0061     0.0160     0.0063     0.0000     0.0000     0.0000     0.0000     0.0000 </r>
        <r>    19.4515     0.0127     0.0012     0.0076     0.0043     0.0000     0.0000     0.0000     0.0000     0.0000 </r>
        <r>    19.5585     0.0106     0.0039     0.0193     0.0172     0.0000     0.0000     0.0000     0.0000     0.0000 </r>
        <r>    19.6655     0.0027     0.0110     0.0451     0.0416     0.0000     0.0000     0.0000     0.0000     0.0000 </r>
        <r>    19.7726     0.0038     0.0082     0.0275     0.0298     0.0000     0.0000     0.0000     0.0000     0.0000 </r>
        <r>    19.8796     0.0126     0.0038     0.0238     0.0186     0.0000     0.0000     0.0000     0.0000     0.0000 </r>
        <r>    19.9866     0.0083     0.0040     0.0287     0.0180     0.0000     0.0000     0.0000     0.0000     0.0000 </r>
        <r>    20.0937     0.0014     0.0016     0.0342     0.0298     0.0000     0.0000     0.0000     0.0000     0.0000 </r>
        <r>    20.2007     0.0064     0.0058     0.0394     0.0350     0.0000     0.0000     0.0000     0.0000     0.0000 </r>
        <r>    20.3077     0.0149     0.0145     0.0382     0.0259     0.0000     0.0000     0.0000     0.0000     0.0000 </r>
        <r>    20.4148     0.0075     0.0119     0.0258     0.0201     0.0000     0.0000     0.0000     0.0000     0.0000 </r>
        <r>    20.5218     0.0048     0.0105     0.0366     0.0326     0.0000     0.0000     0.0000     0.0000     0.0000 </r>
        <r>    20.6288     0.0094     0.0118     0.0533     0.0434     0.0000     0.0000     0.0000     0.0000     0.0000 </r>
        <r>    20.7359     0.0061     0.0105     0.0311     0.0272     0.0000     0.0000     0.0000     0.0000     0.0000 </r>
        <r>    20.8429     0.0027     0.0101     0.0328     0.0251     0.0000     0.0000     0.0000     0.0000     0.0000 </r>
        <r>    20.9499     0.0073     0.0103     0.0550     0.0443     0.0000     0.0000     0.0000     0.0000     0.0000 </r>
        <r>    21.0570     0.0056     0.0086     0.0480     0.0440     0.0000     0.0000     0.0000     0.0000     0.0000 </r>
        <r>    21.1640     0.0026     0.0084     0.0448     0.0311     0.0000     0.0000     0.0000     0.0000     0.0000 </r>
        <r>    21.2710     0.0072     0.0075     0.0531     0.0454     0.0000     0.0000     0.0000     0.0000     0.0000 </r>
        <r>    21.3781     0.0045     0.0067     0.0670     0.0539     0.0000     0.0000     0.0000     0.0000     0.0000 </r>
        <r>    21.4851     0.0042     0.0058     0.0623     0.0476     0.0000     0.0000     0.0000     0.0000     0.0000 </r>
        <r>    21.5921     0.0071     0.0046     0.0824     0.0661     0.0000     0.0000     0.0000     0.0000     0.0000 </r>
        <r>    21.6992     0.0045     0.0035     0.1145     0.0978     0.0000     0.0000     0.0000     0.0000     0.0000 </r>
        <r>    21.8062     0.0071     0.0019     0.1674     0.2162     0.0000     0.0000     0.0000     0.0000     0.0000 </r>
        <r>    21.9132     0.0034     0.0004     0.0933     0.1863     0.0000     0.0000     0.0000     0.0000     0.0000 </r>
        <r>    22.0203     0.0004     0.0000     0.0102     0.0313     0.0000     0.0000     0.0000     0.0000     0.0000 </r>
        <r>    22.1273     0.0000     0.0000     0.0002     0.0008     0.0000     0.0000     0.0000     0.0000     0.0000 </r>
        <r>    22.2344     0.0000     0.0000     0.0000     0.0000     0.0000     0.0000     0.0000     0.0000     0.0000 </r>
        <r>    22.3414     0.0000     0.0000     0.0000     0.0000     0.0000     0.0000     0.0000     0.0000     0.0000 </r>
        <r>    22.4484     0.0000     0.0000     0.0000     0.0000     0.0000     0.0000     0.0000     0.0000     0.0000 </r>
        <r>    22.5555     0.0000     0.0000     0.0000     0.0000     0.0000     0.0000     0.0000     0.0000     0.0000 </r>
        <r>    22.6625     0.0000     0.0000     0.0000     0.0000     0.0000     0.0000     0.0000     0.0000     0.0000 </r>
        <r>    22.7695     0.0000     0.0000     0.0000     0.0000     0.0000     0.0000     0.0000     0.0000     0.0000 </r>
        <r>    22.8766     0.0000     0.0000     0.0000     0.0000     0.0000     0.0000     0.0000     0.0000     0.0000 </r>
        <r>    22.9836     0.0000     0.0000     0.0000     0.0000     0.0000     0.0000     0.0000     0.0000     0.0000 </r>
        <r>    23.0906     0.0000     0.0000     0.0000     0.0000     0.0000     0.0000     0.0000     0.0000     0.0000 </r>
        <r>    23.1977     0.0000     0.0000     0.0000     0.0000     0.0000     0.0000     0.0000     0.0000     0.0000 </r>
        <r>    23.3047     0.0000     0.0000     0.0000     0.0000     0.0000     0.0000     0.0000     0.0000     0.0000 </r>
       </set>
      </set>
      <set comment="ion 2">
       <set comment="spin 1">
        <r>    -8.8055     0.0000     0.0000     0.0000     0.0000     0.0000     0.0000     0.0000     0.0000     0.0000 </r>
        <r>    -8.6984     0.0000     0.0000     0.0000     0.0000     0.0000     0.0000     0.0000     0.0000     0.0000 </r>
        <r>    -8.5914     0.0000     0.0000     0.0000     0.0000     0.0000     0.0000     0.0000     0.0000     0.0000 </r>
        <r>    -8.4844     0.0000     0.0000     0.0000     0.0000     0.0000     0.0000     0.0000     0.0000     0.0000 </r>
        <r>    -8.3773     0.0000     0.0000     0.0000     0.0000     0.0000     0.0000     0.0000     0.0000     0.0000 </r>
        <r>    -8.2703     0.0000     0.0000     0.0000     0.0000     0.0000     0.0000     0.0000     0.0000     0.0000 </r>
        <r>    -8.1633     0.0000     0.0000     0.0000     0.0000     0.0000     0.0000     0.0000     0.0000     0.0000 </r>
        <r>    -8.0562     0.0000     0.0000     0.0000     0.0000     0.0000     0.0000     0.0000     0.0000     0.0000 </r>
        <r>    -7.9492     0.0000     0.0000     0.0000     0.0000     0.0000     0.0000     0.0000     0.0000     0.0000 </r>
        <r>    -7.8422     0.0000     0.0000     0.0000     0.0000     0.0000     0.0000     0.0000     0.0000     0.0000 </r>
        <r>    -7.7351     0.0000     0.0000     0.0000     0.0000     0.0000     0.0000     0.0000     0.0000     0.0000 </r>
        <r>    -7.6281     0.0000     0.0000     0.0000     0.0000     0.0000     0.0000     0.0000     0.0000     0.0000 </r>
        <r>    -7.5211     0.0012     0.0000     0.0000     0.0000     0.0000     0.0000     0.0000     0.0000     0.0000 </r>
        <r>    -7.4140     0.0355     0.0000     0.0000     0.0000     0.0000     0.0000     0.0000     0.0000     0.0000 </r>
        <r>    -7.3070     0.1679     0.0001     0.0000     0.0000     0.0000     0.0000     0.0000     0.0000     0.0000 </r>
        <r>    -7.2000     0.1884     0.0002     0.0001     0.0001     0.0000     0.0000     0.0000     0.0000     0.0000 </r>
        <r>    -7.0929     0.1202     0.0004     0.0001     0.0002     0.0000     0.0000     0.0000     0.0000     0.0000 </r>
        <r>    -6.9859     0.0923     0.0005     0.0001     0.0002     0.0000     0.0000     0.0000     0.0000     0.0000 </r>
        <r>    -6.8789     0.0782     0.0006     0.0001     0.0003     0.0000     0.0000     0.0000     0.0000     0.0000 </r>
        <r>    -6.7718     0.0691     0.0006     0.0001     0.0003     0.0000     0.0000     0.0000     0.0000     0.0000 </r>
        <r>    -6.6648     0.0655     0.0008     0.0002     0.0003     0.0000     0.0000     0.0000     0.0000     0.0000 </r>
        <r>    -6.5578     0.0576     0.0007     0.0001     0.0004     0.0000     0.0000     0.0000     0.0000     0.0000 </r>
        <r>    -6.4507     0.0570     0.0009     0.0002     0.0003     0.0000     0.0000     0.0000     0.0000     0.0000 </r>
        <r>    -6.3437     0.0526     0.0008     0.0001     0.0004     0.0000     0.0000     0.0000     0.0000     0.0000 </r>
        <r>    -6.2367     0.0514     0.0009     0.0002     0.0004     0.0000     0.0000     0.0000     0.0000     0.0000 </r>
        <r>    -6.1296     0.0460     0.0010     0.0001     0.0003     0.0000     0.0000     0.0000     0.0000     0.0000 </r>
        <r>    -6.0226     0.0511     0.0009     0.0002     0.0006     0.0000     0.0000     0.0000     0.0000     0.0000 </r>
        <r>    -5.9156     0.0430     0.0011     0.0002     0.0003     0.0000     0.0000     0.0000     0.0000     0.0000 </r>
        <r>    -5.8085     0.0421     0.0011     0.0002     0.0004     0.0000     0.0000     0.0000     0.0000     0.0000 </r>
        <r>    -5.7015     0.0500     0.0010     0.0003     0.0007     0.0000     0.0000     0.0000     0.0000     0.0000 </r>
        <r>    -5.5945     0.0361     0.0012     0.0001     0.0003     0.0000     0.0000     0.0000     0.0000     0.0000 </r>
        <r>    -5.4874     0.0441     0.0012     0.0003     0.0004     0.0000     0.0000     0.0000     0.0000     0.0000 </r>
        <r>    -5.3804     0.0427     0.0009     0.0002     0.0008     0.0000     0.0000     0.0000     0.0000     0.0000 </r>
        <r>    -5.2734     0.0362     0.0012     0.0001     0.0004     0.0000     0.0000     0.0000     0.0000     0.0000 </r>
        <r>    -5.1663     0.0480     0.0016     0.0004     0.0004     0.0000     0.0000     0.0000     0.0000     0.0000 </r>
        <r>    -5.0593     0.0318     0.0008     0.0002     0.0005     0.0000     0.0000     0.0000     0.0000     0.0000 </r>
        <r>    -4.9523     0.0396     0.0011     0.0002     0.0007     0.0000     0.0000     0.0000     0.0000     0.0000 </r>
        <r>    -4.8452     0.0526     0.0019     0.0004     0.0005     0.0000     0.0000     0.0000     0.0000     0.0000 </r>
        <r>    -4.7382     0.0276     0.0011     0.0001     0.0002     0.0000     0.0000     0.0000     0.0000     0.0000 </r>
        <r>    -4.6312     0.0379     0.0009     0.0002     0.0008     0.0000     0.0000     0.0000     0.0000     0.0000 </r>
        <r>    -4.5241     0.0529     0.0014     0.0003     0.0008     0.0000     0.0000     0.0000     0.0000     0.0000 </r>
        <r>    -4.4171     0.0374     0.0018     0.0001     0.0002     0.0000     0.0000     0.0000     0.0000     0.0000 </r>
        <r>    -4.3101     0.0383     0.0010     0.0003     0.0004     0.0000     0.0000     0.0000     0.0000     0.0000 </r>
        <r>    -4.2030     0.0465     0.0009     0.0003     0.0009     0.0000     0.0000     0.0000     0.0000     0.0000 </r>
        <r>    -4.0960     0.0483     0.0013     0.0002     0.0006     0.0000     0.0000     0.0000     0.0000     0.0000 </r>
        <r>    -3.9890     0.0623     0.0020     0.0002     0.0003     0.0000     0.0000     0.0000     0.0000     0.0000 </r>
        <r>    -3.8819     0.0975     0.0011     0.0003     0.0005     0.0000     0.0000     0.0000     0.0000     0.0000 </r>
        <r>    -3.7749     0.2044     0.0013     0.0007     0.0012     0.0000     0.0000     0.0000     0.0000     0.0000 </r>
        <r>    -3.6678     0.1607     0.0016     0.0006     0.0007     0.0000     0.0000     0.0000     0.0000     0.0000 </r>
        <r>    -3.5608     0.1112     0.0021     0.0004     0.0002     0.0000     0.0000     0.0000     0.0000     0.0000 </r>
        <r>    -3.4538     0.0886     0.0013     0.0004     0.0004     0.0000     0.0000     0.0000     0.0000     0.0000 </r>
        <r>    -3.3467     0.0885     0.0011     0.0005     0.0007     0.0000     0.0000     0.0000     0.0000     0.0000 </r>
        <r>    -3.2397     0.0767     0.0013     0.0004     0.0003     0.0000     0.0000     0.0000     0.0000     0.0000 </r>
        <r>    -3.1327     0.0865     0.0020     0.0004     0.0002     0.0000     0.0000     0.0000     0.0000     0.0000 </r>
        <r>    -3.0256     0.0870     0.0013     0.0005     0.0005     0.0000     0.0000     0.0000     0.0000     0.0000 </r>
        <r>    -2.9186     0.0712     0.0008     0.0005     0.0003     0.0000     0.0000     0.0000     0.0000     0.0000 </r>
        <r>    -2.8116     0.0864     0.0014     0.0004     0.0002     0.0000     0.0000     0.0000     0.0000     0.0000 </r>
        <r>    -2.7045     0.1082     0.0015     0.0005     0.0003     0.0000     0.0000     0.0000     0.0000     0.0000 </r>
        <r>    -2.5975     0.0898     0.0007     0.0004     0.0002     0.0000     0.0000     0.0000     0.0000     0.0000 </r>
        <r>    -2.4905     0.2316     0.0009     0.0005     0.0002     0.0000     0.0000     0.0000     0.0000     0.0000 </r>
        <r>    -2.3834     0.8955     0.0008     0.0005     0.0002     0.0000     0.0000     0.0000     0.0000     0.0000 </r>
        <r>    -2.2764     1.2438     0.0005     0.0004     0.0002     0.0000     0.0000     0.0000     0.0000     0.0000 </r>
        <r>    -2.1694     0.7108     0.0002     0.0001     0.0001     0.0000     0.0000     0.0000     0.0000     0.0000 </r>
        <r>    -2.0623     0.2542     0.0000     0.0000     0.0000     0.0000     0.0000     0.0000     0.0000     0.0000 </r>
        <r>    -1.9553     0.0239     0.0000     0.0000     0.0000     0.0000     0.0000     0.0000     0.0000     0.0000 </r>
        <r>    -1.8483     0.0003     0.0000     0.0000     0.0000     0.0000     0.0000     0.0000     0.0000     0.0000 </r>
        <r>    -1.7412     0.0000     0.0000     0.0000     0.0000     0.0000     0.0000     0.0000     0.0000     0.0000 </r>
        <r>    -1.6342     0.0000     0.0000     0.0000     0.0000     0.0000     0.0000     0.0000     0.0000     0.0000 </r>
        <r>    -1.5272     0.0000     0.0000     0.0000     0.0000     0.0000     0.0000     0.0000     0.0000     0.0000 </r>
        <r>    -1.4201     0.0000     0.0000     0.0000     0.0000     0.0000     0.0000     0.0000     0.0000     0.0000 </r>
        <r>    -1.3131     0.0000     0.0000     0.0000     0.0000     0.0000     0.0000     0.0000     0.0000     0.0000 </r>
        <r>    -1.2061     0.0000     0.0000     0.0000     0.0000     0.0000     0.0000     0.0000     0.0000     0.0000 </r>
        <r>    -1.0990     0.0000     0.0000     0.0000     0.0000     0.0000     0.0000     0.0000     0.0000     0.0000 </r>
        <r>    -0.9920     0.0000     0.0000     0.0000     0.0000     0.0000     0.0000     0.0000     0.0000     0.0000 </r>
        <r>    -0.8850     0.0000     0.0000     0.0000     0.0000     0.0000     0.0000     0.0000     0.0000     0.0000 </r>
        <r>    -0.7779     0.0000     0.0000     0.0000     0.0000     0.0000     0.0000     0.0000     0.0000     0.0000 </r>
        <r>    -0.6709     0.0001     0.0003     0.0003     0.0003     0.0000     0.0000     0.0000     0.0000     0.0000 </r>
        <r>    -0.5639     0.0022     0.0067     0.0067     0.0067     0.0000     0.0000     0.0000     0.0000     0.0000 </r>
        <r>    -0.4568     0.0084     0.0249     0.0249     0.0248     0.0000     0.0000     0.0000     0.0000     0.0000 </r>
        <r>    -0.3498     0.0084     0.0240     0.0240     0.0238     0.0000     0.0000     0.0000     0.0000     0.0000 </r>
        <r>    -0.2428     0.0056     0.0148     0.0148     0.0145     0.0000     0.0000     0.0000     0.0000     0.0000 </r>
        <r>    -0.1357     0.0064     0.0142     0.0142     0.0137     0.0000     0.0000     0.0000     0.0000     0.0000 </r>
        <r>    -0.0287     0.0040     0.0105     0.0103     0.0097     0.0000     0.0000     0.0000     0.0000     0.0000 </r>
        <r>     0.0783     0.0033     0.0210     0.0088     0.0080     0.0000     0.0000     0.0000     0.0000     0.0000 </r>
        <r>     0.1854     0.0066     0.1389     0.0118     0.0107     0.0000     0.0000     0.0000     0.0000     0.0000 </r>
        <r>     0.2924     0.0062     0.2745     0.0113     0.0095     0.0000     0.0000     0.0000     0.0000     0.0000 </r>
        <r>     0.3994     0.0042     0.2129     0.0101     0.0072     0.0000     0.0000     0.0000     0.0000     0.0000 </r>
        <r>     0.5065     0.0040     0.1499     0.0126     0.0083     0.0000     0.0000     0.0000     0.0000     0.0000 </r>
        <r>     0.6135     0.0106     0.1365     0.0214     0.0133     0.0000     0.0000     0.0000     0.0000     0.0000 </r>
        <r>     0.7205     0.0139     0.1254     0.0351     0.0150     0.0000     0.0000     0.0000     0.0000     0.0000 </r>
        <r>     0.8276     0.0081     0.0876     0.0457     0.0116     0.0000     0.0000     0.0000     0.0000     0.0000 </r>
        <r>     0.9346     0.0079     0.0898     0.0693     0.0106     0.0000     0.0000     0.0000     0.0000     0.0000 </r>
        <r>     1.0416     0.0117     0.0646     0.0537     0.0097     0.0000     0.0000     0.0000     0.0000     0.0000 </r>
        <r>     1.1487     0.0201     0.0319     0.0163     0.0104     0.0000     0.0000     0.0000     0.0000     0.0000 </r>
        <r>     1.2557     0.0119     0.0141     0.0049     0.0062     0.0000     0.0000     0.0000     0.0000     0.0000 </r>
        <r>     1.3627     0.0074     0.0061     0.0031     0.0055     0.0000     0.0000     0.0000     0.0000     0.0000 </r>
        <r>     1.4698     0.0035     0.0028     0.0012     0.0024     0.0000     0.0000     0.0000     0.0000     0.0000 </r>
        <r>     1.5768     0.0146     0.0137     0.0039     0.0072     0.0000     0.0000     0.0000     0.0000     0.0000 </r>
        <r>     1.6838     0.0232     0.0246     0.0066     0.0094     0.0000     0.0000     0.0000     0.0000     0.0000 </r>
        <r>     1.7909     0.0078     0.0083     0.0022     0.0030     0.0000     0.0000     0.0000     0.0000     0.0000 </r>
        <r>     1.8979     0.0074     0.0051     0.0013     0.0048     0.0000     0.0000     0.0000     0.0000     0.0000 </r>
        <r>     2.0049     0.0087     0.0060     0.0015     0.0056     0.0000     0.0000     0.0000     0.0000     0.0000 </r>
        <r>     2.1120     0.0077     0.0086     0.0015     0.0023     0.0000     0.0000     0.0000     0.0000     0.0000 </r>
        <r>     2.2190     0.0206     0.0231     0.0065     0.0072     0.0000     0.0000     0.0000     0.0000     0.0000 </r>
        <r>     2.3260     0.0185     0.0217     0.0161     0.0158     0.0000     0.0000     0.0000     0.0000     0.0000 </r>
        <r>     2.4331     0.0075     0.0195     0.0270     0.0203     0.0000     0.0000     0.0000     0.0000     0.0000 </r>
        <r>     2.5401     0.0012     0.0194     0.0331     0.0235     0.0000     0.0000     0.0000     0.0000     0.0000 </r>
        <r>     2.6472     0.0060     0.0188     0.0281     0.0203     0.0000     0.0000     0.0000     0.0000     0.0000 </r>
        <r>     2.7542     0.0264     0.0392     0.0320     0.0278     0.0000     0.0000     0.0000     0.0000     0.0000 </r>
        <r>     2.8612     0.0226     0.0498     0.0596     0.0377     0.0000     0.0000     0.0000     0.0000     0.0000 </r>
        <r>     2.9683     0.0051     0.0468     0.0616     0.0268     0.0000     0.0000     0.0000     0.0000     0.0000 </r>
        <r>     3.0753     0.0023     0.0584     0.0847     0.0182     0.0000     0.0000     0.0000     0.0000     0.0000 </r>
        <r>     3.1823     0.0097     0.0481     0.0880     0.0223     0.0000     0.0000     0.0000     0.0000     0.0000 </r>
        <r>     3.2894     0.0264     0.0490     0.0652     0.0665     0.0000     0.0000     0.0000     0.0000     0.0000 </r>
        <r>     3.3964     0.0201     0.0344     0.0581     0.1245     0.0000     0.0000     0.0000     0.0000     0.0000 </r>
        <r>     3.5034     0.0092     0.0244     0.0713     0.1017     0.0000     0.0000     0.0000     0.0000     0.0000 </r>
        <r>     3.6105     0.0032     0.0136     0.0646     0.0706     0.0000     0.0000     0.0000     0.0000     0.0000 </r>
        <r>     3.7175     0.0109     0.0225     0.0544     0.0715     0.0000     0.0000     0.0000     0.0000     0.0000 </r>
        <r>     3.8245     0.0261     0.0420     0.0575     0.0663     0.0000     0.0000     0.0000     0.0000     0.0000 </r>
        <r>     3.9316     0.0162     0.0278     0.0703     0.0660     0.0000     0.0000     0.0000     0.0000     0.0000 </r>
        <r>     4.0386     0.0113     0.0192     0.0748     0.0656     0.0000     0.0000     0.0000     0.0000     0.0000 </r>
        <r>     4.1456     0.0075     0.0178     0.0640     0.0594     0.0000     0.0000     0.0000     0.0000     0.0000 </r>
        <r>     4.2527     0.0095     0.0191     0.0611     0.0692     0.0000     0.0000     0.0000     0.0000     0.0000 </r>
        <r>     4.3597     0.0238     0.0363     0.0769     0.0712     0.0000     0.0000     0.0000     0.0000     0.0000 </r>
        <r>     4.4667     0.0157     0.0321     0.0932     0.0754     0.0000     0.0000     0.0000     0.0000     0.0000 </r>
        <r>     4.5738     0.0086     0.0177     0.0905     0.0883     0.0000     0.0000     0.0000     0.0000     0.0000 </r>
        <r>     4.6808     0.0078     0.0109     0.1259     0.1233     0.0000     0.0000     0.0000     0.0000     0.0000 </r>
        <r>     4.7878     0.0099     0.0245     0.2897     0.2745     0.0000     0.0000     0.0000     0.0000     0.0000 </r>
        <r>     4.8949     0.0237     0.0464     0.3271     0.3092     0.0000     0.0000     0.0000     0.0000     0.0000 </r>
        <r>     5.0019     0.0116     0.0215     0.1732     0.1772     0.0000     0.0000     0.0000     0.0000     0.0000 </r>
        <r>     5.1089     0.0034     0.0125     0.1242     0.1298     0.0000     0.0000     0.0000     0.0000     0.0000 </r>
        <r>     5.2160     0.0100     0.0241     0.1261     0.1104     0.0000     0.0000     0.0000     0.0000     0.0000 </r>
        <r>     5.3230     0.0126     0.0359     0.1235     0.1095     0.0000     0.0000     0.0000     0.0000     0.0000 </r>
        <r>     5.4300     0.0168     0.0523     0.0772     0.0959     0.0000     0.0000     0.0000     0.0000     0.0000 </r>
        <r>     5.5371     0.0122     0.0448     0.0528     0.0730     0.0000     0.0000     0.0000     0.0000     0.0000 </r>
        <r>     5.6441     0.0042     0.0339     0.0465     0.0600     0.0000     0.0000     0.0000     0.0000     0.0000 </r>
        <r>     5.7511     0.0066     0.0304     0.0654     0.0594     0.0000     0.0000     0.0000     0.0000     0.0000 </r>
        <r>     5.8582     0.0169     0.0609     0.0606     0.0615     0.0000     0.0000     0.0000     0.0000     0.0000 </r>
        <r>     5.9652     0.0114     0.0508     0.0519     0.0625     0.0000     0.0000     0.0000     0.0000     0.0000 </r>
        <r>     6.0722     0.0079     0.0389     0.0318     0.0648     0.0000     0.0000     0.0000     0.0000     0.0000 </r>
        <r>     6.1793     0.0055     0.0353     0.0680     0.0655     0.0000     0.0000     0.0000     0.0000     0.0000 </r>
        <r>     6.2863     0.0112     0.0630     0.0673     0.0628     0.0000     0.0000     0.0000     0.0000     0.0000 </r>
        <r>     6.3933     0.0130     0.0549     0.0492     0.0658     0.0000     0.0000     0.0000     0.0000     0.0000 </r>
        <r>     6.5004     0.0046     0.0475     0.0579     0.0769     0.0000     0.0000     0.0000     0.0000     0.0000 </r>
        <r>     6.6074     0.0063     0.0493     0.0655     0.0719     0.0000     0.0000     0.0000     0.0000     0.0000 </r>
        <r>     6.7144     0.0103     0.0793     0.0840     0.1027     0.0000     0.0000     0.0000     0.0000     0.0000 </r>
        <r>     6.8215     0.0096     0.1089     0.0911     0.1231     0.0000     0.0000     0.0000     0.0000     0.0000 </r>
        <r>     6.9285     0.0048     0.1820     0.2024     0.2292     0.0000     0.0000     0.0000     0.0000     0.0000 </r>
        <r>     7.0355     0.0032     0.1698     0.2036     0.1974     0.0000     0.0000     0.0000     0.0000     0.0000 </r>
        <r>     7.1426     0.0091     0.1494     0.1162     0.1377     0.0000     0.0000     0.0000     0.0000     0.0000 </r>
        <r>     7.2496     0.0065     0.1162     0.1202     0.1342     0.0000     0.0000     0.0000     0.0000     0.0000 </r>
        <r>     7.3566     0.0037     0.0997     0.1275     0.1139     0.0000     0.0000     0.0000     0.0000     0.0000 </r>
        <r>     7.4637     0.0045     0.1177     0.1149     0.1225     0.0000     0.0000     0.0000     0.0000     0.0000 </r>
        <r>     7.5707     0.0048     0.1294     0.1196     0.1352     0.0000     0.0000     0.0000     0.0000     0.0000 </r>
        <r>     7.6777     0.0038     0.1393     0.1514     0.1583     0.0000     0.0000     0.0000     0.0000     0.0000 </r>
        <r>     7.7848     0.0029     0.1815     0.1713     0.1867     0.0000     0.0000     0.0000     0.0000     0.0000 </r>
        <r>     7.8918     0.0019     0.3057     0.2750     0.3257     0.0000     0.0000     0.0000     0.0000     0.0000 </r>
        <r>     7.9988     0.0008     0.3239     0.2757     0.3369     0.0000     0.0000     0.0000     0.0000     0.0000 </r>
        <r>     8.1059     0.0001     0.0834     0.0703     0.0866     0.0000     0.0000     0.0000     0.0000     0.0000 </r>
        <r>     8.2129     0.0000     0.0035     0.0029     0.0037     0.0000     0.0000     0.0000     0.0000     0.0000 </r>
        <r>     8.3199     0.0000     0.0000     0.0000     0.0000     0.0000     0.0000     0.0000     0.0000     0.0000 </r>
        <r>     8.4270     0.0000     0.0000     0.0000     0.0000     0.0000     0.0000     0.0000     0.0000     0.0000 </r>
        <r>     8.5340     0.0000     0.0000     0.0000     0.0000     0.0000     0.0000     0.0000     0.0000     0.0000 </r>
        <r>     8.6410     0.0000     0.0000     0.0000     0.0000     0.0000     0.0000     0.0000     0.0000     0.0000 </r>
        <r>     8.7481     0.0000     0.0000     0.0000     0.0000     0.0000     0.0000     0.0000     0.0000     0.0000 </r>
        <r>     8.8551     0.0000     0.0000     0.0000     0.0000     0.0000     0.0000     0.0000     0.0000     0.0000 </r>
        <r>     8.9621     0.0000     0.0000     0.0000     0.0000     0.0000     0.0000     0.0000     0.0000     0.0000 </r>
        <r>     9.0692     0.0000     0.0000     0.0000     0.0000     0.0000     0.0000     0.0000     0.0000     0.0000 </r>
        <r>     9.1762     0.0018     0.0000     0.0000     0.0000     0.0000     0.0000     0.0000     0.0000     0.0000 </r>
        <r>     9.2833     0.0258     0.0000     0.0001     0.0002     0.0000     0.0000     0.0000     0.0000     0.0000 </r>
        <r>     9.3903     0.0673     0.0000     0.0005     0.0013     0.0000     0.0000     0.0000     0.0000     0.0000 </r>
        <r>     9.4973     0.0538     0.0000     0.0012     0.0028     0.0000     0.0000     0.0000     0.0000     0.0000 </r>
        <r>     9.6044     0.0361     0.0001     0.0016     0.0039     0.0000     0.0000     0.0000     0.0000     0.0000 </r>
        <r>     9.7114     0.0293     0.0001     0.0020     0.0049     0.0000     0.0000     0.0000     0.0000     0.0000 </r>
        <r>     9.8184     0.0257     0.0002     0.0023     0.0053     0.0000     0.0000     0.0000     0.0000     0.0000 </r>
        <r>     9.9255     0.0250     0.0003     0.0026     0.0064     0.0000     0.0000     0.0000     0.0000     0.0000 </r>
        <r>    10.0325     0.0193     0.0004     0.0028     0.0062     0.0000     0.0000     0.0000     0.0000     0.0000 </r>
        <r>    10.1395     0.0240     0.0005     0.0030     0.0079     0.0000     0.0000     0.0000     0.0000     0.0000 </r>
        <r>    10.2466     0.0182     0.0006     0.0031     0.0065     0.0000     0.0000     0.0000     0.0000     0.0000 </r>
        <r>    10.3536     0.0181     0.0008     0.0033     0.0094     0.0000     0.0000     0.0000     0.0000     0.0000 </r>
        <r>    10.4606     0.0192     0.0009     0.0033     0.0071     0.0000     0.0000     0.0000     0.0000     0.0000 </r>
        <r>    10.5677     0.0185     0.0011     0.0034     0.0092     0.0000     0.0000     0.0000     0.0000     0.0000 </r>
        <r>    10.6747     0.0152     0.0012     0.0034     0.0098     0.0000     0.0000     0.0000     0.0000     0.0000 </r>
        <r>    10.7817     0.0140     0.0014     0.0034     0.0071     0.0000     0.0000     0.0000     0.0000     0.0000 </r>
        <r>    10.8888     0.0198     0.0016     0.0034     0.0122     0.0000     0.0000     0.0000     0.0000     0.0000 </r>
        <r>    10.9958     0.0156     0.0025     0.0037     0.0089     0.0000     0.0000     0.0000     0.0000     0.0000 </r>
        <r>    11.1028     0.0136     0.0030     0.0033     0.0100     0.0000     0.0000     0.0000     0.0000     0.0000 </r>
        <r>    11.2099     0.0095     0.0009     0.0009     0.0111     0.0000     0.0000     0.0000     0.0000     0.0000 </r>
        <r>    11.3169     0.0084     0.0009     0.0006     0.0047     0.0000     0.0000     0.0000     0.0000     0.0000 </r>
        <r>    11.4239     0.0092     0.0018     0.0012     0.0108     0.0000     0.0000     0.0000     0.0000     0.0000 </r>
        <r>    11.5310     0.0051     0.0006     0.0004     0.0104     0.0000     0.0000     0.0000     0.0000     0.0000 </r>
        <r>    11.6380     0.0035     0.0006     0.0004     0.0047     0.0000     0.0000     0.0000     0.0000     0.0000 </r>
        <r>    11.7450     0.0112     0.0018     0.0014     0.0140     0.0000     0.0000     0.0000     0.0000     0.0000 </r>
        <r>    11.8521     0.0067     0.0009     0.0007     0.0095     0.0000     0.0000     0.0000     0.0000     0.0000 </r>
        <r>    11.9591     0.0021     0.0003     0.0002     0.0066     0.0000     0.0000     0.0000     0.0000     0.0000 </r>
        <r>    12.0661     0.0061     0.0019     0.0013     0.0163     0.0000     0.0000     0.0000     0.0000     0.0000 </r>
        <r>    12.1732     0.0069     0.0103     0.0014     0.0087     0.0000     0.0000     0.0000     0.0000     0.0000 </r>
        <r>    12.2802     0.0056     0.0273     0.0009     0.0120     0.0000     0.0000     0.0000     0.0000     0.0000 </r>
        <r>    12.3872     0.0040     0.0240     0.0021     0.0162     0.0000     0.0000     0.0000     0.0000     0.0000 </r>
        <r>    12.4943     0.0044     0.0169     0.0041     0.0115     0.0000     0.0000     0.0000     0.0000     0.0000 </r>
        <r>    12.6013     0.0049     0.0134     0.0036     0.0204     0.0000     0.0000     0.0000     0.0000     0.0000 </r>
        <r>    12.7083     0.0050     0.0103     0.0032     0.0145     0.0000     0.0000     0.0000     0.0000     0.0000 </r>
        <r>    12.8154     0.0043     0.0110     0.0044     0.0225     0.0000     0.0000     0.0000     0.0000     0.0000 </r>
        <r>    12.9224     0.0042     0.0100     0.0064     0.0309     0.0000     0.0000     0.0000     0.0000     0.0000 </r>
        <r>    13.0294     0.0032     0.0117     0.0066     0.1107     0.0000     0.0000     0.0000     0.0000     0.0000 </r>
        <r>    13.1365     0.0126     0.0117     0.0085     0.2281     0.0000     0.0000     0.0000     0.0000     0.0000 </r>
        <r>    13.2435     0.0766     0.0115     0.0102     0.1261     0.0000     0.0000     0.0000     0.0000     0.0000 </r>
        <r>    13.3505     0.1319     0.0144     0.0109     0.0302     0.0000     0.0000     0.0000     0.0000     0.0000 </r>
        <r>    13.4576     0.0953     0.0126     0.0122     0.0151     0.0000     0.0000     0.0000     0.0000     0.0000 </r>
        <r>    13.5646     0.0779     0.0144     0.0141     0.0134     0.0000     0.0000     0.0000     0.0000     0.0000 </r>
        <r>    13.6716     0.0590     0.0148     0.0118     0.0083     0.0000     0.0000     0.0000     0.0000     0.0000 </r>
        <r>    13.7787     0.0379     0.0106     0.0126     0.0057     0.0000     0.0000     0.0000     0.0000     0.0000 </r>
        <r>    13.8857     0.0444     0.0038     0.0051     0.0026     0.0000     0.0000     0.0000     0.0000     0.0000 </r>
        <r>    13.9927     0.1582     0.0081     0.0066     0.0037     0.0000     0.0000     0.0000     0.0000     0.0000 </r>
        <r>    14.0998     0.2742     0.0140     0.0129     0.0052     0.0000     0.0000     0.0000     0.0000     0.0000 </r>
        <r>    14.2068     0.2268     0.0097     0.0097     0.0060     0.0000     0.0000     0.0000     0.0000     0.0000 </r>
        <r>    14.3138     0.1928     0.0111     0.0094     0.0074     0.0000     0.0000     0.0000     0.0000     0.0000 </r>
        <r>    14.4209     0.1123     0.0171     0.0119     0.0050     0.0000     0.0000     0.0000     0.0000     0.0000 </r>
        <r>    14.5279     0.0548     0.0140     0.0137     0.0083     0.0000     0.0000     0.0000     0.0000     0.0000 </r>
        <r>    14.6349     0.0520     0.0073     0.0099     0.0105     0.0000     0.0000     0.0000     0.0000     0.0000 </r>
        <r>    14.7420     0.0631     0.0153     0.0182     0.0113     0.0000     0.0000     0.0000     0.0000     0.0000 </r>
        <r>    14.8490     0.0735     0.0308     0.0237     0.0123     0.0000     0.0000     0.0000     0.0000     0.0000 </r>
        <r>    14.9560     0.0618     0.0247     0.0261     0.0079     0.0000     0.0000     0.0000     0.0000     0.0000 </r>
        <r>    15.0631     0.0663     0.0398     0.0542     0.0132     0.0000     0.0000     0.0000     0.0000     0.0000 </r>
        <r>    15.1701     0.0805     0.0565     0.0603     0.0251     0.0000     0.0000     0.0000     0.0000     0.0000 </r>
        <r>    15.2771     0.0508     0.0333     0.0289     0.0244     0.0000     0.0000     0.0000     0.0000     0.0000 </r>
        <r>    15.3842     0.0336     0.0205     0.0259     0.0252     0.0000     0.0000     0.0000     0.0000     0.0000 </r>
        <r>    15.4912     0.0281     0.0213     0.0289     0.0221     0.0000     0.0000     0.0000     0.0000     0.0000 </r>
        <r>    15.5983     0.0293     0.0244     0.0266     0.0284     0.0000     0.0000     0.0000     0.0000     0.0000 </r>
        <r>    15.7053     0.0230     0.0325     0.0316     0.0392     0.0000     0.0000     0.0000     0.0000     0.0000 </r>
        <r>    15.8123     0.0313     0.0293     0.0305     0.0276     0.0000     0.0000     0.0000     0.0000     0.0000 </r>
        <r>    15.9194     0.0190     0.0148     0.0220     0.0148     0.0000     0.0000     0.0000     0.0000     0.0000 </r>
        <r>    16.0264     0.0222     0.0153     0.0146     0.0166     0.0000     0.0000     0.0000     0.0000     0.0000 </r>
        <r>    16.1334     0.0318     0.0192     0.0129     0.0171     0.0000     0.0000     0.0000     0.0000     0.0000 </r>
        <r>    16.2405     0.0137     0.0128     0.0184     0.0105     0.0000     0.0000     0.0000     0.0000     0.0000 </r>
        <r>    16.3475     0.0219     0.0232     0.0242     0.0248     0.0000     0.0000     0.0000     0.0000     0.0000 </r>
        <r>    16.4545     0.0294     0.0355     0.0172     0.0356     0.0000     0.0000     0.0000     0.0000     0.0000 </r>
        <r>    16.5616     0.0157     0.0194     0.0132     0.0149     0.0000     0.0000     0.0000     0.0000     0.0000 </r>
        <r>    16.6686     0.0194     0.0298     0.0255     0.0279     0.0000     0.0000     0.0000     0.0000     0.0000 </r>
        <r>    16.7756     0.0309     0.0473     0.0386     0.0503     0.0000     0.0000     0.0000     0.0000     0.0000 </r>
        <r>    16.8827     0.0185     0.0342     0.0301     0.0317     0.0000     0.0000     0.0000     0.0000     0.0000 </r>
        <r>    16.9897     0.0212     0.0439     0.0360     0.0370     0.0000     0.0000     0.0000     0.0000     0.0000 </r>
        <r>    17.0967     0.0243     0.0429     0.0400     0.0357     0.0000     0.0000     0.0000     0.0000     0.0000 </r>
        <r>    17.2038     0.0266     0.0488     0.0496     0.0418     0.0000     0.0000     0.0000     0.0000     0.0000 </r>
        <r>    17.3108     0.0458     0.0673     0.0606     0.0394     0.0000     0.0000     0.0000     0.0000     0.0000 </r>
        <r>    17.4178     0.0323     0.0431     0.0443     0.0213     0.0000     0.0000     0.0000     0.0000     0.0000 </r>
        <r>    17.5249     0.0189     0.0356     0.0483     0.0200     0.0000     0.0000     0.0000     0.0000     0.0000 </r>
        <r>    17.6319     0.0141     0.0340     0.0458     0.0265     0.0000     0.0000     0.0000     0.0000     0.0000 </r>
        <r>    17.7389     0.0161     0.0487     0.0646     0.0417     0.0000     0.0000     0.0000     0.0000     0.0000 </r>
        <r>    17.8460     0.0161     0.0730     0.0830     0.0564     0.0000     0.0000     0.0000     0.0000     0.0000 </r>
        <r>    17.9530     0.0212     0.0991     0.0916     0.0812     0.0000     0.0000     0.0000     0.0000     0.0000 </r>
        <r>    18.0600     0.0118     0.0596     0.0628     0.0482     0.0000     0.0000     0.0000     0.0000     0.0000 </r>
        <r>    18.1671     0.0080     0.0447     0.0731     0.0438     0.0000     0.0000     0.0000     0.0000     0.0000 </r>
        <r>    18.2741     0.0096     0.0528     0.0580     0.0412     0.0000     0.0000     0.0000     0.0000     0.0000 </r>
        <r>    18.3811     0.0059     0.0463     0.0348     0.0209     0.0000     0.0000     0.0000     0.0000     0.0000 </r>
        <r>    18.4882     0.0051     0.0186     0.0279     0.0137     0.0000     0.0000     0.0000     0.0000     0.0000 </r>
        <r>    18.5952     0.0080     0.0205     0.0484     0.0284     0.0000     0.0000     0.0000     0.0000     0.0000 </r>
        <r>    18.7022     0.0049     0.0408     0.0439     0.0349     0.0000     0.0000     0.0000     0.0000     0.0000 </r>
        <r>    18.8093     0.0035     0.0541     0.0455     0.0288     0.0000     0.0000     0.0000     0.0000     0.0000 </r>
        <r>    18.9163     0.0078     0.0675     0.0812     0.0379     0.0000     0.0000     0.0000     0.0000     0.0000 </r>
        <r>    19.0233     0.0049     0.0473     0.0712     0.0222     0.0000     0.0000     0.0000     0.0000     0.0000 </r>
        <r>    19.1304     0.0019     0.0421     0.0406     0.0219     0.0000     0.0000     0.0000     0.0000     0.0000 </r>
        <r>    19.2374     0.0050     0.0290     0.0274     0.0327     0.0000     0.0000     0.0000     0.0000     0.0000 </r>
        <r>    19.3444     0.0045     0.0047     0.0185     0.0131     0.0000     0.0000     0.0000     0.0000     0.0000 </r>
        <r>    19.4515     0.0020     0.0105     0.0298     0.0026     0.0000     0.0000     0.0000     0.0000     0.0000 </r>
        <r>    19.5585     0.0033     0.0219     0.0171     0.0173     0.0000     0.0000     0.0000     0.0000     0.0000 </r>
        <r>    19.6655     0.0043     0.0138     0.0277     0.0465     0.0000     0.0000     0.0000     0.0000     0.0000 </r>
        <r>    19.7726     0.0022     0.0102     0.0309     0.0294     0.0000     0.0000     0.0000     0.0000     0.0000 </r>
        <r>    19.8796     0.0045     0.0197     0.0393     0.0200     0.0000     0.0000     0.0000     0.0000     0.0000 </r>
        <r>    19.9866     0.0049     0.0179     0.0233     0.0292     0.0000     0.0000     0.0000     0.0000     0.0000 </r>
        <r>    20.0937     0.0017     0.0038     0.0284     0.0329     0.0000     0.0000     0.0000     0.0000     0.0000 </r>
        <r>    20.2007     0.0054     0.0207     0.0387     0.0358     0.0000     0.0000     0.0000     0.0000     0.0000 </r>
        <r>    20.3077     0.0134     0.0504     0.0372     0.0357     0.0000     0.0000     0.0000     0.0000     0.0000 </r>
        <r>    20.4148     0.0096     0.0340     0.0238     0.0259     0.0000     0.0000     0.0000     0.0000     0.0000 </r>
        <r>    20.5218     0.0082     0.0281     0.0323     0.0385     0.0000     0.0000     0.0000     0.0000     0.0000 </r>
        <r>    20.6288     0.0102     0.0441     0.0408     0.0581     0.0000     0.0000     0.0000     0.0000     0.0000 </r>
        <r>    20.7359     0.0092     0.0317     0.0272     0.0351     0.0000     0.0000     0.0000     0.0000     0.0000 </r>
        <r>    20.8429     0.0092     0.0190     0.0279     0.0392     0.0000     0.0000     0.0000     0.0000     0.0000 </r>
        <r>    20.9499     0.0099     0.0366     0.0475     0.0659     0.0000     0.0000     0.0000     0.0000     0.0000 </r>
        <r>    21.0570     0.0084     0.0284     0.0490     0.0576     0.0000     0.0000     0.0000     0.0000     0.0000 </r>
        <r>    21.1640     0.0085     0.0164     0.0377     0.0578     0.0000     0.0000     0.0000     0.0000     0.0000 </r>
        <r>    21.2710     0.0078     0.0361     0.0544     0.0691     0.0000     0.0000     0.0000     0.0000     0.0000 </r>
        <r>    21.3781     0.0071     0.0231     0.0673     0.0882     0.0000     0.0000     0.0000     0.0000     0.0000 </r>
        <r>    21.4851     0.0062     0.0220     0.0620     0.0852     0.0000     0.0000     0.0000     0.0000     0.0000 </r>
        <r>    21.5921     0.0050     0.0350     0.0874     0.1149     0.0000     0.0000     0.0000     0.0000     0.0000 </r>
        <r>    21.6992     0.0038     0.0228     0.1358     0.1632     0.0000     0.0000     0.0000     0.0000     0.0000 </r>
        <r>    21.8062     0.0022     0.0340     0.3054     0.2424     0.0000     0.0000     0.0000     0.0000     0.0000 </r>
        <r>    21.9132     0.0005     0.0153     0.2636     0.1357     0.0000     0.0000     0.0000     0.0000     0.0000 </r>
        <r>    22.0203     0.0000     0.0015     0.0440     0.0149     0.0000     0.0000     0.0000     0.0000     0.0000 </r>
        <r>    22.1273     0.0000     0.0000     0.0011     0.0002     0.0000     0.0000     0.0000     0.0000     0.0000 </r>
        <r>    22.2344     0.0000     0.0000     0.0000     0.0000     0.0000     0.0000     0.0000     0.0000     0.0000 </r>
        <r>    22.3414     0.0000     0.0000     0.0000     0.0000     0.0000     0.0000     0.0000     0.0000     0.0000 </r>
        <r>    22.4484     0.0000     0.0000     0.0000     0.0000     0.0000     0.0000     0.0000     0.0000     0.0000 </r>
        <r>    22.5555     0.0000     0.0000     0.0000     0.0000     0.0000     0.0000     0.0000     0.0000     0.0000 </r>
        <r>    22.6625     0.0000     0.0000     0.0000     0.0000     0.0000     0.0000     0.0000     0.0000     0.0000 </r>
        <r>    22.7695     0.0000     0.0000     0.0000     0.0000     0.0000     0.0000     0.0000     0.0000     0.0000 </r>
        <r>    22.8766     0.0000     0.0000     0.0000     0.0000     0.0000     0.0000     0.0000     0.0000     0.0000 </r>
        <r>    22.9836     0.0000     0.0000     0.0000     0.0000     0.0000     0.0000     0.0000     0.0000     0.0000 </r>
        <r>    23.0906     0.0000     0.0000     0.0000     0.0000     0.0000     0.0000     0.0000     0.0000     0.0000 </r>
        <r>    23.1977     0.0000     0.0000     0.0000     0.0000     0.0000     0.0000     0.0000     0.0000     0.0000 </r>
        <r>    23.3047     0.0000     0.0000     0.0000     0.0000     0.0000     0.0000     0.0000     0.0000     0.0000 </r>
       </set>
      </set>
     </set>
    </array>
   </partial>
  </dos>
  <projected>
   <eigenvalues>
    <array>
     <dimension dim="1">band</dimension>
     <dimension dim="2">kpoint</dimension>
     <dimension dim="3">spin</dimension>
     <field>eigene</field>
     <field>occ</field>
     <set>
      <set comment="spin 1">
       <set comment="kpoint 1">
        <r>   -7.3459    1.0000 </r>
        <r>    7.9415    1.0000 </r>
        <r>    7.9415    1.0000 </r>
        <r>    7.9415    1.0000 </r>
        <r>   14.0022    0.0000 </r>
        <r>   15.1469    0.0000 </r>
        <r>   15.1469    0.0000 </r>
        <r>   15.1469    0.0000 </r>
       </set>
       <set comment="kpoint 2">
        <r>   -7.3281    1.0000 </r>
        <r>    7.8820    1.0000 </r>
        <r>    7.9052    1.0000 </r>
        <r>    7.9052    1.0000 </r>
        <r>   14.0570    0.0000 </r>
        <r>   15.0974    0.0000 </r>
        <r>   15.1994    0.0000 </r>
        <r>   15.1994    0.0000 </r>
       </set>
       <set comment="kpoint 3">
        <r>   -7.2745    1.0000 </r>
        <r>    7.7107    1.0000 </r>
        <r>    7.8002    1.0000 </r>
        <r>    7.8002    1.0000 </r>
        <r>   14.2052    0.0000 </r>
        <r>   14.9596    0.0000 </r>
        <r>   15.3527    0.0000 </r>
        <r>   15.3527    0.0000 </r>
       </set>
       <set comment="kpoint 4">
        <r>   -7.1853    1.0000 </r>
        <r>    7.4458    1.0000 </r>
        <r>    7.6367    1.0000 </r>
        <r>    7.6367    1.0000 </r>
        <r>   14.3699    0.0000 </r>
        <r>   14.7941    0.0000 </r>
        <r>   15.5959    0.0000 </r>
        <r>   15.5959    0.0000 </r>
       </set>
       <set comment="kpoint 5">
        <r>   -7.0608    1.0000 </r>
        <r>    7.1089    1.0000 </r>
        <r>    7.4282    1.0000 </r>
        <r>    7.4282    1.0000 </r>
        <r>   14.2721    0.0000 </r>
        <r>   14.8513    0.0000 </r>
        <r>   15.9143    0.0000 </r>
        <r>   15.9143    0.0000 </r>
       </set>
       <set comment="kpoint 6">
        <r>   -6.9013    1.0000 </r>
        <r>    6.7187    1.0000 </r>
        <r>    7.1889    1.0000 </r>
        <r>    7.1889    1.0000 </r>
        <r>   13.9454    0.0000 </r>
        <r>   15.0494    0.0000 </r>
        <r>   16.2923    0.0000 </r>
        <r>   16.2923    0.0000 </r>
       </set>
       <set comment="kpoint 7">
        <r>   -6.7073    1.0000 </r>
        <r>    6.2897    1.0000 </r>
        <r>    6.9317    1.0000 </r>
        <r>    6.9317    1.0000 </r>
        <r>   13.5492    0.0000 </r>
        <r>   15.1549    0.0000 </r>
        <r>   16.7155    0.0000 </r>
        <r>   16.7155    0.0000 </r>
       </set>
       <set comment="kpoint 8">
        <r>   -6.4794    1.0000 </r>
        <r>    5.8316    1.0000 </r>
        <r>    6.6673    1.0000 </r>
        <r>    6.6673    1.0000 </r>
        <r>   13.1157    0.0000 </r>
        <r>   15.0680    0.0000 </r>
        <r>   17.1713    0.0000 </r>
        <r>   17.1713    0.0000 </r>
       </set>
       <set comment="kpoint 9">
        <r>   -6.2185    1.0000 </r>
        <r>    5.3505    1.0000 </r>
        <r>    6.4043    1.0000 </r>
        <r>    6.4043    1.0000 </r>
        <r>   12.6584    0.0000 </r>
        <r>   14.7928    0.0000 </r>
        <r>   17.6493    0.0000 </r>
        <r>   17.6493    0.0000 </r>
       </set>
       <set comment="kpoint 10">
        <r>   -5.9256    1.0000 </r>
        <r>    4.8504    1.0000 </r>
        <r>    6.1495    1.0000 </r>
        <r>    6.1495    1.0000 </r>
        <r>   12.1885    0.0000 </r>
        <r>   14.4158    0.0000 </r>
        <r>   18.1407    0.0000 </r>
        <r>   18.1408    0.0000 </r>
       </set>
       <set comment="kpoint 11">
        <r>   -5.6020    1.0000 </r>
        <r>    4.3339    1.0000 </r>
        <r>    5.9081    1.0000 </r>
        <r>    5.9081    1.0000 </r>
        <r>   11.7182    0.0000 </r>
        <r>   14.0165    0.0000 </r>
        <r>   18.6380    0.0000 </r>
        <r>   18.6381    0.0000 </r>
       </set>
       <set comment="kpoint 12">
        <r>   -5.2496    1.0000 </r>
        <r>    3.8032    1.0000 </r>
        <r>    5.6843    1.0000 </r>
        <r>    5.6843    1.0000 </r>
        <r>   11.2616    0.0000 </r>
        <r>   13.6384    0.0000 </r>
        <r>   19.1344    0.0000 </r>
        <r>   19.1353    0.0000 </r>
       </set>
       <set comment="kpoint 13">
        <r>   -4.8708    1.0000 </r>
        <r>    3.2613    1.0000 </r>
        <r>    5.4811    1.0000 </r>
        <r>    5.4811    1.0000 </r>
        <r>   10.8328    0.0000 </r>
        <r>   13.3000    0.0000 </r>
        <r>   19.6226    0.0000 </r>
        <r>   19.6227    0.0000 </r>
       </set>
       <set comment="kpoint 14">
        <r>   -4.4692    1.0000 </r>
        <r>    2.7125    1.0000 </r>
        <r>    5.3011    1.0000 </r>
        <r>    5.3011    1.0000 </r>
        <r>   10.4442    0.0000 </r>
        <r>   13.0074    0.0000 </r>
        <r>   20.0947    0.0000 </r>
        <r>   20.0954    0.0000 </r>
       </set>
       <set comment="kpoint 15">
        <r>   -4.0500    1.0000 </r>
        <r>    2.1635    1.0000 </r>
        <r>    5.1461    1.0000 </r>
        <r>    5.1461    1.0000 </r>
        <r>   10.1053    0.0000 </r>
        <r>   12.7618    0.0000 </r>
        <r>   20.5403    0.0000 </r>
        <r>   20.5439    0.0000 </r>
       </set>
       <set comment="kpoint 16">
        <r>   -3.6217    1.0000 </r>
        <r>    1.6247    1.0000 </r>
        <r>    5.0175    1.0000 </r>
        <r>    5.0175    1.0000 </r>
        <r>    9.8226    0.0000 </r>
        <r>   12.5626    0.0000 </r>
        <r>   20.9463    0.0000 </r>
        <r>   20.9474    0.0000 </r>
       </set>
       <set comment="kpoint 17">
        <r>   -3.1993    1.0000 </r>
        <r>    1.1134    1.0000 </r>
        <r>    4.9165    1.0000 </r>
        <r>    4.9165    1.0000 </r>
        <r>    9.6003    0.0000 </r>
        <r>   12.4088    0.0000 </r>
        <r>   21.2958    0.0000 </r>
        <r>   21.2982    0.0000 </r>
       </set>
       <set comment="kpoint 18">
        <r>   -2.8117    1.0000 </r>
        <r>    0.6604    1.0000 </r>
        <r>    4.8438    1.0000 </r>
        <r>    4.8438    1.0000 </r>
        <r>    9.4405    0.0000 </r>
        <r>   12.2995    0.0000 </r>
        <r>   21.5685    0.0000 </r>
        <r>   21.5714    0.0000 </r>
       </set>
       <set comment="kpoint 19">
        <r>   -2.5152    1.0000 </r>
        <r>    0.3238    1.0000 </r>
        <r>    4.8000    1.0000 </r>
        <r>    4.8000    1.0000 </r>
        <r>    9.3443    0.0000 </r>
        <r>   12.2342    0.0000 </r>
        <r>   21.7435    0.0000 </r>
        <r>   21.7458    0.0000 </r>
       </set>
       <set comment="kpoint 20">
        <r>   -2.3983    1.0000 </r>
        <r>    0.1933    1.0000 </r>
        <r>    4.7853    1.0000 </r>
        <r>    4.7853    1.0000 </r>
        <r>    9.3122    0.0000 </r>
        <r>   12.2124    0.0000 </r>
        <r>   21.8037    0.0000 </r>
        <r>   21.8142    0.0000 </r>
       </set>
       <set comment="kpoint 21">
        <r>   -2.3983    1.0000 </r>
        <r>    0.1933    1.0000 </r>
        <r>    4.7853    1.0000 </r>
        <r>    4.7853    1.0000 </r>
        <r>    9.3122    0.0000 </r>
        <r>   12.2124    0.0000 </r>
        <r>   21.8037    0.0000 </r>
        <r>   21.8045    0.0000 </r>
       </set>
       <set comment="kpoint 22">
        <r>   -2.3976    1.0000 </r>
        <r>    0.1951    1.0000 </r>
        <r>    4.7703    1.0000 </r>
        <r>    4.7870    1.0000 </r>
        <r>    9.3240    0.0000 </r>
        <r>   12.2231    0.0000 </r>
        <r>   21.7963    0.0000 </r>
        <r>   21.8011    0.0000 </r>
       </set>
       <set comment="kpoint 23">
        <r>   -2.3955    1.0000 </r>
        <r>    0.2005    1.0000 </r>
        <r>    4.7260    1.0000 </r>
        <r>    4.7921    1.0000 </r>
        <r>    9.3588    0.0000 </r>
        <r>   12.2551    0.0000 </r>
        <r>   21.7744    0.0000 </r>
        <r>   21.7821    0.0000 </r>
       </set>
       <set comment="kpoint 24">
        <r>   -2.3921    1.0000 </r>
        <r>    0.2093    1.0000 </r>
        <r>    4.6544    1.0000 </r>
        <r>    4.8005    1.0000 </r>
        <r>    9.4142    0.0000 </r>
        <r>   12.3086    0.0000 </r>
        <r>   21.7377    0.0000 </r>
        <r>   21.7565    0.0000 </r>
       </set>
       <set comment="kpoint 25">
        <r>   -2.3875    1.0000 </r>
        <r>    0.2217    1.0000 </r>
        <r>    4.5587    1.0000 </r>
        <r>    4.8123    1.0000 </r>
        <r>    9.4871    0.0000 </r>
        <r>   12.3838    0.0000 </r>
        <r>   21.6766    0.0000 </r>
        <r>   21.7168    0.0000 </r>
       </set>
       <set comment="kpoint 26">
        <r>   -2.3819    1.0000 </r>
        <r>    0.2374    1.0000 </r>
        <r>    4.4425    1.0000 </r>
        <r>    4.8274    1.0000 </r>
        <r>    9.5737    0.0000 </r>
        <r>   12.4810    0.0000 </r>
        <r>   21.6099    0.0000 </r>
        <r>   21.6719    0.0000 </r>
       </set>
       <set comment="kpoint 27">
        <r>   -2.3753    1.0000 </r>
        <r>    0.2565    1.0000 </r>
        <r>    4.3096    1.0000 </r>
        <r>    4.8459    1.0000 </r>
        <r>    9.6702    0.0000 </r>
        <r>   12.6001    0.0000 </r>
        <r>   21.5223    0.0000 </r>
        <r>   21.6480    0.0000 </r>
       </set>
       <set comment="kpoint 28">
        <r>   -2.3680    1.0000 </r>
        <r>    0.2788    1.0000 </r>
        <r>    4.1639    1.0000 </r>
        <r>    4.8676    1.0000 </r>
        <r>    9.7732    0.0000 </r>
        <r>   12.7410    0.0000 </r>
        <r>   21.4261    0.0000 </r>
        <r>   21.5458    0.0000 </r>
       </set>
       <set comment="kpoint 29">
        <r>   -2.3605    1.0000 </r>
        <r>    0.3042    1.0000 </r>
        <r>    4.0090    1.0000 </r>
        <r>    4.8927    1.0000 </r>
        <r>    9.8797    0.0000 </r>
        <r>   12.9031    0.0000 </r>
        <r>   21.3179    0.0000 </r>
        <r>   21.4712    0.0000 </r>
       </set>
       <set comment="kpoint 30">
        <r>   -2.3529    1.0000 </r>
        <r>    0.3325    1.0000 </r>
        <r>    3.8480    1.0000 </r>
        <r>    4.9209    1.0000 </r>
        <r>    9.9878    0.0000 </r>
        <r>   13.0856    0.0000 </r>
        <r>   21.1992    0.0000 </r>
        <r>   21.3878    0.0000 </r>
       </set>
       <set comment="kpoint 31">
        <r>   -2.3457    1.0000 </r>
        <r>    0.3635    1.0000 </r>
        <r>    3.6840    1.0000 </r>
        <r>    4.9524    1.0000 </r>
        <r>   10.0958    0.0000 </r>
        <r>   13.2871    0.0000 </r>
        <r>   21.0721    0.0000 </r>
        <r>   21.2976    0.0000 </r>
       </set>
       <set comment="kpoint 32">
        <r>   -2.3393    1.0000 </r>
        <r>    0.3969    1.0000 </r>
        <r>    3.5196    1.0000 </r>
        <r>    4.9869    1.0000 </r>
        <r>   10.2030    0.0000 </r>
        <r>   13.5060    0.0000 </r>
        <r>   20.9346    0.0000 </r>
        <r>   21.2011    0.0000 </r>
       </set>
       <set comment="kpoint 33">
        <r>   -2.3344    1.0000 </r>
        <r>    0.4324    1.0000 </r>
        <r>    3.3574    1.0000 </r>
        <r>    5.0247    1.0000 </r>
        <r>   10.3090    0.0000 </r>
        <r>   13.7405    0.0000 </r>
        <r>   20.7918    0.0000 </r>
        <r>   21.0983    0.0000 </r>
       </set>
       <set comment="kpoint 34">
        <r>   -2.3316    1.0000 </r>
        <r>    0.4698    1.0000 </r>
        <r>    3.1998    1.0000 </r>
        <r>    5.0654    1.0000 </r>
        <r>   10.4138    0.0000 </r>
        <r>   13.9885    0.0000 </r>
        <r>   20.6412    0.0000 </r>
        <r>   20.9903    0.0000 </r>
       </set>
       <set comment="kpoint 35">
        <r>   -2.3315    1.0000 </r>
        <r>    0.5085    1.0000 </r>
        <r>    3.0490    1.0000 </r>
        <r>    5.1091    1.0000 </r>
        <r>   10.5177    0.0000 </r>
        <r>   14.2477    0.0000 </r>
        <r>   20.4859    0.0000 </r>
        <r>   20.8765    0.0000 </r>
       </set>
       <set comment="kpoint 36">
        <r>   -2.3350    1.0000 </r>
        <r>    0.5481    1.0000 </r>
        <r>    2.9073    1.0000 </r>
        <r>    5.1558    1.0000 </r>
        <r>   10.6210    0.0000 </r>
        <r>   14.5159    0.0000 </r>
        <r>   20.3266    0.0000 </r>
        <r>   20.7594    0.0000 </r>
       </set>
       <set comment="kpoint 37">
        <r>   -2.3430    1.0000 </r>
        <r>    0.5881    1.0000 </r>
        <r>    2.7768    1.0000 </r>
        <r>    5.2053    1.0000 </r>
        <r>   10.7241    0.0000 </r>
        <r>   14.7903    0.0000 </r>
        <r>   20.1641    0.0000 </r>
        <r>   20.6419    0.0000 </r>
       </set>
       <set comment="kpoint 38">
        <r>   -2.3563    1.0000 </r>
        <r>    0.6279    1.0000 </r>
        <r>    2.6597    1.0000 </r>
        <r>    5.2576    1.0000 </r>
        <r>   10.8275    0.0000 </r>
        <r>   15.0685    0.0000 </r>
        <r>   19.9984    0.0000 </r>
        <r>   20.5087    0.0000 </r>
       </set>
       <set comment="kpoint 39">
        <r>   -2.3759    1.0000 </r>
        <r>    0.6671    1.0000 </r>
        <r>    2.5580    1.0000 </r>
        <r>    5.3125    1.0000 </r>
        <r>   10.9316    0.0000 </r>
        <r>   15.3472    0.0000 </r>
        <r>   19.8312    0.0000 </r>
        <r>   20.3771    0.0000 </r>
       </set>
       <set comment="kpoint 40">
        <r>   -2.4027    1.0000 </r>
        <r>    0.7053    1.0000 </r>
        <r>    2.4733    1.0000 </r>
        <r>    5.3700    1.0000 </r>
        <r>   11.0367    0.0000 </r>
        <r>   15.6231    0.0000 </r>
        <r>   19.6627    0.0000 </r>
        <r>   20.2417    0.0000 </r>
       </set>
       <set comment="kpoint 41">
        <r>   -2.4027    1.0000 </r>
        <r>    0.7053    1.0000 </r>
        <r>    2.4733    1.0000 </r>
        <r>    5.3700    1.0000 </r>
        <r>   11.0367    0.0000 </r>
        <r>   15.6231    0.0000 </r>
        <r>   19.6627    0.0000 </r>
        <r>   20.2422    0.0000 </r>
       </set>
       <set comment="kpoint 42">
        <r>   -2.5343    1.0000 </r>
        <r>    0.8132    1.0000 </r>
        <r>    2.3340    1.0000 </r>
        <r>    5.5571    1.0000 </r>
        <r>   11.3615    0.0000 </r>
        <r>   16.3923    0.0000 </r>
        <r>   19.1574    0.0000 </r>
        <r>   19.8178    0.0000 </r>
       </set>
       <set comment="kpoint 43">
        <r>   -2.7518    1.0000 </r>
        <r>    0.9257    1.0000 </r>
        <r>    2.3661    1.0000 </r>
        <r>    5.7632    1.0000 </r>
        <r>   11.7048    0.0000 </r>
        <r>   16.9621    0.0000 </r>
        <r>   18.6627    0.0000 </r>
        <r>   19.3812    0.0000 </r>
       </set>
       <set comment="kpoint 44">
        <r>   -3.0509    1.0000 </r>
        <r>    1.0758    1.0000 </r>
        <r>    2.5366    1.0000 </r>
        <r>    5.9846    1.0000 </r>
        <r>   12.0695    0.0000 </r>
        <r>   17.2131    0.0000 </r>
        <r>   18.1908    0.0000 </r>
        <r>   18.9487    0.0000 </r>
       </set>
       <set comment="kpoint 45">
        <r>   -3.4118    1.0000 </r>
        <r>    1.2875    1.0000 </r>
        <r>    2.8029    1.0000 </r>
        <r>    6.2163    1.0000 </r>
        <r>   12.4557    0.0000 </r>
        <r>   17.1731    0.0000 </r>
        <r>   17.7509    0.0000 </r>
        <r>   18.5320    0.0000 </r>
       </set>
       <set comment="kpoint 46">
        <r>   -3.8097    1.0000 </r>
        <r>    1.5663    1.0000 </r>
        <r>    3.1345    1.0000 </r>
        <r>    6.4529    1.0000 </r>
        <r>   12.8605    0.0000 </r>
        <r>   16.9649    0.0000 </r>
        <r>   17.3502    0.0000 </r>
        <r>   18.1385    0.0000 </r>
       </set>
       <set comment="kpoint 47">
        <r>   -4.2230    1.0000 </r>
        <r>    1.9074    1.0000 </r>
        <r>    3.5126    1.0000 </r>
        <r>    6.6881    1.0000 </r>
        <r>   13.2782    0.0000 </r>
        <r>   16.6826    0.0000 </r>
        <r>   16.9937    0.0000 </r>
        <r>   17.7751    0.0000 </r>
       </set>
       <set comment="kpoint 48">
        <r>   -4.6352    1.0000 </r>
        <r>    2.3032    1.0000 </r>
        <r>    3.9248    1.0000 </r>
        <r>    6.9152    1.0000 </r>
        <r>   13.6988    0.0000 </r>
        <r>   16.3765    0.0000 </r>
        <r>   16.6836    0.0000 </r>
        <r>   17.4490    0.0000 </r>
       </set>
       <set comment="kpoint 49">
        <r>   -5.0347    1.0000 </r>
        <r>    2.7465    1.0000 </r>
        <r>    4.3616    1.0000 </r>
        <r>    7.1274    1.0000 </r>
        <r>   14.1058    0.0000 </r>
        <r>   16.0728    0.0000 </r>
        <r>   16.4190    0.0000 </r>
        <r>   17.1707    0.0000 </r>
       </set>
       <set comment="kpoint 50">
        <r>   -5.4135    1.0000 </r>
        <r>    3.2309    1.0000 </r>
        <r>    4.8143    1.0000 </r>
        <r>    7.3184    1.0000 </r>
        <r>   14.4733    0.0000 </r>
        <r>   15.7859    0.0000 </r>
        <r>   16.1957    0.0000 </r>
        <r>   16.9543    0.0000 </r>
       </set>
       <set comment="kpoint 51">
        <r>   -5.7659    1.0000 </r>
        <r>    3.7505    1.0000 </r>
        <r>    5.2743    1.0000 </r>
        <r>    7.4834    1.0000 </r>
        <r>   14.7651    0.0000 </r>
        <r>   15.5243    0.0000 </r>
        <r>   16.0062    0.0000 </r>
        <r>   16.8156    0.0000 </r>
       </set>
       <set comment="kpoint 52">
        <r>   -6.0880    1.0000 </r>
        <r>    4.2988    1.0000 </r>
        <r>    5.7318    1.0000 </r>
        <r>    7.6195    1.0000 </r>
        <r>   14.9461    0.0000 </r>
        <r>   15.2947    0.0000 </r>
        <r>   15.8420    0.0000 </r>
        <r>   16.7539    0.0000 </r>
       </set>
       <set comment="kpoint 53">
        <r>   -6.3769    1.0000 </r>
        <r>    4.8688    1.0000 </r>
        <r>    6.1761    1.0000 </r>
        <r>    7.7264    1.0000 </r>
        <r>   14.9898    0.0000 </r>
        <r>   15.1249    0.0000 </r>
        <r>   15.6958    0.0000 </r>
        <r>   16.7199    0.0000 </r>
       </set>
       <set comment="kpoint 54">
        <r>   -6.6304    1.0000 </r>
        <r>    5.4512    1.0000 </r>
        <r>    6.5954    1.0000 </r>
        <r>    7.8058    1.0000 </r>
        <r>   14.8634    0.0000 </r>
        <r>   15.0832    0.0000 </r>
        <r>   15.5637    0.0000 </r>
        <r>   16.6220    0.0000 </r>
       </set>
       <set comment="kpoint 55">
        <r>   -6.8471    1.0000 </r>
        <r>    6.0332    1.0000 </r>
        <r>    6.9771    1.0000 </r>
        <r>    7.8616    1.0000 </r>
        <r>   14.7031    0.0000 </r>
        <r>   15.0712    0.0000 </r>
        <r>   15.4455    0.0000 </r>
        <r>   16.3959    0.0000 </r>
       </set>
       <set comment="kpoint 56">
        <r>   -7.0257    1.0000 </r>
        <r>    6.5962    1.0000 </r>
        <r>    7.3088    1.0000 </r>
        <r>    7.8983    1.0000 </r>
        <r>   14.5440    0.0000 </r>
        <r>   15.0713    0.0000 </r>
        <r>   15.3431    0.0000 </r>
        <r>   16.0599    0.0000 </r>
       </set>
       <set comment="kpoint 57">
        <r>   -7.1654    1.0000 </r>
        <r>    7.1129    1.0000 </r>
        <r>    7.5789    1.0000 </r>
        <r>    7.9208    1.0000 </r>
        <r>   14.3794    0.0000 </r>
        <r>   15.0874    0.0000 </r>
        <r>   15.2596    0.0000 </r>
        <r>   15.6950    0.0000 </r>
       </set>
       <set comment="kpoint 58">
        <r>   -7.2656    1.0000 </r>
        <r>    7.5435    1.0000 </r>
        <r>    7.7783    1.0000 </r>
        <r>    7.9335    1.0000 </r>
        <r>   14.2082    0.0000 </r>
        <r>   15.1136    0.0000 </r>
        <r>   15.1977    0.0000 </r>
        <r>   15.3923    0.0000 </r>
       </set>
       <set comment="kpoint 59">
        <r>   -7.3258    1.0000 </r>
        <r>    7.8365    1.0000 </r>
        <r>    7.9004    1.0000 </r>
        <r>    7.9397    1.0000 </r>
        <r>   14.0619    0.0000 </r>
        <r>   15.1374    0.0000 </r>
        <r>   15.1597    0.0000 </r>
        <r>   15.2070    0.0000 </r>
       </set>
       <set comment="kpoint 60">
        <r>   -7.3459    1.0000 </r>
        <r>    7.9415    1.0000 </r>
        <r>    7.9415    1.0000 </r>
        <r>    7.9415    1.0000 </r>
        <r>   14.0022    0.0000 </r>
        <r>   15.1469    0.0000 </r>
        <r>   15.1469    0.0000 </r>
        <r>   15.1469    0.0000 </r>
       </set>
       <set comment="kpoint 61">
        <r>   -7.3459    1.0000 </r>
        <r>    7.9415    1.0000 </r>
        <r>    7.9415    1.0000 </r>
        <r>    7.9415    1.0000 </r>
        <r>   14.0022    0.0000 </r>
        <r>   15.1469    0.0000 </r>
        <r>   15.1469    0.0000 </r>
        <r>   15.1469    0.0000 </r>
       </set>
       <set comment="kpoint 62">
        <r>   -7.3325    1.0000 </r>
        <r>    7.8623    1.0000 </r>
        <r>    7.9316    1.0000 </r>
        <r>    7.9316    1.0000 </r>
        <r>   14.0424    0.0000 </r>
        <r>   15.1516    0.0000 </r>
        <r>   15.1657    0.0000 </r>
        <r>   15.1657    0.0000 </r>
       </set>
       <set comment="kpoint 63">
        <r>   -7.2923    1.0000 </r>
        <r>    7.6347    1.0000 </r>
        <r>    7.9026    1.0000 </r>
        <r>    7.9026    1.0000 </r>
        <r>   14.1421    0.0000 </r>
        <r>   15.1784    0.0000 </r>
        <r>   15.2201    0.0000 </r>
        <r>   15.2201    0.0000 </r>
       </set>
       <set comment="kpoint 64">
        <r>   -7.2255    1.0000 </r>
        <r>    7.2840    1.0000 </r>
        <r>    7.8562    1.0000 </r>
        <r>    7.8562    1.0000 </r>
        <r>   14.2439    0.0000 </r>
        <r>   15.2643    0.0000 </r>
        <r>   15.3047    0.0000 </r>
        <r>   15.3047    0.0000 </r>
       </set>
       <set comment="kpoint 65">
        <r>   -7.1321    1.0000 </r>
        <r>    6.8399    1.0000 </r>
        <r>    7.7949    1.0000 </r>
        <r>    7.7949    1.0000 </r>
        <r>   14.2872    0.0000 </r>
        <r>   15.4103    0.0000 </r>
        <r>   15.4103    0.0000 </r>
        <r>   15.4468    0.0000 </r>
       </set>
       <set comment="kpoint 66">
        <r>   -7.0126    1.0000 </r>
        <r>    6.3293    1.0000 </r>
        <r>    7.7221    1.0000 </r>
        <r>    7.7221    1.0000 </r>
        <r>   14.2588    0.0000 </r>
        <r>   15.5243    0.0000 </r>
        <r>   15.5243    0.0000 </r>
        <r>   15.7197    0.0000 </r>
       </set>
       <set comment="kpoint 67">
        <r>   -6.8673    1.0000 </r>
        <r>    5.7735    1.0000 </r>
        <r>    7.6411    1.0000 </r>
        <r>    7.6411    1.0000 </r>
        <r>   14.1823    0.0000 </r>
        <r>   15.6316    0.0000 </r>
        <r>   15.6316    0.0000 </r>
        <r>   16.0443    0.0000 </r>
       </set>
       <set comment="kpoint 68">
        <r>   -6.6967    1.0000 </r>
        <r>    5.1889    1.0000 </r>
        <r>    7.5551    1.0000 </r>
        <r>    7.5551    1.0000 </r>
        <r>   14.0809    0.0000 </r>
        <r>   15.7163    0.0000 </r>
        <r>   15.7163    0.0000 </r>
        <r>   16.3854    0.0000 </r>
       </set>
       <set comment="kpoint 69">
        <r>   -6.5015    1.0000 </r>
        <r>    4.5878    1.0000 </r>
        <r>    7.4673    1.0000 </r>
        <r>    7.4673    1.0000 </r>
        <r>   13.9691    0.0000 </r>
        <r>   15.7650    0.0000 </r>
        <r>   15.7650    0.0000 </r>
        <r>   16.7183    0.0000 </r>
       </set>
       <set comment="kpoint 70">
        <r>   -6.2828    1.0000 </r>
        <r>    3.9800    1.0000 </r>
        <r>    7.3802    1.0000 </r>
        <r>    7.3802    1.0000 </r>
        <r>   13.8558    0.0000 </r>
        <r>   15.7709    0.0000 </r>
        <r>   15.7709    0.0000 </r>
        <r>   17.0246    0.0000 </r>
       </set>
       <set comment="kpoint 71">
        <r>   -6.0418    1.0000 </r>
        <r>    3.3735    1.0000 </r>
        <r>    7.2963    1.0000 </r>
        <r>    7.2963    1.0000 </r>
        <r>   13.7463    0.0000 </r>
        <r>   15.7353    0.0000 </r>
        <r>   15.7353    0.0000 </r>
        <r>   17.2907    0.0000 </r>
       </set>
       <set comment="kpoint 72">
        <r>   -5.7804    1.0000 </r>
        <r>    2.7750    1.0000 </r>
        <r>    7.2174    1.0000 </r>
        <r>    7.2174    1.0000 </r>
        <r>   13.6443    0.0000 </r>
        <r>   15.6665    0.0000 </r>
        <r>   15.6665    0.0000 </r>
        <r>   17.5074    0.0000 </r>
       </set>
       <set comment="kpoint 73">
        <r>   -5.5010    1.0000 </r>
        <r>    2.1911    1.0000 </r>
        <r>    7.1450    1.0000 </r>
        <r>    7.1450    1.0000 </r>
        <r>   13.5518    0.0000 </r>
        <r>   15.5764    0.0000 </r>
        <r>   15.5764    0.0000 </r>
        <r>   17.6709    0.0000 </r>
       </set>
       <set comment="kpoint 74">
        <r>   -5.2076    1.0000 </r>
        <r>    1.6287    1.0000 </r>
        <r>    7.0803    1.0000 </r>
        <r>    7.0803    1.0000 </r>
        <r>   13.4704    0.0000 </r>
        <r>   15.4768    0.0000 </r>
        <r>   15.4768    0.0000 </r>
        <r>   17.7840    0.0000 </r>
       </set>
       <set comment="kpoint 75">
        <r>   -4.9058    1.0000 </r>
        <r>    1.0958    1.0000 </r>
        <r>    7.0243    1.0000 </r>
        <r>    7.0243    1.0000 </r>
        <r>   13.4009    0.0000 </r>
        <r>   15.3779    0.0000 </r>
        <r>   15.3779    0.0000 </r>
        <r>   17.8540    0.0000 </r>
       </set>
       <set comment="kpoint 76">
        <r>   -4.6047    1.0000 </r>
        <r>    0.6034    1.0000 </r>
        <r>    6.9777    1.0000 </r>
        <r>    6.9777    1.0000 </r>
        <r>   13.3438    0.0000 </r>
        <r>   15.2877    0.0000 </r>
        <r>   15.2877    0.0000 </r>
        <r>   17.8921    0.0000 </r>
       </set>
       <set comment="kpoint 77">
        <r>   -4.3191    1.0000 </r>
        <r>    0.1676    1.0000 </r>
        <r>    6.9410    1.0000 </r>
        <r>    6.9410    1.0000 </r>
        <r>   13.2992    0.0000 </r>
        <r>   15.2123    0.0000 </r>
        <r>   15.2123    0.0000 </r>
        <r>   17.9090    0.0000 </r>
       </set>
       <set comment="kpoint 78">
        <r>   -4.0723    1.0000 </r>
        <r>   -0.1872    1.0000 </r>
        <r>    6.9145    1.0000 </r>
        <r>    6.9145    1.0000 </r>
        <r>   13.2674    0.0000 </r>
        <r>   15.1557    0.0000 </r>
        <r>   15.1557    0.0000 </r>
        <r>   17.9140    0.0000 </r>
       </set>
       <set comment="kpoint 79">
        <r>   -3.8983    1.0000 </r>
        <r>   -0.4262    1.0000 </r>
        <r>    6.8985    1.0000 </r>
        <r>    6.8985    1.0000 </r>
        <r>   13.2484    0.0000 </r>
        <r>   15.1207    0.0000 </r>
        <r>   15.1207    0.0000 </r>
        <r>   17.9142    0.0000 </r>
       </set>
       <set comment="kpoint 80">
        <r>   -3.8345    1.0000 </r>
        <r>   -0.5117    1.0000 </r>
        <r>    6.8932    1.0000 </r>
        <r>    6.8932    1.0000 </r>
        <r>   13.2420    0.0000 </r>
        <r>   15.1088    0.0000 </r>
        <r>   15.1088    0.0000 </r>
        <r>   17.9139    0.0000 </r>
       </set>
       <set comment="kpoint 81">
        <r>   -3.8345    1.0000 </r>
        <r>   -0.5117    1.0000 </r>
        <r>    6.8932    1.0000 </r>
        <r>    6.8932    1.0000 </r>
        <r>   13.2420    0.0000 </r>
        <r>   15.1088    0.0000 </r>
        <r>   15.1088    0.0000 </r>
        <r>   17.9139    0.0000 </r>
       </set>
       <set comment="kpoint 82">
        <r>   -3.8270    1.0000 </r>
        <r>   -0.5036    1.0000 </r>
        <r>    6.8445    1.0000 </r>
        <r>    6.8805    1.0000 </r>
        <r>   13.2755    0.0000 </r>
        <r>   15.0617    0.0000 </r>
        <r>   15.1379    0.0000 </r>
        <r>   17.9699    0.0000 </r>
       </set>
       <set comment="kpoint 83">
        <r>   -3.8045    1.0000 </r>
        <r>   -0.4792    1.0000 </r>
        <r>    6.7038    1.0000 </r>
        <r>    6.8423    1.0000 </r>
        <r>   13.3648    0.0000 </r>
        <r>   14.9394    0.0000 </r>
        <r>   15.2281    0.0000 </r>
        <r>   18.1197    0.0000 </r>
       </set>
       <set comment="kpoint 84">
        <r>   -3.7672    1.0000 </r>
        <r>   -0.4387    1.0000 </r>
        <r>    6.4850    1.0000 </r>
        <r>    6.7780    1.0000 </r>
        <r>   13.4778    0.0000 </r>
        <r>   14.7870    0.0000 </r>
        <r>   15.3868    0.0000 </r>
        <r>   18.3219    0.0000 </r>
       </set>
       <set comment="kpoint 85">
        <r>   -3.7153    1.0000 </r>
        <r>   -0.3824    1.0000 </r>
        <r>    6.2057    1.0000 </r>
        <r>    6.6869    1.0000 </r>
        <r>   13.5661    0.0000 </r>
        <r>   14.6596    0.0000 </r>
        <r>   15.6228    0.0000 </r>
        <r>   18.5331    0.0000 </r>
       </set>
       <set comment="kpoint 86">
        <r>   -3.6492    1.0000 </r>
        <r>   -0.3106    1.0000 </r>
        <r>    5.8836    1.0000 </r>
        <r>    6.5683    1.0000 </r>
        <r>   13.5822    0.0000 </r>
        <r>   14.6075    0.0000 </r>
        <r>   15.9388    0.0000 </r>
        <r>   18.7172    0.0000 </r>
       </set>
       <set comment="kpoint 87">
        <r>   -3.5694    1.0000 </r>
        <r>   -0.2239    1.0000 </r>
        <r>    5.5341    1.0000 </r>
        <r>    6.4220    1.0000 </r>
        <r>   13.5182    0.0000 </r>
        <r>   14.6444    0.0000 </r>
        <r>   16.3277    0.0000 </r>
        <r>   18.8482    0.0000 </r>
       </set>
       <set comment="kpoint 88">
        <r>   -3.4765    1.0000 </r>
        <r>   -0.1232    1.0000 </r>
        <r>    5.1696    1.0000 </r>
        <r>    6.2483    1.0000 </r>
        <r>   13.4111    0.0000 </r>
        <r>   14.7432    0.0000 </r>
        <r>   16.7734    0.0000 </r>
        <r>   18.9121    0.0000 </r>
       </set>
       <set comment="kpoint 89">
        <r>   -3.3714    1.0000 </r>
        <r>   -0.0095    1.0000 </r>
        <r>    4.8007    1.0000 </r>
        <r>    6.0484    1.0000 </r>
        <r>   13.2981    0.0000 </r>
        <r>   14.8763    0.0000 </r>
        <r>   17.2541    0.0000 </r>
        <r>   18.9082    0.0000 </r>
       </set>
       <set comment="kpoint 90">
        <r>   -3.2553    1.0000 </r>
        <r>    0.1155    1.0000 </r>
        <r>    4.4360    1.0000 </r>
        <r>    5.8247    1.0000 </r>
        <r>   13.1994    0.0000 </r>
        <r>   15.0306    0.0000 </r>
        <r>   17.7395    0.0000 </r>
        <r>   18.8520    0.0000 </r>
       </set>
       <set comment="kpoint 91">
        <r>   -3.1297    1.0000 </r>
        <r>    0.2496    1.0000 </r>
        <r>    4.0838    1.0000 </r>
        <r>    5.5802    1.0000 </r>
        <r>   13.1237    0.0000 </r>
        <r>   15.2013    0.0000 </r>
        <r>   18.1620    0.0000 </r>
        <r>   18.7967    0.0000 </r>
       </set>
       <set comment="kpoint 92">
        <r>   -2.9965    1.0000 </r>
        <r>    0.3894    1.0000 </r>
        <r>    3.7522    1.0000 </r>
        <r>    5.3188    1.0000 </r>
        <r>   13.0729    0.0000 </r>
        <r>   15.3867    0.0000 </r>
        <r>   18.3206    0.0000 </r>
        <r>   18.9118    0.0000 </r>
       </set>
       <set comment="kpoint 93">
        <r>   -2.8583    1.0000 </r>
        <r>    0.5301    1.0000 </r>
        <r>    3.4505    1.0000 </r>
        <r>    5.0448    1.0000 </r>
        <r>   13.0457    0.0000 </r>
        <r>   15.5862    0.0000 </r>
        <r>   18.2162    0.0000 </r>
        <r>   19.1161    0.0000 </r>
       </set>
       <set comment="kpoint 94">
        <r>   -2.7187    1.0000 </r>
        <r>    0.6642    1.0000 </r>
        <r>    3.1904    1.0000 </r>
        <r>    4.7627    1.0000 </r>
        <r>   13.0387    0.0000 </r>
        <r>   15.7996    0.0000 </r>
        <r>   18.0471    0.0000 </r>
        <r>   19.1188    0.0000 </r>
       </set>
       <set comment="kpoint 95">
        <r>   -2.5819    1.0000 </r>
        <r>    0.7817    1.0000 </r>
        <r>    2.9862    1.0000 </r>
        <r>    4.4776    1.0000 </r>
        <r>   13.0471    0.0000 </r>
        <r>   16.0264    0.0000 </r>
        <r>   17.8701    0.0000 </r>
        <r>   18.9279    0.0000 </r>
       </set>
       <set comment="kpoint 96">
        <r>   -2.4537    1.0000 </r>
        <r>    0.8710    1.0000 </r>
        <r>    2.8541    1.0000 </r>
        <r>    4.1945    1.0000 </r>
        <r>   13.0654    0.0000 </r>
        <r>   16.2662    0.0000 </r>
        <r>   17.7048    0.0000 </r>
        <r>   18.6533    0.0000 </r>
       </set>
       <set comment="kpoint 97">
        <r>   -2.3411    1.0000 </r>
        <r>    0.9241    1.0000 </r>
        <r>    2.8065    1.0000 </r>
        <r>    3.9194    1.0000 </r>
        <r>   13.0879    0.0000 </r>
        <r>   16.5174    0.0000 </r>
        <r>   17.5629    0.0000 </r>
        <r>   18.3530    0.0000 </r>
       </set>
       <set comment="kpoint 98">
        <r>   -2.2521    1.0000 </r>
        <r>    0.9439    1.0000 </r>
        <r>    2.8427    1.0000 </r>
        <r>    3.6604    1.0000 </r>
        <r>   13.1088    0.0000 </r>
        <r>   16.7771    0.0000 </r>
        <r>   17.4514    0.0000 </r>
        <r>   18.0536    0.0000 </r>
       </set>
       <set comment="kpoint 99">
        <r>   -2.1946    1.0000 </r>
        <r>    0.9449    1.0000 </r>
        <r>    2.9417    1.0000 </r>
        <r>    3.4340    1.0000 </r>
        <r>   13.1236    0.0000 </r>
        <r>   17.0356    0.0000 </r>
        <r>   17.3674    0.0000 </r>
        <r>   17.7834    0.0000 </r>
       </set>
       <set comment="kpoint 100">
        <r>   -2.1746    1.0000 </r>
        <r>    0.9430    1.0000 </r>
        <r>    3.0215    1.0000 </r>
        <r>    3.3130    1.0000 </r>
        <r>   13.1289    0.0000 </r>
        <r>   17.2424    0.0000 </r>
        <r>   17.2667    0.0000 </r>
        <r>   17.6444    0.0000 </r>
       </set>
       <set comment="kpoint 101">
        <r>   -2.1746    1.0000 </r>
        <r>    0.9430    1.0000 </r>
        <r>    3.0215    1.0000 </r>
        <r>    3.3130    1.0000 </r>
        <r>   13.1289    0.0000 </r>
        <r>   17.2424    0.0000 </r>
        <r>   17.2667    0.0000 </r>
        <r>   17.6444    0.0000 </r>
       </set>
       <set comment="kpoint 102">
        <r>   -2.1763    1.0000 </r>
        <r>    0.9347    1.0000 </r>
        <r>    3.0353    1.0000 </r>
        <r>    3.3208    1.0000 </r>
        <r>   13.0875    0.0000 </r>
        <r>   16.9869    0.0000 </r>
        <r>   17.3126    0.0000 </r>
        <r>   17.9021    0.0000 </r>
       </set>
       <set comment="kpoint 103">
        <r>   -2.1813    1.0000 </r>
        <r>    0.9108    1.0000 </r>
        <r>    3.0759    1.0000 </r>
        <r>    3.3442    1.0000 </r>
        <r>   12.9689    0.0000 </r>
        <r>   16.6031    0.0000 </r>
        <r>   17.4447    0.0000 </r>
        <r>   18.2921    0.0000 </r>
       </set>
       <set comment="kpoint 104">
        <r>   -2.1894    1.0000 </r>
        <r>    0.8733    1.0000 </r>
        <r>    3.1409    1.0000 </r>
        <r>    3.3829    1.0000 </r>
        <r>   12.7867    0.0000 </r>
        <r>   16.2108    0.0000 </r>
        <r>   17.6489    0.0000 </r>
        <r>   18.6944    0.0000 </r>
       </set>
       <set comment="kpoint 105">
        <r>   -2.2003    1.0000 </r>
        <r>    0.8250    1.0000 </r>
        <r>    3.2270    1.0000 </r>
        <r>    3.4362    1.0000 </r>
        <r>   12.5576    0.0000 </r>
        <r>   15.8220    0.0000 </r>
        <r>   17.9083    0.0000 </r>
        <r>   19.0958    0.0000 </r>
       </set>
       <set comment="kpoint 106">
        <r>   -2.2137    1.0000 </r>
        <r>    0.7693    1.0000 </r>
        <r>    3.3305    1.0000 </r>
        <r>    3.5033    1.0000 </r>
        <r>   12.2965    0.0000 </r>
        <r>   15.4407    0.0000 </r>
        <r>   18.2075    0.0000 </r>
        <r>   19.4915    0.0000 </r>
       </set>
       <set comment="kpoint 107">
        <r>   -2.2291    1.0000 </r>
        <r>    0.7089    1.0000 </r>
        <r>    3.4479    1.0000 </r>
        <r>    3.5833    1.0000 </r>
        <r>   12.0155    0.0000 </r>
        <r>   15.0694    0.0000 </r>
        <r>   18.5335    0.0000 </r>
        <r>   19.8773    0.0000 </r>
       </set>
       <set comment="kpoint 108">
        <r>   -2.2460    1.0000 </r>
        <r>    0.6463    1.0000 </r>
        <r>    3.5757    1.0000 </r>
        <r>    3.6749    1.0000 </r>
        <r>   11.7238    0.0000 </r>
        <r>   14.7101    0.0000 </r>
        <r>   18.8760    0.0000 </r>
        <r>   20.2491    0.0000 </r>
       </set>
       <set comment="kpoint 109">
        <r>   -2.2640    1.0000 </r>
        <r>    0.5838    1.0000 </r>
        <r>    3.7105    1.0000 </r>
        <r>    3.7766    1.0000 </r>
        <r>   11.4285    0.0000 </r>
        <r>   14.3649    0.0000 </r>
        <r>   19.2269    0.0000 </r>
        <r>   20.6029    0.0000 </r>
       </set>
       <set comment="kpoint 110">
        <r>   -2.2824    1.0000 </r>
        <r>    0.5229    1.0000 </r>
        <r>    3.8493    1.0000 </r>
        <r>    3.8867    1.0000 </r>
        <r>   11.1354    0.0000 </r>
        <r>   14.0360    0.0000 </r>
        <r>   19.5791    0.0000 </r>
        <r>   20.9359    0.0000 </r>
       </set>
       <set comment="kpoint 111">
        <r>   -2.3008    1.0000 </r>
        <r>    0.4650    1.0000 </r>
        <r>    3.9892    1.0000 </r>
        <r>    4.0030    1.0000 </r>
        <r>   10.8492    0.0000 </r>
        <r>   13.7255    0.0000 </r>
        <r>   19.9261    0.0000 </r>
        <r>   21.2402    0.0000 </r>
       </set>
       <set comment="kpoint 112">
        <r>   -2.3187    1.0000 </r>
        <r>    0.4111    1.0000 </r>
        <r>    4.1232    1.0000 </r>
        <r>    4.1270    1.0000 </r>
        <r>   10.5742    0.0000 </r>
        <r>   13.4359    0.0000 </r>
        <r>   20.2619    0.0000 </r>
        <r>   21.5158    0.0000 </r>
       </set>
       <set comment="kpoint 113">
        <r>   -2.3356    1.0000 </r>
        <r>    0.3621    1.0000 </r>
        <r>    4.2443    1.0000 </r>
        <r>    4.2598    1.0000 </r>
        <r>   10.3146    0.0000 </r>
        <r>   13.1699    0.0000 </r>
        <r>   20.5804    0.0000 </r>
        <r>   21.7539    0.0000 </r>
       </set>
       <set comment="kpoint 114">
        <r>   -2.3511    1.0000 </r>
        <r>    0.3185    1.0000 </r>
        <r>    4.3631    1.0000 </r>
        <r>    4.3844    1.0000 </r>
        <r>   10.0747    0.0000 </r>
        <r>   12.9303    0.0000 </r>
        <r>   20.8754    0.0000 </r>
        <r>   21.8451    0.0000 </r>
       </set>
       <set comment="kpoint 115">
        <r>   -2.3649    1.0000 </r>
        <r>    0.2810    1.0000 </r>
        <r>    4.4755    1.0000 </r>
        <r>    4.4975    1.0000 </r>
        <r>    9.8589    0.0000 </r>
        <r>   12.7202    0.0000 </r>
        <r>   21.1402    0.0000 </r>
        <r>   21.8360    0.0000 </r>
       </set>
       <set comment="kpoint 116">
        <r>   -2.3766    1.0000 </r>
        <r>    0.2498    1.0000 </r>
        <r>    4.5773    1.0000 </r>
        <r>    4.5958    1.0000 </r>
        <r>    9.6722    0.0000 </r>
        <r>   12.5426    0.0000 </r>
        <r>   21.3690    0.0000 </r>
        <r>   21.8253    0.0000 </r>
       </set>
       <set comment="kpoint 117">
        <r>   -2.3859    1.0000 </r>
        <r>    0.2252    1.0000 </r>
        <r>    4.6635    1.0000 </r>
        <r>    4.6762    1.0000 </r>
        <r>    9.5196    0.0000 </r>
        <r>   12.4005    0.0000 </r>
        <r>   21.5548    0.0000 </r>
        <r>   21.8140    0.0000 </r>
       </set>
       <set comment="kpoint 118">
        <r>   -2.3927    1.0000 </r>
        <r>    0.2076    1.0000 </r>
        <r>    4.7295    1.0000 </r>
        <r>    4.7360    1.0000 </r>
        <r>    9.4060    0.0000 </r>
        <r>   12.2969    0.0000 </r>
        <r>   21.6913    0.0000 </r>
        <r>   21.8129    0.0000 </r>
       </set>
       <set comment="kpoint 119">
        <r>   -2.3969    1.0000 </r>
        <r>    0.1969    1.0000 </r>
        <r>    4.7711    1.0000 </r>
        <r>    4.7729    1.0000 </r>
        <r>    9.3359    0.0000 </r>
        <r>   12.2337    0.0000 </r>
        <r>   21.7771    0.0000 </r>
        <r>   21.8051    0.0000 </r>
       </set>
       <set comment="kpoint 120">
        <r>   -2.3983    1.0000 </r>
        <r>    0.1933    1.0000 </r>
        <r>    4.7853    1.0000 </r>
        <r>    4.7853    1.0000 </r>
        <r>    9.3122    0.0000 </r>
        <r>   12.2124    0.0000 </r>
        <r>   21.8037    0.0000 </r>
        <r>   21.8049    0.0000 </r>
       </set>
       <set comment="kpoint 121">
        <r>   -7.3459    1.0000 </r>
        <r>    7.9415    1.0000 </r>
        <r>    7.9415    1.0000 </r>
        <r>    7.9415    1.0000 </r>
        <r>   14.0022    0.0000 </r>
        <r>   15.1469    0.0000 </r>
        <r>   15.1469    0.0000 </r>
        <r>   15.1469    0.0000 </r>
       </set>
       <set comment="kpoint 122">
        <r>   -7.3281    1.0000 </r>
        <r>    7.8820    1.0000 </r>
        <r>    7.9052    1.0000 </r>
        <r>    7.9052    1.0000 </r>
        <r>   14.0570    0.0000 </r>
        <r>   15.0974    0.0000 </r>
        <r>   15.1994    0.0000 </r>
        <r>   15.1994    0.0000 </r>
       </set>
       <set comment="kpoint 123">
        <r>   -7.2745    1.0000 </r>
        <r>    7.7107    1.0000 </r>
        <r>    7.8002    1.0000 </r>
        <r>    7.8002    1.0000 </r>
        <r>   14.2052    0.0000 </r>
        <r>   14.9596    0.0000 </r>
        <r>   15.3527    0.0000 </r>
        <r>   15.3527    0.0000 </r>
       </set>
       <set comment="kpoint 124">
        <r>   -7.1853    1.0000 </r>
        <r>    7.4458    1.0000 </r>
        <r>    7.6367    1.0000 </r>
        <r>    7.6367    1.0000 </r>
        <r>   14.3699    0.0000 </r>
        <r>   14.7941    0.0000 </r>
        <r>   15.5959    0.0000 </r>
        <r>   15.5959    0.0000 </r>
       </set>
       <set comment="kpoint 125">
        <r>   -7.0608    1.0000 </r>
        <r>    7.1089    1.0000 </r>
        <r>    7.4282    1.0000 </r>
        <r>    7.4282    1.0000 </r>
        <r>   14.2721    0.0000 </r>
        <r>   14.8513    0.0000 </r>
        <r>   15.9143    0.0000 </r>
        <r>   15.9143    0.0000 </r>
       </set>
       <set comment="kpoint 126">
        <r>   -6.9013    1.0000 </r>
        <r>    6.7187    1.0000 </r>
        <r>    7.1889    1.0000 </r>
        <r>    7.1889    1.0000 </r>
        <r>   13.9454    0.0000 </r>
        <r>   15.0494    0.0000 </r>
        <r>   16.2923    0.0000 </r>
        <r>   16.2923    0.0000 </r>
       </set>
       <set comment="kpoint 127">
        <r>   -6.7073    1.0000 </r>
        <r>    6.2897    1.0000 </r>
        <r>    6.9317    1.0000 </r>
        <r>    6.9317    1.0000 </r>
        <r>   13.5492    0.0000 </r>
        <r>   15.1549    0.0000 </r>
        <r>   16.7155    0.0000 </r>
        <r>   16.7155    0.0000 </r>
       </set>
       <set comment="kpoint 128">
        <r>   -6.4794    1.0000 </r>
        <r>    5.8316    1.0000 </r>
        <r>    6.6673    1.0000 </r>
        <r>    6.6673    1.0000 </r>
        <r>   13.1157    0.0000 </r>
        <r>   15.0680    0.0000 </r>
        <r>   17.1713    0.0000 </r>
        <r>   17.1713    0.0000 </r>
       </set>
       <set comment="kpoint 129">
        <r>   -6.2185    1.0000 </r>
        <r>    5.3505    1.0000 </r>
        <r>    6.4043    1.0000 </r>
        <r>    6.4043    1.0000 </r>
        <r>   12.6584    0.0000 </r>
        <r>   14.7928    0.0000 </r>
        <r>   17.6493    0.0000 </r>
        <r>   17.6493    0.0000 </r>
       </set>
       <set comment="kpoint 130">
        <r>   -5.9256    1.0000 </r>
        <r>    4.8504    1.0000 </r>
        <r>    6.1495    1.0000 </r>
        <r>    6.1495    1.0000 </r>
        <r>   12.1885    0.0000 </r>
        <r>   14.4158    0.0000 </r>
        <r>   18.1407    0.0000 </r>
        <r>   18.1408    0.0000 </r>
       </set>
       <set comment="kpoint 131">
        <r>   -5.6020    1.0000 </r>
        <r>    4.3339    1.0000 </r>
        <r>    5.9081    1.0000 </r>
        <r>    5.9081    1.0000 </r>
        <r>   11.7182    0.0000 </r>
        <r>   14.0165    0.0000 </r>
        <r>   18.6380    0.0000 </r>
        <r>   18.6380    0.0000 </r>
       </set>
       <set comment="kpoint 132">
        <r>   -5.2496    1.0000 </r>
        <r>    3.8032    1.0000 </r>
        <r>    5.6843    1.0000 </r>
        <r>    5.6843    1.0000 </r>
        <r>   11.2616    0.0000 </r>
        <r>   13.6384    0.0000 </r>
        <r>   19.1344    0.0000 </r>
        <r>   19.1345    0.0000 </r>
       </set>
       <set comment="kpoint 133">
        <r>   -4.8708    1.0000 </r>
        <r>    3.2613    1.0000 </r>
        <r>    5.4811    1.0000 </r>
        <r>    5.4811    1.0000 </r>
        <r>   10.8328    0.0000 </r>
        <r>   13.3000    0.0000 </r>
        <r>   19.6226    0.0000 </r>
        <r>   19.6227    0.0000 </r>
       </set>
       <set comment="kpoint 134">
        <r>   -4.4692    1.0000 </r>
        <r>    2.7125    1.0000 </r>
        <r>    5.3011    1.0000 </r>
        <r>    5.3011    1.0000 </r>
        <r>   10.4442    0.0000 </r>
        <r>   13.0074    0.0000 </r>
        <r>   20.0947    0.0000 </r>
        <r>   20.0973    0.0000 </r>
       </set>
       <set comment="kpoint 135">
        <r>   -4.0500    1.0000 </r>
        <r>    2.1635    1.0000 </r>
        <r>    5.1461    1.0000 </r>
        <r>    5.1461    1.0000 </r>
        <r>   10.1053    0.0000 </r>
        <r>   12.7618    0.0000 </r>
        <r>   20.5403    0.0000 </r>
        <r>   20.5424    0.0000 </r>
       </set>
       <set comment="kpoint 136">
        <r>   -3.6217    1.0000 </r>
        <r>    1.6247    1.0000 </r>
        <r>    5.0175    1.0000 </r>
        <r>    5.0175    1.0000 </r>
        <r>    9.8226    0.0000 </r>
        <r>   12.5626    0.0000 </r>
        <r>   20.9463    0.0000 </r>
        <r>   20.9465    0.0000 </r>
       </set>
       <set comment="kpoint 137">
        <r>   -3.1993    1.0000 </r>
        <r>    1.1134    1.0000 </r>
        <r>    4.9165    1.0000 </r>
        <r>    4.9165    1.0000 </r>
        <r>    9.6003    0.0000 </r>
        <r>   12.4088    0.0000 </r>
        <r>   21.2958    0.0000 </r>
        <r>   21.3001    0.0000 </r>
       </set>
       <set comment="kpoint 138">
        <r>   -2.8117    1.0000 </r>
        <r>    0.6604    1.0000 </r>
        <r>    4.8438    1.0000 </r>
        <r>    4.8438    1.0000 </r>
        <r>    9.4405    0.0000 </r>
        <r>   12.2995    0.0000 </r>
        <r>   21.5685    0.0000 </r>
        <r>   21.5692    0.0000 </r>
       </set>
       <set comment="kpoint 139">
        <r>   -2.5152    1.0000 </r>
        <r>    0.3238    1.0000 </r>
        <r>    4.8000    1.0000 </r>
        <r>    4.8000    1.0000 </r>
        <r>    9.3443    0.0000 </r>
        <r>   12.2342    0.0000 </r>
        <r>   21.7435    0.0000 </r>
        <r>   21.7611    0.0000 </r>
       </set>
       <set comment="kpoint 140">
        <r>   -2.3983    1.0000 </r>
        <r>    0.1933    1.0000 </r>
        <r>    4.7853    1.0000 </r>
        <r>    4.7853    1.0000 </r>
        <r>    9.3122    0.0000 </r>
        <r>   12.2124    0.0000 </r>
        <r>   21.8037    0.0000 </r>
        <r>   21.8039    0.0000 </r>
       </set>
       <set comment="kpoint 141">
        <r>   -2.3983    1.0000 </r>
        <r>    0.1933    1.0000 </r>
        <r>    4.7853    1.0000 </r>
        <r>    4.7853    1.0000 </r>
        <r>    9.3122    0.0000 </r>
        <r>   12.2124    0.0000 </r>
        <r>   21.8037    0.0000 </r>
        <r>   21.8264    0.0000 </r>
       </set>
       <set comment="kpoint 142">
        <r>   -2.3976    1.0000 </r>
        <r>    0.1951    1.0000 </r>
        <r>    4.7703    1.0000 </r>
        <r>    4.7870    1.0000 </r>
        <r>    9.3240    0.0000 </r>
        <r>   12.2231    0.0000 </r>
        <r>   21.7960    0.0000 </r>
        <r>   21.7983    0.0000 </r>
       </set>
       <set comment="kpoint 143">
        <r>   -2.3955    1.0000 </r>
        <r>    0.2005    1.0000 </r>
        <r>    4.7260    1.0000 </r>
        <r>    4.7921    1.0000 </r>
        <r>    9.3588    0.0000 </r>
        <r>   12.2551    0.0000 </r>
        <r>   21.7778    0.0000 </r>
        <r>   21.7827    0.0000 </r>
       </set>
       <set comment="kpoint 144">
        <r>   -2.3921    1.0000 </r>
        <r>    0.2093    1.0000 </r>
        <r>    4.6544    1.0000 </r>
        <r>    4.8005    1.0000 </r>
        <r>    9.4142    0.0000 </r>
        <r>   12.3086    0.0000 </r>
        <r>   21.7315    0.0000 </r>
        <r>   21.7555    0.0000 </r>
       </set>
       <set comment="kpoint 145">
        <r>   -2.3875    1.0000 </r>
        <r>    0.2217    1.0000 </r>
        <r>    4.5587    1.0000 </r>
        <r>    4.8123    1.0000 </r>
        <r>    9.4871    0.0000 </r>
        <r>   12.3838    0.0000 </r>
        <r>   21.6796    0.0000 </r>
        <r>   21.7186    0.0000 </r>
       </set>
       <set comment="kpoint 146">
        <r>   -2.3819    1.0000 </r>
        <r>    0.2374    1.0000 </r>
        <r>    4.4425    1.0000 </r>
        <r>    4.8274    1.0000 </r>
        <r>    9.5737    0.0000 </r>
        <r>   12.4810    0.0000 </r>
        <r>   21.6068    0.0000 </r>
        <r>   21.6692    0.0000 </r>
       </set>
       <set comment="kpoint 147">
        <r>   -2.3753    1.0000 </r>
        <r>    0.2565    1.0000 </r>
        <r>    4.3096    1.0000 </r>
        <r>    4.8459    1.0000 </r>
        <r>    9.6702    0.0000 </r>
        <r>   12.6001    0.0000 </r>
        <r>   21.5224    0.0000 </r>
        <r>   21.6144    0.0000 </r>
       </set>
       <set comment="kpoint 148">
        <r>   -2.3680    1.0000 </r>
        <r>    0.2788    1.0000 </r>
        <r>    4.1639    1.0000 </r>
        <r>    4.8676    1.0000 </r>
        <r>    9.7732    0.0000 </r>
        <r>   12.7410    0.0000 </r>
        <r>   21.4263    0.0000 </r>
        <r>   21.5453    0.0000 </r>
       </set>
       <set comment="kpoint 149">
        <r>   -2.3605    1.0000 </r>
        <r>    0.3042    1.0000 </r>
        <r>    4.0090    1.0000 </r>
        <r>    4.8927    1.0000 </r>
        <r>    9.8797    0.0000 </r>
        <r>   12.9031    0.0000 </r>
        <r>   21.3191    0.0000 </r>
        <r>   21.4715    0.0000 </r>
       </set>
       <set comment="kpoint 150">
        <r>   -2.3529    1.0000 </r>
        <r>    0.3325    1.0000 </r>
        <r>    3.8480    1.0000 </r>
        <r>    4.9209    1.0000 </r>
        <r>    9.9878    0.0000 </r>
        <r>   13.0856    0.0000 </r>
        <r>   21.2003    0.0000 </r>
        <r>   21.3877    0.0000 </r>
       </set>
       <set comment="kpoint 151">
        <r>   -2.3457    1.0000 </r>
        <r>    0.3635    1.0000 </r>
        <r>    3.6840    1.0000 </r>
        <r>    4.9524    1.0000 </r>
        <r>   10.0958    0.0000 </r>
        <r>   13.2871    0.0000 </r>
        <r>   21.0716    0.0000 </r>
        <r>   21.2984    0.0000 </r>
       </set>
       <set comment="kpoint 152">
        <r>   -2.3393    1.0000 </r>
        <r>    0.3969    1.0000 </r>
        <r>    3.5196    1.0000 </r>
        <r>    4.9869    1.0000 </r>
        <r>   10.2030    0.0000 </r>
        <r>   13.5060    0.0000 </r>
        <r>   20.9350    0.0000 </r>
        <r>   21.2094    0.0000 </r>
       </set>
       <set comment="kpoint 153">
        <r>   -2.3344    1.0000 </r>
        <r>    0.4324    1.0000 </r>
        <r>    3.3574    1.0000 </r>
        <r>    5.0247    1.0000 </r>
        <r>   10.3090    0.0000 </r>
        <r>   13.7405    0.0000 </r>
        <r>   20.7919    0.0000 </r>
        <r>   21.0993    0.0000 </r>
       </set>
       <set comment="kpoint 154">
        <r>   -2.3316    1.0000 </r>
        <r>    0.4698    1.0000 </r>
        <r>    3.1998    1.0000 </r>
        <r>    5.0654    1.0000 </r>
        <r>   10.4138    0.0000 </r>
        <r>   13.9885    0.0000 </r>
        <r>   20.6413    0.0000 </r>
        <r>   20.9899    0.0000 </r>
       </set>
       <set comment="kpoint 155">
        <r>   -2.3315    1.0000 </r>
        <r>    0.5085    1.0000 </r>
        <r>    3.0490    1.0000 </r>
        <r>    5.1091    1.0000 </r>
        <r>   10.5177    0.0000 </r>
        <r>   14.2477    0.0000 </r>
        <r>   20.4864    0.0000 </r>
        <r>   20.8782    0.0000 </r>
       </set>
       <set comment="kpoint 156">
        <r>   -2.3350    1.0000 </r>
        <r>    0.5481    1.0000 </r>
        <r>    2.9073    1.0000 </r>
        <r>    5.1558    1.0000 </r>
        <r>   10.6210    0.0000 </r>
        <r>   14.5159    0.0000 </r>
        <r>   20.3266    0.0000 </r>
        <r>   20.7585    0.0000 </r>
       </set>
       <set comment="kpoint 157">
        <r>   -2.3430    1.0000 </r>
        <r>    0.5881    1.0000 </r>
        <r>    2.7768    1.0000 </r>
        <r>    5.2053    1.0000 </r>
        <r>   10.7241    0.0000 </r>
        <r>   14.7903    0.0000 </r>
        <r>   20.1643    0.0000 </r>
        <r>   20.6359    0.0000 </r>
       </set>
       <set comment="kpoint 158">
        <r>   -2.3563    1.0000 </r>
        <r>    0.6279    1.0000 </r>
        <r>    2.6597    1.0000 </r>
        <r>    5.2576    1.0000 </r>
        <r>   10.8275    0.0000 </r>
        <r>   15.0685    0.0000 </r>
        <r>   19.9984    0.0000 </r>
        <r>   20.5085    0.0000 </r>
       </set>
       <set comment="kpoint 159">
        <r>   -2.3759    1.0000 </r>
        <r>    0.6671    1.0000 </r>
        <r>    2.5580    1.0000 </r>
        <r>    5.3125    1.0000 </r>
        <r>   10.9316    0.0000 </r>
        <r>   15.3472    0.0000 </r>
        <r>   19.8310    0.0000 </r>
        <r>   20.3769    0.0000 </r>
       </set>
       <set comment="kpoint 160">
        <r>   -2.4027    1.0000 </r>
        <r>    0.7053    1.0000 </r>
        <r>    2.4733    1.0000 </r>
        <r>    5.3700    1.0000 </r>
        <r>   11.0367    0.0000 </r>
        <r>   15.6231    0.0000 </r>
        <r>   19.6627    0.0000 </r>
        <r>   20.2418    0.0000 </r>
       </set>
       <set comment="kpoint 161">
        <r>   -2.4027    1.0000 </r>
        <r>    0.7053    1.0000 </r>
        <r>    2.4733    1.0000 </r>
        <r>    5.3700    1.0000 </r>
        <r>   11.0367    0.0000 </r>
        <r>   15.6231    0.0000 </r>
        <r>   19.6627    0.0000 </r>
        <r>   20.2417    0.0000 </r>
       </set>
       <set comment="kpoint 162">
        <r>   -2.5343    1.0000 </r>
        <r>    0.8132    1.0000 </r>
        <r>    2.3340    1.0000 </r>
        <r>    5.5571    1.0000 </r>
        <r>   11.3615    0.0000 </r>
        <r>   16.3923    0.0000 </r>
        <r>   19.1574    0.0000 </r>
        <r>   19.8179    0.0000 </r>
       </set>
       <set comment="kpoint 163">
        <r>   -2.7518    1.0000 </r>
        <r>    0.9257    1.0000 </r>
        <r>    2.3661    1.0000 </r>
        <r>    5.7632    1.0000 </r>
        <r>   11.7048    0.0000 </r>
        <r>   16.9621    0.0000 </r>
        <r>   18.6627    0.0000 </r>
        <r>   19.3812    0.0000 </r>
       </set>
       <set comment="kpoint 164">
        <r>   -3.0509    1.0000 </r>
        <r>    1.0758    1.0000 </r>
        <r>    2.5366    1.0000 </r>
        <r>    5.9846    1.0000 </r>
        <r>   12.0695    0.0000 </r>
        <r>   17.2131    0.0000 </r>
        <r>   18.1908    0.0000 </r>
        <r>   18.9487    0.0000 </r>
       </set>
       <set comment="kpoint 165">
        <r>   -3.4118    1.0000 </r>
        <r>    1.2875    1.0000 </r>
        <r>    2.8029    1.0000 </r>
        <r>    6.2163    1.0000 </r>
        <r>   12.4557    0.0000 </r>
        <r>   17.1731    0.0000 </r>
        <r>   17.7509    0.0000 </r>
        <r>   18.5320    0.0000 </r>
       </set>
       <set comment="kpoint 166">
        <r>   -3.8097    1.0000 </r>
        <r>    1.5663    1.0000 </r>
        <r>    3.1345    1.0000 </r>
        <r>    6.4529    1.0000 </r>
        <r>   12.8605    0.0000 </r>
        <r>   16.9649    0.0000 </r>
        <r>   17.3502    0.0000 </r>
        <r>   18.1385    0.0000 </r>
       </set>
       <set comment="kpoint 167">
        <r>   -4.2230    1.0000 </r>
        <r>    1.9074    1.0000 </r>
        <r>    3.5126    1.0000 </r>
        <r>    6.6881    1.0000 </r>
        <r>   13.2782    0.0000 </r>
        <r>   16.6826    0.0000 </r>
        <r>   16.9937    0.0000 </r>
        <r>   17.7751    0.0000 </r>
       </set>
       <set comment="kpoint 168">
        <r>   -4.6352    1.0000 </r>
        <r>    2.3032    1.0000 </r>
        <r>    3.9248    1.0000 </r>
        <r>    6.9152    1.0000 </r>
        <r>   13.6988    0.0000 </r>
        <r>   16.3765    0.0000 </r>
        <r>   16.6836    0.0000 </r>
        <r>   17.4490    0.0000 </r>
       </set>
       <set comment="kpoint 169">
        <r>   -5.0347    1.0000 </r>
        <r>    2.7465    1.0000 </r>
        <r>    4.3616    1.0000 </r>
        <r>    7.1274    1.0000 </r>
        <r>   14.1058    0.0000 </r>
        <r>   16.0728    0.0000 </r>
        <r>   16.4190    0.0000 </r>
        <r>   17.1707    0.0000 </r>
       </set>
       <set comment="kpoint 170">
        <r>   -5.4135    1.0000 </r>
        <r>    3.2309    1.0000 </r>
        <r>    4.8143    1.0000 </r>
        <r>    7.3184    1.0000 </r>
        <r>   14.4733    0.0000 </r>
        <r>   15.7859    0.0000 </r>
        <r>   16.1957    0.0000 </r>
        <r>   16.9543    0.0000 </r>
       </set>
       <set comment="kpoint 171">
        <r>   -5.7659    1.0000 </r>
        <r>    3.7505    1.0000 </r>
        <r>    5.2743    1.0000 </r>
        <r>    7.4834    1.0000 </r>
        <r>   14.7651    0.0000 </r>
        <r>   15.5243    0.0000 </r>
        <r>   16.0062    0.0000 </r>
        <r>   16.8156    0.0000 </r>
       </set>
       <set comment="kpoint 172">
        <r>   -6.0880    1.0000 </r>
        <r>    4.2988    1.0000 </r>
        <r>    5.7318    1.0000 </r>
        <r>    7.6195    1.0000 </r>
        <r>   14.9461    0.0000 </r>
        <r>   15.2947    0.0000 </r>
        <r>   15.8420    0.0000 </r>
        <r>   16.7539    0.0000 </r>
       </set>
       <set comment="kpoint 173">
        <r>   -6.3769    1.0000 </r>
        <r>    4.8688    1.0000 </r>
        <r>    6.1761    1.0000 </r>
        <r>    7.7264    1.0000 </r>
        <r>   14.9898    0.0000 </r>
        <r>   15.1249    0.0000 </r>
        <r>   15.6958    0.0000 </r>
        <r>   16.7199    0.0000 </r>
       </set>
       <set comment="kpoint 174">
        <r>   -6.6304    1.0000 </r>
        <r>    5.4512    1.0000 </r>
        <r>    6.5954    1.0000 </r>
        <r>    7.8058    1.0000 </r>
        <r>   14.8634    0.0000 </r>
        <r>   15.0832    0.0000 </r>
        <r>   15.5637    0.0000 </r>
        <r>   16.6220    0.0000 </r>
       </set>
       <set comment="kpoint 175">
        <r>   -6.8471    1.0000 </r>
        <r>    6.0332    1.0000 </r>
        <r>    6.9771    1.0000 </r>
        <r>    7.8616    1.0000 </r>
        <r>   14.7031    0.0000 </r>
        <r>   15.0712    0.0000 </r>
        <r>   15.4455    0.0000 </r>
        <r>   16.3959    0.0000 </r>
       </set>
       <set comment="kpoint 176">
        <r>   -7.0257    1.0000 </r>
        <r>    6.5962    1.0000 </r>
        <r>    7.3088    1.0000 </r>
        <r>    7.8983    1.0000 </r>
        <r>   14.5440    0.0000 </r>
        <r>   15.0713    0.0000 </r>
        <r>   15.3431    0.0000 </r>
        <r>   16.0599    0.0000 </r>
       </set>
       <set comment="kpoint 177">
        <r>   -7.1654    1.0000 </r>
        <r>    7.1129    1.0000 </r>
        <r>    7.5789    1.0000 </r>
        <r>    7.9208    1.0000 </r>
        <r>   14.3794    0.0000 </r>
        <r>   15.0874    0.0000 </r>
        <r>   15.2596    0.0000 </r>
        <r>   15.6950    0.0000 </r>
       </set>
       <set comment="kpoint 178">
        <r>   -7.2656    1.0000 </r>
        <r>    7.5435    1.0000 </r>
        <r>    7.7783    1.0000 </r>
        <r>    7.9335    1.0000 </r>
        <r>   14.2082    0.0000 </r>
        <r>   15.1136    0.0000 </r>
        <r>   15.1977    0.0000 </r>
        <r>   15.3923    0.0000 </r>
       </set>
       <set comment="kpoint 179">
        <r>   -7.3258    1.0000 </r>
        <r>    7.8365    1.0000 </r>
        <r>    7.9004    1.0000 </r>
        <r>    7.9397    1.0000 </r>
        <r>   14.0619    0.0000 </r>
        <r>   15.1374    0.0000 </r>
        <r>   15.1597    0.0000 </r>
        <r>   15.2070    0.0000 </r>
       </set>
       <set comment="kpoint 180">
        <r>   -7.3459    1.0000 </r>
        <r>    7.9415    1.0000 </r>
        <r>    7.9415    1.0000 </r>
        <r>    7.9415    1.0000 </r>
        <r>   14.0022    0.0000 </r>
        <r>   15.1469    0.0000 </r>
        <r>   15.1469    0.0000 </r>
        <r>   15.1469    0.0000 </r>
       </set>
       <set comment="kpoint 181">
        <r>   -7.3459    1.0000 </r>
        <r>    7.9415    1.0000 </r>
        <r>    7.9415    1.0000 </r>
        <r>    7.9415    1.0000 </r>
        <r>   14.0022    0.0000 </r>
        <r>   15.1469    0.0000 </r>
        <r>   15.1469    0.0000 </r>
        <r>   15.1469    0.0000 </r>
       </set>
       <set comment="kpoint 182">
        <r>   -7.3325    1.0000 </r>
        <r>    7.8623    1.0000 </r>
        <r>    7.9316    1.0000 </r>
        <r>    7.9316    1.0000 </r>
        <r>   14.0424    0.0000 </r>
        <r>   15.1516    0.0000 </r>
        <r>   15.1657    0.0000 </r>
        <r>   15.1657    0.0000 </r>
       </set>
       <set comment="kpoint 183">
        <r>   -7.2923    1.0000 </r>
        <r>    7.6347    1.0000 </r>
        <r>    7.9026    1.0000 </r>
        <r>    7.9026    1.0000 </r>
        <r>   14.1421    0.0000 </r>
        <r>   15.1784    0.0000 </r>
        <r>   15.2201    0.0000 </r>
        <r>   15.2201    0.0000 </r>
       </set>
       <set comment="kpoint 184">
        <r>   -7.2255    1.0000 </r>
        <r>    7.2840    1.0000 </r>
        <r>    7.8562    1.0000 </r>
        <r>    7.8562    1.0000 </r>
        <r>   14.2439    0.0000 </r>
        <r>   15.2643    0.0000 </r>
        <r>   15.3047    0.0000 </r>
        <r>   15.3047    0.0000 </r>
       </set>
       <set comment="kpoint 185">
        <r>   -7.1321    1.0000 </r>
        <r>    6.8399    1.0000 </r>
        <r>    7.7949    1.0000 </r>
        <r>    7.7949    1.0000 </r>
        <r>   14.2872    0.0000 </r>
        <r>   15.4103    0.0000 </r>
        <r>   15.4103    0.0000 </r>
        <r>   15.4468    0.0000 </r>
       </set>
       <set comment="kpoint 186">
        <r>   -7.0126    1.0000 </r>
        <r>    6.3293    1.0000 </r>
        <r>    7.7221    1.0000 </r>
        <r>    7.7221    1.0000 </r>
        <r>   14.2588    0.0000 </r>
        <r>   15.5243    0.0000 </r>
        <r>   15.5243    0.0000 </r>
        <r>   15.7197    0.0000 </r>
       </set>
       <set comment="kpoint 187">
        <r>   -6.8673    1.0000 </r>
        <r>    5.7735    1.0000 </r>
        <r>    7.6411    1.0000 </r>
        <r>    7.6411    1.0000 </r>
        <r>   14.1823    0.0000 </r>
        <r>   15.6316    0.0000 </r>
        <r>   15.6316    0.0000 </r>
        <r>   16.0443    0.0000 </r>
       </set>
       <set comment="kpoint 188">
        <r>   -6.6967    1.0000 </r>
        <r>    5.1889    1.0000 </r>
        <r>    7.5551    1.0000 </r>
        <r>    7.5551    1.0000 </r>
        <r>   14.0809    0.0000 </r>
        <r>   15.7163    0.0000 </r>
        <r>   15.7163    0.0000 </r>
        <r>   16.3854    0.0000 </r>
       </set>
       <set comment="kpoint 189">
        <r>   -6.5015    1.0000 </r>
        <r>    4.5878    1.0000 </r>
        <r>    7.4673    1.0000 </r>
        <r>    7.4673    1.0000 </r>
        <r>   13.9691    0.0000 </r>
        <r>   15.7650    0.0000 </r>
        <r>   15.7650    0.0000 </r>
        <r>   16.7183    0.0000 </r>
       </set>
       <set comment="kpoint 190">
        <r>   -6.2828    1.0000 </r>
        <r>    3.9800    1.0000 </r>
        <r>    7.3802    1.0000 </r>
        <r>    7.3802    1.0000 </r>
        <r>   13.8558    0.0000 </r>
        <r>   15.7709    0.0000 </r>
        <r>   15.7709    0.0000 </r>
        <r>   17.0246    0.0000 </r>
       </set>
       <set comment="kpoint 191">
        <r>   -6.0418    1.0000 </r>
        <r>    3.3735    1.0000 </r>
        <r>    7.2963    1.0000 </r>
        <r>    7.2963    1.0000 </r>
        <r>   13.7463    0.0000 </r>
        <r>   15.7353    0.0000 </r>
        <r>   15.7353    0.0000 </r>
        <r>   17.2907    0.0000 </r>
       </set>
       <set comment="kpoint 192">
        <r>   -5.7804    1.0000 </r>
        <r>    2.7750    1.0000 </r>
        <r>    7.2174    1.0000 </r>
        <r>    7.2174    1.0000 </r>
        <r>   13.6443    0.0000 </r>
        <r>   15.6665    0.0000 </r>
        <r>   15.6665    0.0000 </r>
        <r>   17.5074    0.0000 </r>
       </set>
       <set comment="kpoint 193">
        <r>   -5.5010    1.0000 </r>
        <r>    2.1911    1.0000 </r>
        <r>    7.1450    1.0000 </r>
        <r>    7.1450    1.0000 </r>
        <r>   13.5518    0.0000 </r>
        <r>   15.5764    0.0000 </r>
        <r>   15.5764    0.0000 </r>
        <r>   17.6709    0.0000 </r>
       </set>
       <set comment="kpoint 194">
        <r>   -5.2076    1.0000 </r>
        <r>    1.6287    1.0000 </r>
        <r>    7.0803    1.0000 </r>
        <r>    7.0803    1.0000 </r>
        <r>   13.4704    0.0000 </r>
        <r>   15.4768    0.0000 </r>
        <r>   15.4768    0.0000 </r>
        <r>   17.7840    0.0000 </r>
       </set>
       <set comment="kpoint 195">
        <r>   -4.9058    1.0000 </r>
        <r>    1.0958    1.0000 </r>
        <r>    7.0243    1.0000 </r>
        <r>    7.0243    1.0000 </r>
        <r>   13.4009    0.0000 </r>
        <r>   15.3779    0.0000 </r>
        <r>   15.3779    0.0000 </r>
        <r>   17.8540    0.0000 </r>
       </set>
       <set comment="kpoint 196">
        <r>   -4.6047    1.0000 </r>
        <r>    0.6034    1.0000 </r>
        <r>    6.9777    1.0000 </r>
        <r>    6.9777    1.0000 </r>
        <r>   13.3438    0.0000 </r>
        <r>   15.2877    0.0000 </r>
        <r>   15.2877    0.0000 </r>
        <r>   17.8921    0.0000 </r>
       </set>
       <set comment="kpoint 197">
        <r>   -4.3191    1.0000 </r>
        <r>    0.1676    1.0000 </r>
        <r>    6.9410    1.0000 </r>
        <r>    6.9410    1.0000 </r>
        <r>   13.2992    0.0000 </r>
        <r>   15.2123    0.0000 </r>
        <r>   15.2123    0.0000 </r>
        <r>   17.9090    0.0000 </r>
       </set>
       <set comment="kpoint 198">
        <r>   -4.0723    1.0000 </r>
        <r>   -0.1872    1.0000 </r>
        <r>    6.9145    1.0000 </r>
        <r>    6.9145    1.0000 </r>
        <r>   13.2674    0.0000 </r>
        <r>   15.1557    0.0000 </r>
        <r>   15.1557    0.0000 </r>
        <r>   17.9140    0.0000 </r>
       </set>
       <set comment="kpoint 199">
        <r>   -3.8983    1.0000 </r>
        <r>   -0.4262    1.0000 </r>
        <r>    6.8985    1.0000 </r>
        <r>    6.8985    1.0000 </r>
        <r>   13.2484    0.0000 </r>
        <r>   15.1207    0.0000 </r>
        <r>   15.1207    0.0000 </r>
        <r>   17.9142    0.0000 </r>
       </set>
       <set comment="kpoint 200">
        <r>   -3.8345    1.0000 </r>
        <r>   -0.5117    1.0000 </r>
        <r>    6.8932    1.0000 </r>
        <r>    6.8932    1.0000 </r>
        <r>   13.2420    0.0000 </r>
        <r>   15.1088    0.0000 </r>
        <r>   15.1088    0.0000 </r>
        <r>   17.9139    0.0000 </r>
       </set>
       <set comment="kpoint 201">
        <r>   -3.8345    1.0000 </r>
        <r>   -0.5117    1.0000 </r>
        <r>    6.8932    1.0000 </r>
        <r>    6.8932    1.0000 </r>
        <r>   13.2420    0.0000 </r>
        <r>   15.1088    0.0000 </r>
        <r>   15.1088    0.0000 </r>
        <r>   17.9139    0.0000 </r>
       </set>
       <set comment="kpoint 202">
        <r>   -3.8270    1.0000 </r>
        <r>   -0.5036    1.0000 </r>
        <r>    6.8445    1.0000 </r>
        <r>    6.8805    1.0000 </r>
        <r>   13.2755    0.0000 </r>
        <r>   15.0617    0.0000 </r>
        <r>   15.1379    0.0000 </r>
        <r>   17.9699    0.0000 </r>
       </set>
       <set comment="kpoint 203">
        <r>   -3.8045    1.0000 </r>
        <r>   -0.4792    1.0000 </r>
        <r>    6.7038    1.0000 </r>
        <r>    6.8423    1.0000 </r>
        <r>   13.3648    0.0000 </r>
        <r>   14.9394    0.0000 </r>
        <r>   15.2281    0.0000 </r>
        <r>   18.1197    0.0000 </r>
       </set>
       <set comment="kpoint 204">
        <r>   -3.7672    1.0000 </r>
        <r>   -0.4387    1.0000 </r>
        <r>    6.4850    1.0000 </r>
        <r>    6.7780    1.0000 </r>
        <r>   13.4778    0.0000 </r>
        <r>   14.7870    0.0000 </r>
        <r>   15.3869    0.0000 </r>
        <r>   18.3219    0.0000 </r>
       </set>
       <set comment="kpoint 205">
        <r>   -3.7153    1.0000 </r>
        <r>   -0.3824    1.0000 </r>
        <r>    6.2057    1.0000 </r>
        <r>    6.6869    1.0000 </r>
        <r>   13.5661    0.0000 </r>
        <r>   14.6596    0.0000 </r>
        <r>   15.6228    0.0000 </r>
        <r>   18.5331    0.0000 </r>
       </set>
       <set comment="kpoint 206">
        <r>   -3.6492    1.0000 </r>
        <r>   -0.3106    1.0000 </r>
        <r>    5.8836    1.0000 </r>
        <r>    6.5683    1.0000 </r>
        <r>   13.5822    0.0000 </r>
        <r>   14.6075    0.0000 </r>
        <r>   15.9388    0.0000 </r>
        <r>   18.7172    0.0000 </r>
       </set>
       <set comment="kpoint 207">
        <r>   -3.5694    1.0000 </r>
        <r>   -0.2239    1.0000 </r>
        <r>    5.5341    1.0000 </r>
        <r>    6.4220    1.0000 </r>
        <r>   13.5182    0.0000 </r>
        <r>   14.6444    0.0000 </r>
        <r>   16.3277    0.0000 </r>
        <r>   18.8482    0.0000 </r>
       </set>
       <set comment="kpoint 208">
        <r>   -3.4765    1.0000 </r>
        <r>   -0.1232    1.0000 </r>
        <r>    5.1696    1.0000 </r>
        <r>    6.2483    1.0000 </r>
        <r>   13.4111    0.0000 </r>
        <r>   14.7432    0.0000 </r>
        <r>   16.7734    0.0000 </r>
        <r>   18.9121    0.0000 </r>
       </set>
       <set comment="kpoint 209">
        <r>   -3.3714    1.0000 </r>
        <r>   -0.0095    1.0000 </r>
        <r>    4.8007    1.0000 </r>
        <r>    6.0484    1.0000 </r>
        <r>   13.2981    0.0000 </r>
        <r>   14.8763    0.0000 </r>
        <r>   17.2541    0.0000 </r>
        <r>   18.9082    0.0000 </r>
       </set>
       <set comment="kpoint 210">
        <r>   -3.2553    1.0000 </r>
        <r>    0.1155    1.0000 </r>
        <r>    4.4360    1.0000 </r>
        <r>    5.8247    1.0000 </r>
        <r>   13.1994    0.0000 </r>
        <r>   15.0306    0.0000 </r>
        <r>   17.7395    0.0000 </r>
        <r>   18.8520    0.0000 </r>
       </set>
       <set comment="kpoint 211">
        <r>   -3.1297    1.0000 </r>
        <r>    0.2496    1.0000 </r>
        <r>    4.0838    1.0000 </r>
        <r>    5.5802    1.0000 </r>
        <r>   13.1237    0.0000 </r>
        <r>   15.2013    0.0000 </r>
        <r>   18.1620    0.0000 </r>
        <r>   18.7967    0.0000 </r>
       </set>
       <set comment="kpoint 212">
        <r>   -2.9965    1.0000 </r>
        <r>    0.3894    1.0000 </r>
        <r>    3.7522    1.0000 </r>
        <r>    5.3188    1.0000 </r>
        <r>   13.0729    0.0000 </r>
        <r>   15.3867    0.0000 </r>
        <r>   18.3206    0.0000 </r>
        <r>   18.9119    0.0000 </r>
       </set>
       <set comment="kpoint 213">
        <r>   -2.8583    1.0000 </r>
        <r>    0.5301    1.0000 </r>
        <r>    3.4505    1.0000 </r>
        <r>    5.0448    1.0000 </r>
        <r>   13.0457    0.0000 </r>
        <r>   15.5862    0.0000 </r>
        <r>   18.2162    0.0000 </r>
        <r>   19.1161    0.0000 </r>
       </set>
       <set comment="kpoint 214">
        <r>   -2.7187    1.0000 </r>
        <r>    0.6642    1.0000 </r>
        <r>    3.1904    1.0000 </r>
        <r>    4.7627    1.0000 </r>
        <r>   13.0387    0.0000 </r>
        <r>   15.7996    0.0000 </r>
        <r>   18.0471    0.0000 </r>
        <r>   19.1188    0.0000 </r>
       </set>
       <set comment="kpoint 215">
        <r>   -2.5819    1.0000 </r>
        <r>    0.7817    1.0000 </r>
        <r>    2.9862    1.0000 </r>
        <r>    4.4776    1.0000 </r>
        <r>   13.0471    0.0000 </r>
        <r>   16.0264    0.0000 </r>
        <r>   17.8701    0.0000 </r>
        <r>   18.9279    0.0000 </r>
       </set>
       <set comment="kpoint 216">
        <r>   -2.4537    1.0000 </r>
        <r>    0.8710    1.0000 </r>
        <r>    2.8541    1.0000 </r>
        <r>    4.1945    1.0000 </r>
        <r>   13.0654    0.0000 </r>
        <r>   16.2662    0.0000 </r>
        <r>   17.7048    0.0000 </r>
        <r>   18.6533    0.0000 </r>
       </set>
       <set comment="kpoint 217">
        <r>   -2.3411    1.0000 </r>
        <r>    0.9241    1.0000 </r>
        <r>    2.8065    1.0000 </r>
        <r>    3.9194    1.0000 </r>
        <r>   13.0879    0.0000 </r>
        <r>   16.5174    0.0000 </r>
        <r>   17.5629    0.0000 </r>
        <r>   18.3530    0.0000 </r>
       </set>
       <set comment="kpoint 218">
        <r>   -2.2521    1.0000 </r>
        <r>    0.9439    1.0000 </r>
        <r>    2.8427    1.0000 </r>
        <r>    3.6604    1.0000 </r>
        <r>   13.1088    0.0000 </r>
        <r>   16.7771    0.0000 </r>
        <r>   17.4514    0.0000 </r>
        <r>   18.0536    0.0000 </r>
       </set>
       <set comment="kpoint 219">
        <r>   -2.1946    1.0000 </r>
        <r>    0.9449    1.0000 </r>
        <r>    2.9417    1.0000 </r>
        <r>    3.4340    1.0000 </r>
        <r>   13.1236    0.0000 </r>
        <r>   17.0356    0.0000 </r>
        <r>   17.3674    0.0000 </r>
        <r>   17.7834    0.0000 </r>
       </set>
       <set comment="kpoint 220">
        <r>   -2.1746    1.0000 </r>
        <r>    0.9430    1.0000 </r>
        <r>    3.0215    1.0000 </r>
        <r>    3.3130    1.0000 </r>
        <r>   13.1289    0.0000 </r>
        <r>   17.2424    0.0000 </r>
        <r>   17.2667    0.0000 </r>
        <r>   17.6444    0.0000 </r>
       </set>
       <set comment="kpoint 221">
        <r>   -2.1746    1.0000 </r>
        <r>    0.9430    1.0000 </r>
        <r>    3.0215    1.0000 </r>
        <r>    3.3130    1.0000 </r>
        <r>   13.1289    0.0000 </r>
        <r>   17.2424    0.0000 </r>
        <r>   17.2667    0.0000 </r>
        <r>   17.6444    0.0000 </r>
       </set>
       <set comment="kpoint 222">
        <r>   -2.1763    1.0000 </r>
        <r>    0.9347    1.0000 </r>
        <r>    3.0353    1.0000 </r>
        <r>    3.3208    1.0000 </r>
        <r>   13.0875    0.0000 </r>
        <r>   16.9869    0.0000 </r>
        <r>   17.3126    0.0000 </r>
        <r>   17.9021    0.0000 </r>
       </set>
       <set comment="kpoint 223">
        <r>   -2.1813    1.0000 </r>
        <r>    0.9108    1.0000 </r>
        <r>    3.0759    1.0000 </r>
        <r>    3.3442    1.0000 </r>
        <r>   12.9689    0.0000 </r>
        <r>   16.6031    0.0000 </r>
        <r>   17.4447    0.0000 </r>
        <r>   18.2921    0.0000 </r>
       </set>
       <set comment="kpoint 224">
        <r>   -2.1894    1.0000 </r>
        <r>    0.8733    1.0000 </r>
        <r>    3.1409    1.0000 </r>
        <r>    3.3829    1.0000 </r>
        <r>   12.7867    0.0000 </r>
        <r>   16.2108    0.0000 </r>
        <r>   17.6489    0.0000 </r>
        <r>   18.6944    0.0000 </r>
       </set>
       <set comment="kpoint 225">
        <r>   -2.2003    1.0000 </r>
        <r>    0.8250    1.0000 </r>
        <r>    3.2270    1.0000 </r>
        <r>    3.4362    1.0000 </r>
        <r>   12.5576    0.0000 </r>
        <r>   15.8220    0.0000 </r>
        <r>   17.9083    0.0000 </r>
        <r>   19.0958    0.0000 </r>
       </set>
       <set comment="kpoint 226">
        <r>   -2.2137    1.0000 </r>
        <r>    0.7693    1.0000 </r>
        <r>    3.3305    1.0000 </r>
        <r>    3.5033    1.0000 </r>
        <r>   12.2965    0.0000 </r>
        <r>   15.4407    0.0000 </r>
        <r>   18.2075    0.0000 </r>
        <r>   19.4915    0.0000 </r>
       </set>
       <set comment="kpoint 227">
        <r>   -2.2291    1.0000 </r>
        <r>    0.7089    1.0000 </r>
        <r>    3.4479    1.0000 </r>
        <r>    3.5833    1.0000 </r>
        <r>   12.0155    0.0000 </r>
        <r>   15.0694    0.0000 </r>
        <r>   18.5335    0.0000 </r>
        <r>   19.8773    0.0000 </r>
       </set>
       <set comment="kpoint 228">
        <r>   -2.2460    1.0000 </r>
        <r>    0.6463    1.0000 </r>
        <r>    3.5757    1.0000 </r>
        <r>    3.6749    1.0000 </r>
        <r>   11.7238    0.0000 </r>
        <r>   14.7101    0.0000 </r>
        <r>   18.8760    0.0000 </r>
        <r>   20.2491    0.0000 </r>
       </set>
       <set comment="kpoint 229">
        <r>   -2.2640    1.0000 </r>
        <r>    0.5838    1.0000 </r>
        <r>    3.7105    1.0000 </r>
        <r>    3.7766    1.0000 </r>
        <r>   11.4285    0.0000 </r>
        <r>   14.3649    0.0000 </r>
        <r>   19.2269    0.0000 </r>
        <r>   20.6029    0.0000 </r>
       </set>
       <set comment="kpoint 230">
        <r>   -2.2824    1.0000 </r>
        <r>    0.5229    1.0000 </r>
        <r>    3.8493    1.0000 </r>
        <r>    3.8867    1.0000 </r>
        <r>   11.1354    0.0000 </r>
        <r>   14.0360    0.0000 </r>
        <r>   19.5791    0.0000 </r>
        <r>   20.9346    0.0000 </r>
       </set>
       <set comment="kpoint 231">
        <r>   -2.3008    1.0000 </r>
        <r>    0.4650    1.0000 </r>
        <r>    3.9892    1.0000 </r>
        <r>    4.0030    1.0000 </r>
        <r>   10.8492    0.0000 </r>
        <r>   13.7255    0.0000 </r>
        <r>   19.9261    0.0000 </r>
        <r>   21.2410    0.0000 </r>
       </set>
       <set comment="kpoint 232">
        <r>   -2.3187    1.0000 </r>
        <r>    0.4111    1.0000 </r>
        <r>    4.1232    1.0000 </r>
        <r>    4.1270    1.0000 </r>
        <r>   10.5742    0.0000 </r>
        <r>   13.4359    0.0000 </r>
        <r>   20.2619    0.0000 </r>
        <r>   21.5205    0.0000 </r>
       </set>
       <set comment="kpoint 233">
        <r>   -2.3356    1.0000 </r>
        <r>    0.3621    1.0000 </r>
        <r>    4.2443    1.0000 </r>
        <r>    4.2598    1.0000 </r>
        <r>   10.3146    0.0000 </r>
        <r>   13.1699    0.0000 </r>
        <r>   20.5804    0.0000 </r>
        <r>   21.7513    0.0000 </r>
       </set>
       <set comment="kpoint 234">
        <r>   -2.3511    1.0000 </r>
        <r>    0.3185    1.0000 </r>
        <r>    4.3631    1.0000 </r>
        <r>    4.3844    1.0000 </r>
        <r>   10.0747    0.0000 </r>
        <r>   12.9303    0.0000 </r>
        <r>   20.8754    0.0000 </r>
        <r>   21.8367    0.0000 </r>
       </set>
       <set comment="kpoint 235">
        <r>   -2.3649    1.0000 </r>
        <r>    0.2810    1.0000 </r>
        <r>    4.4755    1.0000 </r>
        <r>    4.4975    1.0000 </r>
        <r>    9.8589    0.0000 </r>
        <r>   12.7202    0.0000 </r>
        <r>   21.1404    0.0000 </r>
        <r>   21.8357    0.0000 </r>
       </set>
       <set comment="kpoint 236">
        <r>   -2.3766    1.0000 </r>
        <r>    0.2498    1.0000 </r>
        <r>    4.5773    1.0000 </r>
        <r>    4.5958    1.0000 </r>
        <r>    9.6722    0.0000 </r>
        <r>   12.5426    0.0000 </r>
        <r>   21.3692    0.0000 </r>
        <r>   21.8216    0.0000 </r>
       </set>
       <set comment="kpoint 237">
        <r>   -2.3859    1.0000 </r>
        <r>    0.2252    1.0000 </r>
        <r>    4.6635    1.0000 </r>
        <r>    4.6762    1.0000 </r>
        <r>    9.5196    0.0000 </r>
        <r>   12.4005    0.0000 </r>
        <r>   21.5541    0.0000 </r>
        <r>   21.8160    0.0000 </r>
       </set>
       <set comment="kpoint 238">
        <r>   -2.3927    1.0000 </r>
        <r>    0.2076    1.0000 </r>
        <r>    4.7295    1.0000 </r>
        <r>    4.7360    1.0000 </r>
        <r>    9.4060    0.0000 </r>
        <r>   12.2969    0.0000 </r>
        <r>   21.6940    0.0000 </r>
        <r>   21.8103    0.0000 </r>
       </set>
       <set comment="kpoint 239">
        <r>   -2.3969    1.0000 </r>
        <r>    0.1969    1.0000 </r>
        <r>    4.7711    1.0000 </r>
        <r>    4.7729    1.0000 </r>
        <r>    9.3359    0.0000 </r>
        <r>   12.2337    0.0000 </r>
        <r>   21.7758    0.0000 </r>
        <r>   21.8134    0.0000 </r>
       </set>
       <set comment="kpoint 240">
        <r>   -2.3983    1.0000 </r>
        <r>    0.1933    1.0000 </r>
        <r>    4.7853    1.0000 </r>
        <r>    4.7853    1.0000 </r>
        <r>    9.3122    0.0000 </r>
        <r>   12.2124    0.0000 </r>
        <r>   21.8037    0.0000 </r>
        <r>   21.8138    0.0000 </r>
       </set>
      </set>
     </set>
    </array>
   </eigenvalues>
   <array>
    <dimension dim="1">ion</dimension>
    <dimension dim="2">band</dimension>
    <dimension dim="3">kpoint</dimension>
    <dimension dim="4">spin</dimension>
    <field>    s</field>
    <field>   py</field>
    <field>   pz</field>
    <field>   px</field>
    <field>  dxy</field>
    <field>  dyz</field>
    <field>  dz2</field>
    <field>  dxz</field>
    <field>x2-y2</field>
    <set>
     <set comment="spin1">
      <set comment="kpoint 1">
       <set comment="band 1">
        <r>  0.2437  0.0000  0.0000  0.0000  0.0000  0.0000  0.0000  0.0000  0.0000 </r>
        <r>  0.2523  0.0000  0.0000  0.0000  0.0000  0.0000  0.0000  0.0000  0.0000 </r>
       </set>
       <set comment="band 2">
        <r>  0.0000  0.0278  0.0004  0.0290  0.0000  0.0000  0.0000  0.0000  0.0000 </r>
        <r>  0.0000  0.2289  0.0032  0.2388  0.0000  0.0000  0.0000  0.0000  0.0000 </r>
       </set>
       <set comment="band 3">
        <r>  0.0000  0.0103  0.0377  0.0091  0.0000  0.0000  0.0000  0.0000  0.0000 </r>
        <r>  0.0000  0.0850  0.3108  0.0751  0.0000  0.0000  0.0000  0.0000  0.0000 </r>
       </set>
       <set comment="band 4">
        <r>  0.0000  0.0190  0.0190  0.0190  0.0000  0.0000  0.0000  0.0000  0.0000 </r>
        <r>  0.0000  0.1570  0.1569  0.1570  0.0000  0.0000  0.0000  0.0000  0.0000 </r>
       </set>
       <set comment="band 5">
        <r>  0.1259  0.0000  0.0000  0.0000  0.0000  0.0000  0.0000  0.0000  0.0000 </r>
        <r>  0.4456  0.0000  0.0000  0.0000  0.0000  0.0000  0.0000  0.0000  0.0000 </r>
       </set>
       <set comment="band 6">
        <r>  0.0000  0.1656  0.1661  0.1670  0.0000  0.0000  0.0000  0.0000  0.0000 </r>
        <r>  0.0000  0.0033  0.0033  0.0033  0.0000  0.0000  0.0000  0.0000  0.0000 </r>
       </set>
       <set comment="band 7">
        <r>  0.0000  0.1440  0.1676  0.1872  0.0000  0.0000  0.0000  0.0000  0.0000 </r>
        <r>  0.0000  0.0029  0.0033  0.0037  0.0000  0.0000  0.0000  0.0000  0.0000 </r>
       </set>
       <set comment="band 8">
        <r>  0.0000  0.1892  0.1650  0.1445  0.0000  0.0000  0.0000  0.0000  0.0000 </r>
        <r>  0.0000  0.0038  0.0033  0.0029  0.0000  0.0000  0.0000  0.0000  0.0000 </r>
       </set>
      </set>
      <set comment="kpoint 2">
       <set comment="band 1">
        <r>  0.2433  0.0004  0.0000  0.0000  0.0000  0.0000  0.0000  0.0000  0.0000 </r>
        <r>  0.2524  0.0001  0.0000  0.0000  0.0000  0.0000  0.0000  0.0000  0.0000 </r>
       </set>
       <set comment="band 2">
        <r>  0.0022  0.0568  0.0000  0.0000  0.0000  0.0000  0.0000  0.0000  0.0000 </r>
        <r>  0.0059  0.4633  0.0000  0.0000  0.0000  0.0000  0.0000  0.0000  0.0000 </r>
       </set>
       <set comment="band 3">
        <r>  0.0000  0.0000  0.0302  0.0302  0.0000  0.0000  0.0000  0.0000  0.0000 </r>
        <r>  0.0000  0.0000  0.2338  0.2337  0.0000  0.0000  0.0000  0.0000  0.0000 </r>
       </set>
       <set comment="band 4">
        <r>  0.0000  0.0000  0.0302  0.0302  0.0000  0.0000  0.0000  0.0000  0.0000 </r>
        <r>  0.0000  0.0000  0.2337  0.2338  0.0000  0.0000  0.0000  0.0000  0.0000 </r>
       </set>
       <set comment="band 5">
        <r>  0.1220  0.0034  0.0000  0.0000  0.0000  0.0000  0.0000  0.0000  0.0000 </r>
        <r>  0.4379  0.0080  0.0000  0.0000  0.0000  0.0000  0.0000  0.0000  0.0000 </r>
       </set>
       <set comment="band 6">
        <r>  0.0076  0.4894  0.0000  0.0000  0.0000  0.0000  0.0000  0.0000  0.0000 </r>
        <r>  0.0006  0.0108  0.0000  0.0000  0.0000  0.0000  0.0000  0.0000  0.0000 </r>
       </set>
       <set comment="band 7">
        <r>  0.0000  0.0000  0.2839  0.2111  0.0000  0.0000  0.0000  0.0000  0.0000 </r>
        <r>  0.0000  0.0000  0.0075  0.0064  0.0000  0.0000  0.0000  0.0000  0.0000 </r>
       </set>
       <set comment="band 8">
        <r>  0.0000  0.0000  0.2111  0.2839  0.0000  0.0000  0.0000  0.0000  0.0000 </r>
        <r>  0.0000  0.0000  0.0064  0.0075  0.0000  0.0000  0.0000  0.0000  0.0000 </r>
       </set>
      </set>
      <set comment="kpoint 3">
       <set comment="band 1">
        <r>  0.2420  0.0014  0.0000  0.0000  0.0000  0.0000  0.0000  0.0000  0.0000 </r>
        <r>  0.2527  0.0006  0.0000  0.0000  0.0000  0.0000  0.0000  0.0000  0.0000 </r>
       </set>
       <set comment="band 2">
        <r>  0.0081  0.0561  0.0000  0.0000  0.0000  0.0000  0.0000  0.0000  0.0000 </r>
        <r>  0.0217  0.4430  0.0000  0.0000  0.0000  0.0000  0.0000  0.0000  0.0000 </r>
       </set>
       <set comment="band 3">
        <r>  0.0000  0.0000  0.0349  0.0349  0.0000  0.0000  0.0000  0.0000  0.0000 </r>
        <r>  0.0000  0.0000  0.2291  0.2290  0.0000  0.0000  0.0000  0.0000  0.0000 </r>
       </set>
       <set comment="band 4">
        <r>  0.0000  0.0000  0.0349  0.0349  0.0000  0.0000  0.0000  0.0000  0.0000 </r>
        <r>  0.0000  0.0000  0.2290  0.2291  0.0000  0.0000  0.0000  0.0000  0.0000 </r>
       </set>
       <set comment="band 5">
        <r>  0.1061  0.0205  0.0000  0.0000  0.0000  0.0000  0.0000  0.0000  0.0000 </r>
        <r>  0.4130  0.0278  0.0000  0.0000  0.0000  0.0000  0.0000  0.0000  0.0000 </r>
       </set>
       <set comment="band 6">
        <r>  0.0337  0.4555  0.0000  0.0000  0.0000  0.0000  0.0000  0.0000  0.0000 </r>
        <r>  0.0055  0.0153  0.0000  0.0000  0.0000  0.0000  0.0000  0.0000  0.0000 </r>
       </set>
       <set comment="band 7">
        <r>  0.0000  0.0000  0.2448  0.2398  0.0000  0.0000  0.0000  0.0000  0.0000 </r>
        <r>  0.0000  0.0000  0.0105  0.0146  0.0000  0.0000  0.0000  0.0000  0.0000 </r>
       </set>
       <set comment="band 8">
        <r>  0.0000  0.0000  0.2398  0.2448  0.0000  0.0000  0.0000  0.0000  0.0000 </r>
        <r>  0.0000  0.0000  0.0146  0.0105  0.0000  0.0000  0.0000  0.0000  0.0000 </r>
       </set>
      </set>
      <set comment="kpoint 4">
       <set comment="band 1">
        <r>  0.2399  0.0032  0.0000  0.0000  0.0000  0.0000  0.0000  0.0000  0.0000 </r>
        <r>  0.2531  0.0012  0.0000  0.0000  0.0000  0.0000  0.0000  0.0000  0.0000 </r>
       </set>
       <set comment="band 2">
        <r>  0.0168  0.0554  0.0000  0.0000  0.0000  0.0000  0.0000  0.0000  0.0000 </r>
        <r>  0.0431  0.4151  0.0000  0.0000  0.0000  0.0000  0.0000  0.0000  0.0000 </r>
       </set>
       <set comment="band 3">
        <r>  0.0000  0.0000  0.0417  0.0417  0.0000  0.0000  0.0000  0.0000  0.0000 </r>
        <r>  0.0000  0.0000  0.2223  0.2222  0.0000  0.0000  0.0000  0.0000  0.0000 </r>
       </set>
       <set comment="band 4">
        <r>  0.0000  0.0000  0.0417  0.0417  0.0000  0.0000  0.0000  0.0000  0.0000 </r>
        <r>  0.0000  0.0000  0.2222  0.2223  0.0000  0.0000  0.0000  0.0000  0.0000 </r>
       </set>
       <set comment="band 5">
        <r>  0.0483  0.1280  0.0000  0.0000  0.0000  0.0000  0.0000  0.0000  0.0000 </r>
        <r>  0.3240  0.0356  0.0000  0.0000  0.0000  0.0000  0.0000  0.0000  0.0000 </r>
       </set>
       <set comment="band 6">
        <r>  0.1070  0.3233  0.0000  0.0000  0.0000  0.0000  0.0000  0.0000  0.0000 </r>
        <r>  0.0650  0.0416  0.0000  0.0000  0.0000  0.0000  0.0000  0.0000  0.0000 </r>
       </set>
       <set comment="band 7">
        <r>  0.0000  0.0000  0.4390  0.0302  0.0000  0.0000  0.0000  0.0000  0.0000 </r>
        <r>  0.0000  0.0000  0.0090  0.0326  0.0000  0.0000  0.0000  0.0000  0.0000 </r>
       </set>
       <set comment="band 8">
        <r>  0.0000  0.0000  0.0302  0.4390  0.0000  0.0000  0.0000  0.0000  0.0000 </r>
        <r>  0.0000  0.0000  0.0326  0.0090  0.0000  0.0000  0.0000  0.0000  0.0000 </r>
       </set>
      </set>
      <set comment="kpoint 5">
       <set comment="band 1">
        <r>  0.2369  0.0056  0.0000  0.0000  0.0000  0.0000  0.0000  0.0000  0.0000 </r>
        <r>  0.2539  0.0022  0.0000  0.0000  0.0000  0.0000  0.0000  0.0000  0.0000 </r>
       </set>
       <set comment="band 2">
        <r>  0.0272  0.0550  0.0000  0.0000  0.0000  0.0000  0.0000  0.0000  0.0000 </r>
        <r>  0.0660  0.3844  0.0000  0.0000  0.0000  0.0000  0.0000  0.0000  0.0000 </r>
       </set>
       <set comment="band 3">
        <r>  0.0000  0.0000  0.0495  0.0495  0.0000  0.0000  0.0000  0.0000  0.0000 </r>
        <r>  0.0000  0.0000  0.2144  0.2144  0.0000  0.0000  0.0000  0.0000  0.0000 </r>
       </set>
       <set comment="band 4">
        <r>  0.0000  0.0000  0.0495  0.0495  0.0000  0.0000  0.0000  0.0000  0.0000 </r>
        <r>  0.0000  0.0000  0.2144  0.2144  0.0000  0.0000  0.0000  0.0000  0.0000 </r>
       </set>
       <set comment="band 5">
        <r>  0.0026  0.3646  0.0000  0.0000  0.0000  0.0000  0.0000  0.0000  0.0000 </r>
        <r>  0.1010  0.0051  0.0000  0.0000  0.0000  0.0000  0.0000  0.0000  0.0000 </r>
       </set>
       <set comment="band 6">
        <r>  0.1710  0.0572  0.0000  0.0000  0.0000  0.0000  0.0000  0.0000  0.0000 </r>
        <r>  0.2503  0.1095  0.0000  0.0000  0.0000  0.0000  0.0000  0.0000  0.0000 </r>
       </set>
       <set comment="band 7">
        <r>  0.0000  0.0000  0.2489  0.2020  0.0000  0.0000  0.0000  0.0000  0.0000 </r>
        <r>  0.0000  0.0000  0.0277  0.0336  0.0000  0.0000  0.0000  0.0000  0.0000 </r>
       </set>
       <set comment="band 8">
        <r>  0.0000  0.0000  0.2020  0.2489  0.0000  0.0000  0.0000  0.0000  0.0000 </r>
        <r>  0.0000  0.0000  0.0336  0.0277  0.0000  0.0000  0.0000  0.0000  0.0000 </r>
       </set>
      </set>
      <set comment="kpoint 6">
       <set comment="band 1">
        <r>  0.2330  0.0087  0.0000  0.0000  0.0000  0.0000  0.0000  0.0000  0.0000 </r>
        <r>  0.2550  0.0034  0.0000  0.0000  0.0000  0.0000  0.0000  0.0000  0.0000 </r>
       </set>
       <set comment="band 2">
        <r>  0.0387  0.0550  0.0000  0.0000  0.0000  0.0000  0.0000  0.0000  0.0000 </r>
        <r>  0.0876  0.3543  0.0000  0.0000  0.0000  0.0000  0.0000  0.0000  0.0000 </r>
       </set>
       <set comment="band 3">
        <r>  0.0000  0.0000  0.0577  0.0577  0.0000  0.0000  0.0000  0.0000  0.0000 </r>
        <r>  0.0000  0.0000  0.2064  0.2063  0.0000  0.0000  0.0000  0.0000  0.0000 </r>
       </set>
       <set comment="band 4">
        <r>  0.0000  0.0000  0.0577  0.0577  0.0000  0.0000  0.0000  0.0000  0.0000 </r>
        <r>  0.0000  0.0000  0.2063  0.2064  0.0000  0.0000  0.0000  0.0000  0.0000 </r>
       </set>
       <set comment="band 5">
        <r>  0.0274  0.3790  0.0000  0.0000  0.0000  0.0000  0.0000  0.0000  0.0000 </r>
        <r>  0.0482  0.0007  0.0000  0.0000  0.0000  0.0000  0.0000  0.0000  0.0000 </r>
       </set>
       <set comment="band 6">
        <r>  0.1644  0.0109  0.0000  0.0000  0.0000  0.0000  0.0000  0.0000  0.0000 </r>
        <r>  0.2552  0.1465  0.0000  0.0000  0.0000  0.0000  0.0000  0.0000  0.0000 </r>
       </set>
       <set comment="band 7">
        <r>  0.0000  0.0000  0.2220  0.2090  0.0000  0.0000  0.0000  0.0000  0.0000 </r>
        <r>  0.0000  0.0000  0.0402  0.0422  0.0000  0.0000  0.0000  0.0000  0.0000 </r>
       </set>
       <set comment="band 8">
        <r>  0.0000  0.0000  0.2090  0.2220  0.0000  0.0000  0.0000  0.0000  0.0000 </r>
        <r>  0.0000  0.0000  0.0422  0.0402  0.0000  0.0000  0.0000  0.0000  0.0000 </r>
       </set>
      </set>
      <set comment="kpoint 7">
       <set comment="band 1">
        <r>  0.2281  0.0125  0.0000  0.0000  0.0000  0.0000  0.0000  0.0000  0.0000 </r>
        <r>  0.2565  0.0049  0.0000  0.0000  0.0000  0.0000  0.0000  0.0000  0.0000 </r>
       </set>
       <set comment="band 2">
        <r>  0.0510  0.0554  0.0000  0.0000  0.0000  0.0000  0.0000  0.0000  0.0000 </r>
        <r>  0.1067  0.3261  0.0000  0.0000  0.0000  0.0000  0.0000  0.0000  0.0000 </r>
       </set>
       <set comment="band 3">
        <r>  0.0000  0.0000  0.0657  0.0657  0.0000  0.0000  0.0000  0.0000  0.0000 </r>
        <r>  0.0000  0.0000  0.1986  0.1986  0.0000  0.0000  0.0000  0.0000  0.0000 </r>
       </set>
       <set comment="band 4">
        <r>  0.0000  0.0000  0.0657  0.0657  0.0000  0.0000  0.0000  0.0000  0.0000 </r>
        <r>  0.0000  0.0000  0.1986  0.1986  0.0000  0.0000  0.0000  0.0000  0.0000 </r>
       </set>
       <set comment="band 5">
        <r>  0.0466  0.3534  0.0000  0.0000  0.0000  0.0000  0.0000  0.0000  0.0000 </r>
        <r>  0.0381  0.0003  0.0000  0.0000  0.0000  0.0000  0.0000  0.0000  0.0000 </r>
       </set>
       <set comment="band 6">
        <r>  0.1593  0.0037  0.0000  0.0000  0.0000  0.0000  0.0000  0.0000  0.0000 </r>
        <r>  0.2038  0.1626  0.0000  0.0000  0.0000  0.0000  0.0000  0.0000  0.0000 </r>
       </set>
       <set comment="band 7">
        <r>  0.0000  0.0000  0.3235  0.0872  0.0000  0.0000  0.0000  0.0000  0.0000 </r>
        <r>  0.0000  0.0000  0.0222  0.0816  0.0000  0.0000  0.0000  0.0000  0.0000 </r>
       </set>
       <set comment="band 8">
        <r>  0.0000  0.0000  0.0872  0.3235  0.0000  0.0000  0.0000  0.0000  0.0000 </r>
        <r>  0.0000  0.0000  0.0816  0.0222  0.0000  0.0000  0.0000  0.0000  0.0000 </r>
       </set>
      </set>
      <set comment="kpoint 8">
       <set comment="band 1">
        <r>  0.2224  0.0170  0.0000  0.0000  0.0000  0.0000  0.0000  0.0000  0.0000 </r>
        <r>  0.2584  0.0066  0.0000  0.0000  0.0000  0.0000  0.0000  0.0000  0.0000 </r>
       </set>
       <set comment="band 2">
        <r>  0.0643  0.0562  0.0000  0.0000  0.0000  0.0000  0.0000  0.0000  0.0000 </r>
        <r>  0.1224  0.3006  0.0000  0.0000  0.0000  0.0000  0.0000  0.0000  0.0000 </r>
       </set>
       <set comment="band 3">
        <r>  0.0000  0.0000  0.0730  0.0730  0.0000  0.0000  0.0000  0.0000  0.0000 </r>
        <r>  0.0000  0.0000  0.1916  0.1916  0.0000  0.0000  0.0000  0.0000  0.0000 </r>
       </set>
       <set comment="band 4">
        <r>  0.0000  0.0000  0.0730  0.0730  0.0000  0.0000  0.0000  0.0000  0.0000 </r>
        <r>  0.0000  0.0000  0.1916  0.1916  0.0000  0.0000  0.0000  0.0000  0.0000 </r>
       </set>
       <set comment="band 5">
        <r>  0.0581  0.3217  0.0000  0.0000  0.0000  0.0000  0.0000  0.0000  0.0000 </r>
        <r>  0.0371  0.0003  0.0000  0.0000  0.0000  0.0000  0.0000  0.0000  0.0000 </r>
       </set>
       <set comment="band 6">
        <r>  0.1544  0.0026  0.0000  0.0000  0.0000  0.0000  0.0000  0.0000  0.0000 </r>
        <r>  0.1382  0.1518  0.0000  0.0000  0.0000  0.0000  0.0000  0.0000  0.0000 </r>
       </set>
       <set comment="band 7">
        <r>  0.0000  0.0000  0.2451  0.1454  0.0000  0.0000  0.0000  0.0000  0.0000 </r>
        <r>  0.0000  0.0000  0.0495  0.0751  0.0000  0.0000  0.0000  0.0000  0.0000 </r>
       </set>
       <set comment="band 8">
        <r>  0.0000  0.0000  0.1454  0.2451  0.0000  0.0000  0.0000  0.0000  0.0000 </r>
        <r>  0.0000  0.0000  0.0751  0.0495  0.0000  0.0000  0.0000  0.0000  0.0000 </r>
       </set>
      </set>
      <set comment="kpoint 9">
       <set comment="band 1">
        <r>  0.2155  0.0221  0.0000  0.0000  0.0000  0.0000  0.0000  0.0000  0.0000 </r>
        <r>  0.2609  0.0085  0.0000  0.0000  0.0000  0.0000  0.0000  0.0000  0.0000 </r>
       </set>
       <set comment="band 2">
        <r>  0.0785  0.0572  0.0000  0.0000  0.0000  0.0000  0.0000  0.0000  0.0000 </r>
        <r>  0.1346  0.2776  0.0000  0.0000  0.0000  0.0000  0.0000  0.0000  0.0000 </r>
       </set>
       <set comment="band 3">
        <r>  0.0000  0.0000  0.0797  0.0797  0.0000  0.0000  0.0000  0.0000  0.0000 </r>
        <r>  0.0000  0.0000  0.1853  0.1853  0.0000  0.0000  0.0000  0.0000  0.0000 </r>
       </set>
       <set comment="band 4">
        <r>  0.0000  0.0000  0.0797  0.0797  0.0000  0.0000  0.0000  0.0000  0.0000 </r>
        <r>  0.0000  0.0000  0.1853  0.1853  0.0000  0.0000  0.0000  0.0000  0.0000 </r>
       </set>
       <set comment="band 5">
        <r>  0.0626  0.2885  0.0000  0.0000  0.0000  0.0000  0.0000  0.0000  0.0000 </r>
        <r>  0.0396  0.0004  0.0000  0.0000  0.0000  0.0000  0.0000  0.0000  0.0000 </r>
       </set>
       <set comment="band 6">
        <r>  0.1525  0.0033  0.0000  0.0000  0.0000  0.0000  0.0000  0.0000  0.0000 </r>
        <r>  0.0843  0.1249  0.0000  0.0000  0.0000  0.0000  0.0000  0.0000  0.0000 </r>
       </set>
       <set comment="band 7">
        <r>  0.0000  0.0000  0.0607  0.3100  0.0000  0.0000  0.0000  0.0000  0.0000 </r>
        <r>  0.0000  0.0000  0.1286  0.0161  0.0000  0.0000  0.0000  0.0000  0.0000 </r>
       </set>
       <set comment="band 8">
        <r>  0.0000  0.0000  0.3100  0.0607  0.0000  0.0000  0.0000  0.0000  0.0000 </r>
        <r>  0.0000  0.0000  0.0161  0.1285  0.0000  0.0000  0.0000  0.0000  0.0000 </r>
       </set>
      </set>
      <set comment="kpoint 10">
       <set comment="band 1">
        <r>  0.2076  0.0279  0.0000  0.0000  0.0000  0.0000  0.0000  0.0000  0.0000 </r>
        <r>  0.2641  0.0105  0.0000  0.0000  0.0000  0.0000  0.0000  0.0000  0.0000 </r>
       </set>
       <set comment="band 2">
        <r>  0.0939  0.0582  0.0000  0.0000  0.0000  0.0000  0.0000  0.0000  0.0000 </r>
        <r>  0.1432  0.2570  0.0000  0.0000  0.0000  0.0000  0.0000  0.0000  0.0000 </r>
       </set>
       <set comment="band 3">
        <r>  0.0000  0.0000  0.0857  0.0857  0.0000  0.0000  0.0000  0.0000  0.0000 </r>
        <r>  0.0000  0.0000  0.1798  0.1798  0.0000  0.0000  0.0000  0.0000  0.0000 </r>
       </set>
       <set comment="band 4">
        <r>  0.0000  0.0000  0.0857  0.0857  0.0000  0.0000  0.0000  0.0000  0.0000 </r>
        <r>  0.0000  0.0000  0.1798  0.1798  0.0000  0.0000  0.0000  0.0000  0.0000 </r>
       </set>
       <set comment="band 5">
        <r>  0.0609  0.2555  0.0000  0.0000  0.0000  0.0000  0.0000  0.0000  0.0000 </r>
        <r>  0.0439  0.0006  0.0000  0.0000  0.0000  0.0000  0.0000  0.0000  0.0000 </r>
       </set>
       <set comment="band 6">
        <r>  0.1575  0.0052  0.0000  0.0000  0.0000  0.0000  0.0000  0.0000  0.0000 </r>
        <r>  0.0504  0.0988  0.0000  0.0000  0.0000  0.0000  0.0000  0.0000  0.0000 </r>
       </set>
       <set comment="band 7">
        <r>  0.0000  0.0000  0.1550  0.1964  0.0000  0.0000  0.0000  0.0000  0.0000 </r>
        <r>  0.0000  0.0000  0.1002  0.0638  0.0000  0.0000  0.0000  0.0000  0.0000 </r>
       </set>
       <set comment="band 8">
        <r>  0.0000  0.0000  0.1963  0.1550  0.0000  0.0000  0.0000  0.0000  0.0000 </r>
        <r>  0.0000  0.0000  0.0638  0.1001  0.0000  0.0000  0.0000  0.0000  0.0000 </r>
       </set>
      </set>
      <set comment="kpoint 11">
       <set comment="band 1">
        <r>  0.1983  0.0343  0.0000  0.0000  0.0000  0.0000  0.0000  0.0000  0.0000 </r>
        <r>  0.2682  0.0127  0.0000  0.0000  0.0000  0.0000  0.0000  0.0000  0.0000 </r>
       </set>
       <set comment="band 2">
        <r>  0.1106  0.0588  0.0000  0.0000  0.0000  0.0000  0.0000  0.0000  0.0000 </r>
        <r>  0.1481  0.2386  0.0000  0.0000  0.0000  0.0000  0.0000  0.0000  0.0000 </r>
       </set>
       <set comment="band 3">
        <r>  0.0000  0.0000  0.0909  0.0909  0.0000  0.0000  0.0000  0.0000  0.0000 </r>
        <r>  0.0000  0.0000  0.1750  0.1751  0.0000  0.0000  0.0000  0.0000  0.0000 </r>
       </set>
       <set comment="band 4">
        <r>  0.0000  0.0000  0.0909  0.0909  0.0000  0.0000  0.0000  0.0000  0.0000 </r>
        <r>  0.0000  0.0000  0.1751  0.1750  0.0000  0.0000  0.0000  0.0000  0.0000 </r>
       </set>
       <set comment="band 5">
        <r>  0.0548  0.2242  0.0000  0.0000  0.0000  0.0000  0.0000  0.0000  0.0000 </r>
        <r>  0.0493  0.0007  0.0000  0.0000  0.0000  0.0000  0.0000  0.0000  0.0000 </r>
       </set>
       <set comment="band 6">
        <r>  0.1686  0.0073  0.0000  0.0000  0.0000  0.0000  0.0000  0.0000  0.0000 </r>
        <r>  0.0306  0.0792  0.0000  0.0000  0.0000  0.0000  0.0000  0.0000  0.0000 </r>
       </set>
       <set comment="band 7">
        <r>  0.0000  0.0000  0.0745  0.2581  0.0000  0.0000  0.0000  0.0000  0.0000 </r>
        <r>  0.0000  0.0000  0.1150  0.0674  0.0000  0.0000  0.0000  0.0000  0.0000 </r>
       </set>
       <set comment="band 8">
        <r>  0.0000  0.0000  0.2580  0.0745  0.0000  0.0000  0.0000  0.0000  0.0000 </r>
        <r>  0.0000  0.0000  0.0675  0.1150  0.0000  0.0000  0.0000  0.0000  0.0000 </r>
       </set>
      </set>
      <set comment="kpoint 12">
       <set comment="band 1">
        <r>  0.1876  0.0414  0.0000  0.0000  0.0000  0.0000  0.0000  0.0000  0.0000 </r>
        <r>  0.2735  0.0148  0.0000  0.0000  0.0000  0.0000  0.0000  0.0000  0.0000 </r>
       </set>
       <set comment="band 2">
        <r>  0.1286  0.0589  0.0000  0.0000  0.0000  0.0000  0.0000  0.0000  0.0000 </r>
        <r>  0.1494  0.2222  0.0000  0.0000  0.0000  0.0000  0.0000  0.0000  0.0000 </r>
       </set>
       <set comment="band 3">
        <r>  0.0000  0.0000  0.0955  0.0955  0.0000  0.0000  0.0000  0.0000  0.0000 </r>
        <r>  0.0000  0.0000  0.1710  0.1710  0.0000  0.0000  0.0000  0.0000  0.0000 </r>
       </set>
       <set comment="band 4">
        <r>  0.0000  0.0000  0.0955  0.0955  0.0000  0.0000  0.0000  0.0000  0.0000 </r>
        <r>  0.0000  0.0000  0.1710  0.1710  0.0000  0.0000  0.0000  0.0000  0.0000 </r>
       </set>
       <set comment="band 5">
        <r>  0.0460  0.1956  0.0000  0.0000  0.0000  0.0000  0.0000  0.0000  0.0000 </r>
        <r>  0.0553  0.0006  0.0000  0.0000  0.0000  0.0000  0.0000  0.0000  0.0000 </r>
       </set>
       <set comment="band 6">
        <r>  0.1830  0.0089  0.0000  0.0000  0.0000  0.0000  0.0000  0.0000  0.0000 </r>
        <r>  0.0190  0.0652  0.0000  0.0000  0.0000  0.0000  0.0000  0.0000  0.0000 </r>
       </set>
       <set comment="band 7">
        <r>  0.0000  0.0000  0.0353  0.2788  0.0000  0.0000  0.0000  0.0000  0.0000 </r>
        <r>  0.0000  0.0000  0.1437  0.0566  0.0000  0.0000  0.0000  0.0000  0.0000 </r>
       </set>
       <set comment="band 8">
        <r>  0.0000  0.0000  0.2788  0.0353  0.0000  0.0000  0.0000  0.0000  0.0000 </r>
        <r>  0.0000  0.0001  0.0565  0.1433  0.0000  0.0000  0.0000  0.0000  0.0000 </r>
       </set>
      </set>
      <set comment="kpoint 13">
       <set comment="band 1">
        <r>  0.1751  0.0493  0.0000  0.0000  0.0000  0.0000  0.0000  0.0000  0.0000 </r>
        <r>  0.2804  0.0169  0.0000  0.0000  0.0000  0.0000  0.0000  0.0000  0.0000 </r>
       </set>
       <set comment="band 2">
        <r>  0.1481  0.0579  0.0000  0.0000  0.0000  0.0000  0.0000  0.0000  0.0000 </r>
        <r>  0.1469  0.2077  0.0000  0.0000  0.0000  0.0000  0.0000  0.0000  0.0000 </r>
       </set>
       <set comment="band 3">
        <r>  0.0000  0.0000  0.0994  0.0994  0.0000  0.0000  0.0000  0.0000  0.0000 </r>
        <r>  0.0000  0.0000  0.1676  0.1676  0.0000  0.0000  0.0000  0.0000  0.0000 </r>
       </set>
       <set comment="band 4">
        <r>  0.0000  0.0000  0.0994  0.0994  0.0000  0.0000  0.0000  0.0000  0.0000 </r>
        <r>  0.0000  0.0000  0.1676  0.1676  0.0000  0.0000  0.0000  0.0000  0.0000 </r>
       </set>
       <set comment="band 5">
        <r>  0.0364  0.1708  0.0000  0.0000  0.0000  0.0000  0.0000  0.0000  0.0000 </r>
        <r>  0.0617  0.0005  0.0000  0.0000  0.0000  0.0000  0.0000  0.0000  0.0000 </r>
       </set>
       <set comment="band 6">
        <r>  0.1980  0.0094  0.0000  0.0000  0.0000  0.0000  0.0000  0.0000  0.0000 </r>
        <r>  0.0118  0.0554  0.0000  0.0000  0.0000  0.0000  0.0000  0.0000  0.0000 </r>
       </set>
       <set comment="band 7">
        <r>  0.0000  0.0000  0.0287  0.2677  0.0000  0.0000  0.0000  0.0000  0.0000 </r>
        <r>  0.0000  0.0000  0.2028  0.0149  0.0000  0.0000  0.0000  0.0000  0.0000 </r>
       </set>
       <set comment="band 8">
        <r>  0.0000  0.0000  0.2674  0.0287  0.0000  0.0000  0.0000  0.0000  0.0000 </r>
        <r>  0.0000  0.0000  0.0149  0.2025  0.0000  0.0000  0.0000  0.0000  0.0000 </r>
       </set>
      </set>
      <set comment="kpoint 14">
       <set comment="band 1">
        <r>  0.1602  0.0581  0.0000  0.0000  0.0000  0.0000  0.0000  0.0000  0.0000 </r>
        <r>  0.2896  0.0186  0.0000  0.0000  0.0000  0.0000  0.0000  0.0000  0.0000 </r>
       </set>
       <set comment="band 2">
        <r>  0.1694  0.0555  0.0000  0.0000  0.0000  0.0000  0.0000  0.0000  0.0000 </r>
        <r>  0.1404  0.1953  0.0000  0.0000  0.0000  0.0000  0.0000  0.0000  0.0000 </r>
       </set>
       <set comment="band 3">
        <r>  0.0000  0.0000  0.1028  0.1028  0.0000  0.0000  0.0000  0.0000  0.0000 </r>
        <r>  0.0000  0.0000  0.1647  0.1647  0.0000  0.0000  0.0000  0.0000  0.0000 </r>
       </set>
       <set comment="band 4">
        <r>  0.0000  0.0000  0.1028  0.1028  0.0000  0.0000  0.0000  0.0000  0.0000 </r>
        <r>  0.0000  0.0000  0.1647  0.1647  0.0000  0.0000  0.0000  0.0000  0.0000 </r>
       </set>
       <set comment="band 5">
        <r>  0.0272  0.1501  0.0000  0.0000  0.0000  0.0000  0.0000  0.0000  0.0000 </r>
        <r>  0.0681  0.0004  0.0000  0.0000  0.0000  0.0000  0.0000  0.0000  0.0000 </r>
       </set>
       <set comment="band 6">
        <r>  0.2122  0.0088  0.0000  0.0000  0.0000  0.0000  0.0000  0.0000  0.0000 </r>
        <r>  0.0073  0.0485  0.0000  0.0000  0.0000  0.0000  0.0000  0.0000  0.0000 </r>
       </set>
       <set comment="band 7">
        <r>  0.0000  0.0000  0.1172  0.1619  0.0000  0.0000  0.0000  0.0000  0.0000 </r>
        <r>  0.0000  0.0000  0.1304  0.1045  0.0000  0.0000  0.0000  0.0000  0.0000 </r>
       </set>
       <set comment="band 8">
        <r>  0.0000  0.0000  0.1618  0.1172  0.0000  0.0000  0.0000  0.0000  0.0000 </r>
        <r>  0.0000  0.0001  0.1046  0.1300  0.0000  0.0000  0.0000  0.0000  0.0000 </r>
       </set>
      </set>
      <set comment="kpoint 15">
       <set comment="band 1">
        <r>  0.1423  0.0680  0.0000  0.0000  0.0000  0.0000  0.0000  0.0000  0.0000 </r>
        <r>  0.3020  0.0197  0.0000  0.0000  0.0000  0.0000  0.0000  0.0000  0.0000 </r>
       </set>
       <set comment="band 2">
        <r>  0.1930  0.0512  0.0000  0.0000  0.0000  0.0000  0.0000  0.0000  0.0000 </r>
        <r>  0.1293  0.1851  0.0000  0.0000  0.0000  0.0000  0.0000  0.0000  0.0000 </r>
       </set>
       <set comment="band 3">
        <r>  0.0000  0.0000  0.1055  0.1055  0.0000  0.0000  0.0000  0.0000  0.0000 </r>
        <r>  0.0000  0.0000  0.1624  0.1624  0.0000  0.0000  0.0000  0.0000  0.0000 </r>
       </set>
       <set comment="band 4">
        <r>  0.0000  0.0000  0.1055  0.1055  0.0000  0.0000  0.0000  0.0000  0.0000 </r>
        <r>  0.0000  0.0000  0.1624  0.1624  0.0000  0.0000  0.0000  0.0000  0.0000 </r>
       </set>
       <set comment="band 5">
        <r>  0.0190  0.1334  0.0000  0.0000  0.0000  0.0000  0.0000  0.0000  0.0000 </r>
        <r>  0.0742  0.0002  0.0000  0.0000  0.0000  0.0000  0.0000  0.0000  0.0000 </r>
       </set>
       <set comment="band 6">
        <r>  0.2247  0.0073  0.0000  0.0000  0.0000  0.0000  0.0000  0.0000  0.0000 </r>
        <r>  0.0044  0.0435  0.0000  0.0000  0.0000  0.0000  0.0000  0.0000  0.0000 </r>
       </set>
       <set comment="band 7">
        <r>  0.0000  0.0000  0.0122  0.2504  0.0000  0.0000  0.0000  0.0000  0.0000 </r>
        <r>  0.0000  0.0000  0.2393  0.0126  0.0000  0.0000  0.0000  0.0000  0.0000 </r>
       </set>
       <set comment="band 8">
        <r>  0.0001  0.0000  0.2502  0.0121  0.0000  0.0000  0.0000  0.0000  0.0000 </r>
        <r>  0.0001  0.0005  0.0129  0.2381  0.0000  0.0000  0.0000  0.0000  0.0000 </r>
       </set>
      </set>
      <set comment="kpoint 16">
       <set comment="band 1">
        <r>  0.1202  0.0794  0.0000  0.0000  0.0000  0.0000  0.0000  0.0000  0.0000 </r>
        <r>  0.3190  0.0196  0.0000  0.0000  0.0000  0.0000  0.0000  0.0000  0.0000 </r>
       </set>
       <set comment="band 2">
        <r>  0.2201  0.0446  0.0000  0.0000  0.0000  0.0000  0.0000  0.0000  0.0000 </r>
        <r>  0.1126  0.1778  0.0000  0.0000  0.0000  0.0000  0.0000  0.0000  0.0000 </r>
       </set>
       <set comment="band 3">
        <r>  0.0000  0.0000  0.1078  0.1077  0.0000  0.0000  0.0000  0.0000  0.0000 </r>
        <r>  0.0000  0.0000  0.1606  0.1606  0.0000  0.0000  0.0000  0.0000  0.0000 </r>
       </set>
       <set comment="band 4">
        <r>  0.0000  0.0000  0.1077  0.1078  0.0000  0.0000  0.0000  0.0000  0.0000 </r>
        <r>  0.0000  0.0000  0.1606  0.1606  0.0000  0.0000  0.0000  0.0000  0.0000 </r>
       </set>
       <set comment="band 5">
        <r>  0.0121  0.1203  0.0000  0.0000  0.0000  0.0000  0.0000  0.0000  0.0000 </r>
        <r>  0.0798  0.0001  0.0000  0.0000  0.0000  0.0000  0.0000  0.0000  0.0000 </r>
       </set>
       <set comment="band 6">
        <r>  0.2350  0.0053  0.0000  0.0000  0.0000  0.0000  0.0000  0.0000  0.0000 </r>
        <r>  0.0025  0.0400  0.0000  0.0000  0.0000  0.0000  0.0000  0.0000  0.0000 </r>
       </set>
       <set comment="band 7">
        <r>  0.0000  0.0000  0.0477  0.1995  0.0000  0.0000  0.0000  0.0000  0.0000 </r>
        <r>  0.0000  0.0000  0.2476  0.0209  0.0000  0.0000  0.0000  0.0000  0.0000 </r>
       </set>
       <set comment="band 8">
        <r>  0.0000  0.0000  0.1991  0.0475  0.0000  0.0000  0.0000  0.0000  0.0000 </r>
        <r>  0.0000  0.0002  0.0209  0.2473  0.0000  0.0000  0.0000  0.0000  0.0000 </r>
       </set>
      </set>
      <set comment="kpoint 17">
       <set comment="band 1">
        <r>  0.0921  0.0927  0.0000  0.0000  0.0000  0.0000  0.0000  0.0000  0.0000 </r>
        <r>  0.3427  0.0174  0.0000  0.0000  0.0000  0.0000  0.0000  0.0000  0.0000 </r>
       </set>
       <set comment="band 2">
        <r>  0.2520  0.0349  0.0000  0.0000  0.0000  0.0000  0.0000  0.0000  0.0000 </r>
        <r>  0.0888  0.1742  0.0000  0.0000  0.0000  0.0000  0.0000  0.0000  0.0000 </r>
       </set>
       <set comment="band 3">
        <r>  0.0000  0.0000  0.1095  0.1094  0.0000  0.0000  0.0000  0.0000  0.0000 </r>
        <r>  0.0000  0.0000  0.1592  0.1592  0.0000  0.0000  0.0000  0.0000  0.0000 </r>
       </set>
       <set comment="band 4">
        <r>  0.0000  0.0000  0.1094  0.1095  0.0000  0.0000  0.0000  0.0000  0.0000 </r>
        <r>  0.0000  0.0000  0.1592  0.1592  0.0000  0.0000  0.0000  0.0000  0.0000 </r>
       </set>
       <set comment="band 5">
        <r>  0.0068  0.1106  0.0000  0.0000  0.0000  0.0000  0.0000  0.0000  0.0000 </r>
        <r>  0.0845  0.0001  0.0000  0.0000  0.0000  0.0000  0.0000  0.0000  0.0000 </r>
       </set>
       <set comment="band 6">
        <r>  0.2430  0.0032  0.0000  0.0000  0.0000  0.0000  0.0000  0.0000  0.0000 </r>
        <r>  0.0013  0.0376  0.0000  0.0000  0.0000  0.0000  0.0000  0.0000  0.0000 </r>
       </set>
       <set comment="band 7">
        <r>  0.0000  0.0000  0.1239  0.1096  0.0000  0.0000  0.0000  0.0000  0.0000 </r>
        <r>  0.0000  0.0000  0.1367  0.1475  0.0000  0.0000  0.0000  0.0000  0.0000 </r>
       </set>
       <set comment="band 8">
        <r>  0.0001  0.0000  0.1098  0.1232  0.0000  0.0000  0.0000  0.0000  0.0000 </r>
        <r>  0.0000  0.0005  0.1467  0.1369  0.0000  0.0000  0.0000  0.0000  0.0000 </r>
       </set>
      </set>
      <set comment="kpoint 18">
       <set comment="band 1">
        <r>  0.0570  0.1084  0.0000  0.0000  0.0000  0.0000  0.0000  0.0000  0.0000 </r>
        <r>  0.3748  0.0123  0.0000  0.0000  0.0000  0.0000  0.0000  0.0000  0.0000 </r>
       </set>
       <set comment="band 2">
        <r>  0.2899  0.0219  0.0000  0.0000  0.0000  0.0000  0.0000  0.0000  0.0000 </r>
        <r>  0.0563  0.1752  0.0000  0.0000  0.0000  0.0000  0.0000  0.0000  0.0000 </r>
       </set>
       <set comment="band 3">
        <r>  0.0000  0.0000  0.1107  0.1107  0.0000  0.0000  0.0000  0.0000  0.0000 </r>
        <r>  0.0000  0.0000  0.1582  0.1582  0.0000  0.0000  0.0000  0.0000  0.0000 </r>
       </set>
       <set comment="band 4">
        <r>  0.0000  0.0000  0.1107  0.1107  0.0000  0.0000  0.0000  0.0000  0.0000 </r>
        <r>  0.0000  0.0000  0.1582  0.1582  0.0000  0.0000  0.0000  0.0000  0.0000 </r>
       </set>
       <set comment="band 5">
        <r>  0.0030  0.1040  0.0000  0.0000  0.0000  0.0000  0.0000  0.0000  0.0000 </r>
        <r>  0.0880  0.0000  0.0000  0.0000  0.0000  0.0000  0.0000  0.0000  0.0000 </r>
       </set>
       <set comment="band 6">
        <r>  0.2487  0.0015  0.0000  0.0000  0.0000  0.0000  0.0000  0.0000  0.0000 </r>
        <r>  0.0006  0.0360  0.0000  0.0000  0.0000  0.0000  0.0000  0.0000  0.0000 </r>
       </set>
       <set comment="band 7">
        <r>  0.0000  0.0000  0.2166  0.0058  0.0000  0.0000  0.0000  0.0000  0.0000 </r>
        <r>  0.0000  0.0000  0.0136  0.2840  0.0000  0.0000  0.0000  0.0000  0.0000 </r>
       </set>
       <set comment="band 8">
        <r>  0.0001  0.0000  0.0058  0.2169  0.0000  0.0000  0.0000  0.0000  0.0000 </r>
        <r>  0.0000  0.0007  0.2839  0.0136  0.0000  0.0000  0.0000  0.0000  0.0000 </r>
       </set>
      </set>
      <set comment="kpoint 19">
       <set comment="band 1">
        <r>  0.0192  0.1245  0.0000  0.0000  0.0000  0.0000  0.0000  0.0000  0.0000 </r>
        <r>  0.4115  0.0045  0.0000  0.0000  0.0000  0.0000  0.0000  0.0000  0.0000 </r>
       </set>
       <set comment="band 2">
        <r>  0.3294  0.0074  0.0000  0.0000  0.0000  0.0000  0.0000  0.0000  0.0000 </r>
        <r>  0.0193  0.1804  0.0000  0.0000  0.0000  0.0000  0.0000  0.0000  0.0000 </r>
       </set>
       <set comment="band 3">
        <r>  0.0000  0.0000  0.1114  0.1114  0.0000  0.0000  0.0000  0.0000  0.0000 </r>
        <r>  0.0000  0.0000  0.1576  0.1576  0.0000  0.0000  0.0000  0.0000  0.0000 </r>
       </set>
       <set comment="band 4">
        <r>  0.0000  0.0000  0.1114  0.1114  0.0000  0.0000  0.0000  0.0000  0.0000 </r>
        <r>  0.0000  0.0000  0.1576  0.1576  0.0000  0.0000  0.0000  0.0000  0.0000 </r>
       </set>
       <set comment="band 5">
        <r>  0.0008  0.1001  0.0000  0.0000  0.0000  0.0000  0.0000  0.0000  0.0000 </r>
        <r>  0.0902  0.0000  0.0000  0.0000  0.0000  0.0000  0.0000  0.0000  0.0000 </r>
       </set>
       <set comment="band 6">
        <r>  0.2521  0.0004  0.0000  0.0000  0.0000  0.0000  0.0000  0.0000  0.0000 </r>
        <r>  0.0001  0.0351  0.0000  0.0000  0.0000  0.0000  0.0000  0.0000  0.0000 </r>
       </set>
       <set comment="band 7">
        <r>  0.0000  0.0000  0.1767  0.0384  0.0000  0.0000  0.0000  0.0000  0.0000 </r>
        <r>  0.0000  0.0000  0.0563  0.2506  0.0000  0.0000  0.0000  0.0000  0.0000 </r>
       </set>
       <set comment="band 8">
        <r>  0.0001  0.0000  0.0390  0.1771  0.0000  0.0000  0.0000  0.0000  0.0000 </r>
        <r>  0.0000  0.0005  0.2507  0.0564  0.0000  0.0000  0.0000  0.0000  0.0000 </r>
       </set>
      </set>
      <set comment="kpoint 20">
       <set comment="band 1">
        <r>  0.0000  0.1325  0.0000  0.0000  0.0000  0.0000  0.0000  0.0000  0.0000 </r>
        <r>  0.4305  0.0000  0.0000  0.0000  0.0000  0.0000  0.0000  0.0000  0.0000 </r>
       </set>
       <set comment="band 2">
        <r>  0.3492  0.0000  0.0000  0.0000  0.0000  0.0000  0.0000  0.0000  0.0000 </r>
        <r>  0.0000  0.1842  0.0000  0.0000  0.0000  0.0000  0.0000  0.0000  0.0000 </r>
       </set>
       <set comment="band 3">
        <r>  0.0000  0.0000  0.1116  0.1116  0.0000  0.0000  0.0000  0.0000  0.0000 </r>
        <r>  0.0000  0.0000  0.1574  0.1574  0.0000  0.0000  0.0000  0.0000  0.0000 </r>
       </set>
       <set comment="band 4">
        <r>  0.0000  0.0000  0.1116  0.1116  0.0000  0.0000  0.0000  0.0000  0.0000 </r>
        <r>  0.0000  0.0000  0.1574  0.1574  0.0000  0.0000  0.0000  0.0000  0.0000 </r>
       </set>
       <set comment="band 5">
        <r>  0.0000  0.0988  0.0000  0.0000  0.0000  0.0000  0.0000  0.0000  0.0000 </r>
        <r>  0.0909  0.0000  0.0000  0.0000  0.0000  0.0000  0.0000  0.0000  0.0000 </r>
       </set>
       <set comment="band 6">
        <r>  0.2532  0.0000  0.0000  0.0000  0.0000  0.0000  0.0000  0.0000  0.0000 </r>
        <r>  0.0000  0.0348  0.0000  0.0000  0.0000  0.0000  0.0000  0.0000  0.0000 </r>
       </set>
       <set comment="band 7">
        <r>  0.0000  0.0000  0.1858  0.0267  0.0000  0.0000  0.0000  0.0000  0.0000 </r>
        <r>  0.0000  0.0000  0.0390  0.2712  0.0000  0.0000  0.0000  0.0000  0.0000 </r>
       </set>
       <set comment="band 8">
        <r>  0.0004  0.0000  0.0258  0.1839  0.0000  0.0000  0.0000  0.0000  0.0000 </r>
        <r>  0.0000  0.0032  0.2708  0.0382  0.0000  0.0000  0.0000  0.0000  0.0000 </r>
       </set>
      </set>
      <set comment="kpoint 21">
       <set comment="band 1">
        <r>  0.0000  0.1325  0.0000  0.0000  0.0000  0.0000  0.0000  0.0000  0.0000 </r>
        <r>  0.4305  0.0000  0.0000  0.0000  0.0000  0.0000  0.0000  0.0000  0.0000 </r>
       </set>
       <set comment="band 2">
        <r>  0.3492  0.0000  0.0000  0.0000  0.0000  0.0000  0.0000  0.0000  0.0000 </r>
        <r>  0.0000  0.1842  0.0000  0.0000  0.0000  0.0000  0.0000  0.0000  0.0000 </r>
       </set>
       <set comment="band 3">
        <r>  0.0000  0.0000  0.1116  0.1116  0.0000  0.0000  0.0000  0.0000  0.0000 </r>
        <r>  0.0000  0.0000  0.1574  0.1574  0.0000  0.0000  0.0000  0.0000  0.0000 </r>
       </set>
       <set comment="band 4">
        <r>  0.0000  0.0000  0.1116  0.1116  0.0000  0.0000  0.0000  0.0000  0.0000 </r>
        <r>  0.0000  0.0000  0.1574  0.1574  0.0000  0.0000  0.0000  0.0000  0.0000 </r>
       </set>
       <set comment="band 5">
        <r>  0.0000  0.0988  0.0000  0.0000  0.0000  0.0000  0.0000  0.0000  0.0000 </r>
        <r>  0.0909  0.0000  0.0000  0.0000  0.0000  0.0000  0.0000  0.0000  0.0000 </r>
       </set>
       <set comment="band 6">
        <r>  0.2532  0.0000  0.0000  0.0000  0.0000  0.0000  0.0000  0.0000  0.0000 </r>
        <r>  0.0000  0.0348  0.0000  0.0000  0.0000  0.0000  0.0000  0.0000  0.0000 </r>
       </set>
       <set comment="band 7">
        <r>  0.0000  0.0000  0.1994  0.0131  0.0000  0.0000  0.0000  0.0000  0.0000 </r>
        <r>  0.0000  0.0000  0.0191  0.2910  0.0000  0.0000  0.0000  0.0000  0.0000 </r>
       </set>
       <set comment="band 8">
        <r>  0.0001  0.0000  0.0131  0.1992  0.0000  0.0000  0.0000  0.0000  0.0000 </r>
        <r>  0.0000  0.0005  0.2908  0.0191  0.0000  0.0000  0.0000  0.0000  0.0000 </r>
       </set>
      </set>
      <set comment="kpoint 22">
       <set comment="band 1">
        <r>  0.0000  0.1323  0.0000  0.0000  0.0000  0.0000  0.0000  0.0000  0.0000 </r>
        <r>  0.4306  0.0000  0.0000  0.0000  0.0000  0.0000  0.0000  0.0000  0.0000 </r>
       </set>
       <set comment="band 2">
        <r>  0.3492  0.0000  0.0000  0.0000  0.0000  0.0000  0.0000  0.0000  0.0000 </r>
        <r>  0.0000  0.1841  0.0000  0.0000  0.0000  0.0000  0.0000  0.0000  0.0000 </r>
       </set>
       <set comment="band 3">
        <r>  0.0003  0.0004  0.1112  0.1112  0.0000  0.0000  0.0000  0.0000  0.0000 </r>
        <r>  0.0001  0.0001  0.1568  0.1568  0.0000  0.0000  0.0000  0.0000  0.0000 </r>
       </set>
       <set comment="band 4">
        <r>  0.0000  0.0000  0.1116  0.1116  0.0000  0.0000  0.0000  0.0000  0.0000 </r>
        <r>  0.0000  0.0000  0.1575  0.1575  0.0000  0.0000  0.0000  0.0000  0.0000 </r>
       </set>
       <set comment="band 5">
        <r>  0.0000  0.0985  0.0001  0.0001  0.0000  0.0000  0.0000  0.0000  0.0000 </r>
        <r>  0.0907  0.0000  0.0005  0.0005  0.0000  0.0000  0.0000  0.0000  0.0000 </r>
       </set>
       <set comment="band 6">
        <r>  0.2528  0.0000  0.0002  0.0002  0.0000  0.0000  0.0000  0.0000  0.0000 </r>
        <r>  0.0000  0.0348  0.0002  0.0002  0.0000  0.0000  0.0000  0.0000  0.0000 </r>
       </set>
       <set comment="band 7">
        <r>  0.0000  0.0001  0.1369  0.0756  0.0000  0.0000  0.0000  0.0000  0.0000 </r>
        <r>  0.0001  0.0001  0.1099  0.1995  0.0000  0.0000  0.0000  0.0000  0.0000 </r>
       </set>
       <set comment="band 8">
        <r>  0.0001  0.0002  0.0746  0.1366  0.0000  0.0000  0.0000  0.0000  0.0000 </r>
        <r>  0.0003  0.0003  0.1994  0.1100  0.0000  0.0000  0.0000  0.0000  0.0000 </r>
       </set>
      </set>
      <set comment="kpoint 23">
       <set comment="band 1">
        <r>  0.0000  0.1320  0.0001  0.0001  0.0000  0.0000  0.0000  0.0000  0.0000 </r>
        <r>  0.4309  0.0000  0.0000  0.0000  0.0000  0.0000  0.0000  0.0000  0.0000 </r>
       </set>
       <set comment="band 2">
        <r>  0.3494  0.0000  0.0000  0.0000  0.0000  0.0000  0.0000  0.0000  0.0000 </r>
        <r>  0.0000  0.1841  0.0001  0.0001  0.0000  0.0000  0.0000  0.0000  0.0000 </r>
       </set>
       <set comment="band 3">
        <r>  0.0012  0.0016  0.1101  0.1101  0.0000  0.0000  0.0000  0.0000  0.0000 </r>
        <r>  0.0005  0.0004  0.1548  0.1548  0.0000  0.0000  0.0000  0.0000  0.0000 </r>
       </set>
       <set comment="band 4">
        <r>  0.0000  0.0000  0.1115  0.1115  0.0000  0.0000  0.0000  0.0000  0.0000 </r>
        <r>  0.0000  0.0000  0.1575  0.1575  0.0000  0.0000  0.0000  0.0000  0.0000 </r>
       </set>
       <set comment="band 5">
        <r>  0.0001  0.0975  0.0005  0.0005  0.0000  0.0000  0.0000  0.0000  0.0000 </r>
        <r>  0.0899  0.0000  0.0020  0.0020  0.0000  0.0000  0.0000  0.0000  0.0000 </r>
       </set>
       <set comment="band 6">
        <r>  0.2515  0.0000  0.0007  0.0007  0.0000  0.0000  0.0000  0.0000  0.0000 </r>
        <r>  0.0000  0.0347  0.0010  0.0010  0.0000  0.0000  0.0000  0.0000  0.0000 </r>
       </set>
       <set comment="band 7">
        <r>  0.0001  0.0000  0.1226  0.0884  0.0000  0.0000  0.0000  0.0000  0.0000 </r>
        <r>  0.0000  0.0007  0.1282  0.1790  0.0000  0.0000  0.0000  0.0000  0.0000 </r>
       </set>
       <set comment="band 8">
        <r>  0.0000  0.0014  0.0882  0.1230  0.0000  0.0000  0.0000  0.0000  0.0000 </r>
        <r>  0.0016  0.0004  0.1787  0.1282  0.0000  0.0000  0.0000  0.0000  0.0000 </r>
       </set>
      </set>
      <set comment="kpoint 24">
       <set comment="band 1">
        <r>  0.0000  0.1315  0.0003  0.0003  0.0000  0.0000  0.0000  0.0000  0.0000 </r>
        <r>  0.4312  0.0000  0.0000  0.0000  0.0000  0.0000  0.0000  0.0000  0.0000 </r>
       </set>
       <set comment="band 2">
        <r>  0.3497  0.0000  0.0001  0.0001  0.0000  0.0000  0.0000  0.0000  0.0000 </r>
        <r>  0.0000  0.1839  0.0002  0.0002  0.0000  0.0000  0.0000  0.0000  0.0000 </r>
       </set>
       <set comment="band 3">
        <r>  0.0025  0.0035  0.1084  0.1084  0.0000  0.0000  0.0000  0.0000  0.0000 </r>
        <r>  0.0010  0.0009  0.1518  0.1518  0.0000  0.0000  0.0000  0.0000  0.0000 </r>
       </set>
       <set comment="band 4">
        <r>  0.0000  0.0000  0.1115  0.1115  0.0000  0.0000  0.0000  0.0000  0.0000 </r>
        <r>  0.0000  0.0000  0.1577  0.1577  0.0000  0.0000  0.0000  0.0000  0.0000 </r>
       </set>
       <set comment="band 5">
        <r>  0.0003  0.0959  0.0011  0.0011  0.0000  0.0000  0.0000  0.0000  0.0000 </r>
        <r>  0.0886  0.0001  0.0042  0.0042  0.0000  0.0000  0.0000  0.0000  0.0000 </r>
       </set>
       <set comment="band 6">
        <r>  0.2492  0.0000  0.0016  0.0016  0.0000  0.0000  0.0000  0.0000  0.0000 </r>
        <r>  0.0000  0.0345  0.0023  0.0023  0.0000  0.0000  0.0000  0.0000  0.0000 </r>
       </set>
       <set comment="band 7">
        <r>  0.0005  0.0001  0.0899  0.1202  0.0000  0.0000  0.0000  0.0000  0.0000 </r>
        <r>  0.0001  0.0038  0.1732  0.1306  0.0000  0.0000  0.0000  0.0000  0.0000 </r>
       </set>
       <set comment="band 8">
        <r>  0.0003  0.0033  0.1187  0.0913  0.0000  0.0000  0.0000  0.0000  0.0000 </r>
        <r>  0.0037  0.0014  0.1316  0.1712  0.0000  0.0000  0.0000  0.0000  0.0000 </r>
       </set>
      </set>
      <set comment="kpoint 25">
       <set comment="band 1">
        <r>  0.0000  0.1307  0.0005  0.0005  0.0000  0.0000  0.0000  0.0000  0.0000 </r>
        <r>  0.4317  0.0000  0.0000  0.0000  0.0000  0.0000  0.0000  0.0000  0.0000 </r>
       </set>
       <set comment="band 2">
        <r>  0.3502  0.0000  0.0002  0.0002  0.0000  0.0000  0.0000  0.0000  0.0000 </r>
        <r>  0.0000  0.1837  0.0003  0.0003  0.0000  0.0000  0.0000  0.0000  0.0000 </r>
       </set>
       <set comment="band 3">
        <r>  0.0042  0.0059  0.1063  0.1063  0.0000  0.0000  0.0000  0.0000  0.0000 </r>
        <r>  0.0016  0.0016  0.1480  0.1480  0.0000  0.0000  0.0000  0.0000  0.0000 </r>
       </set>
       <set comment="band 4">
        <r>  0.0000  0.0000  0.1113  0.1113  0.0000  0.0000  0.0000  0.0000  0.0000 </r>
        <r>  0.0000  0.0000  0.1578  0.1578  0.0000  0.0000  0.0000  0.0000  0.0000 </r>
       </set>
       <set comment="band 5">
        <r>  0.0010  0.0940  0.0017  0.0017  0.0000  0.0000  0.0000  0.0000  0.0000 </r>
        <r>  0.0869  0.0002  0.0069  0.0069  0.0000  0.0000  0.0000  0.0000  0.0000 </r>
       </set>
       <set comment="band 6">
        <r>  0.2460  0.0001  0.0028  0.0028  0.0000  0.0000  0.0000  0.0000  0.0000 </r>
        <r>  0.0001  0.0342  0.0041  0.0041  0.0000  0.0000  0.0000  0.0000  0.0000 </r>
       </set>
       <set comment="band 7">
        <r>  0.0000  0.0000  0.1057  0.1049  0.0000  0.0000  0.0000  0.0000  0.0000 </r>
        <r>  0.0000  0.0003  0.1511  0.1521  0.0000  0.0000  0.0000  0.0000  0.0000 </r>
       </set>
       <set comment="band 8">
        <r>  0.0000  0.0058  0.1039  0.1038  0.0000  0.0000  0.0000  0.0000  0.0000 </r>
        <r>  0.0065  0.0017  0.1488  0.1488  0.0000  0.0000  0.0000  0.0000  0.0000 </r>
       </set>
      </set>
      <set comment="kpoint 26">
       <set comment="band 1">
        <r>  0.0001  0.1298  0.0009  0.0009  0.0000  0.0000  0.0000  0.0000  0.0000 </r>
        <r>  0.4323  0.0000  0.0000  0.0000  0.0000  0.0000  0.0000  0.0000  0.0000 </r>
       </set>
       <set comment="band 2">
        <r>  0.3508  0.0000  0.0003  0.0003  0.0000  0.0000  0.0000  0.0000  0.0000 </r>
        <r>  0.0000  0.1834  0.0004  0.0004  0.0000  0.0000  0.0000  0.0000  0.0000 </r>
       </set>
       <set comment="band 3">
        <r>  0.0060  0.0088  0.1038  0.1038  0.0000  0.0000  0.0000  0.0000  0.0000 </r>
        <r>  0.0022  0.0025  0.1436  0.1436  0.0000  0.0000  0.0000  0.0000  0.0000 </r>
       </set>
       <set comment="band 4">
        <r>  0.0000  0.0000  0.1112  0.1112  0.0000  0.0000  0.0000  0.0000  0.0000 </r>
        <r>  0.0000  0.0000  0.1581  0.1581  0.0000  0.0000  0.0000  0.0000  0.0000 </r>
       </set>
       <set comment="band 5">
        <r>  0.0023  0.0917  0.0022  0.0022  0.0000  0.0000  0.0000  0.0000  0.0000 </r>
        <r>  0.0849  0.0003  0.0097  0.0097  0.0000  0.0000  0.0000  0.0000  0.0000 </r>
       </set>
       <set comment="band 6">
        <r>  0.2417  0.0002  0.0044  0.0044  0.0000  0.0000  0.0000  0.0000  0.0000 </r>
        <r>  0.0002  0.0337  0.0065  0.0065  0.0000  0.0000  0.0000  0.0000  0.0000 </r>
       </set>
       <set comment="band 7">
        <r>  0.0001  0.0000  0.1063  0.1005  0.0000  0.0000  0.0000  0.0000  0.0000 </r>
        <r>  0.0000  0.0009  0.1448  0.1524  0.0000  0.0000  0.0000  0.0000  0.0000 </r>
       </set>
       <set comment="band 8">
        <r>  0.0001  0.0090  0.0998  0.1055  0.0000  0.0000  0.0000  0.0000  0.0000 </r>
        <r>  0.0101  0.0054  0.1495  0.1401  0.0000  0.0000  0.0000  0.0000  0.0000 </r>
       </set>
      </set>
      <set comment="kpoint 27">
       <set comment="band 1">
        <r>  0.0002  0.1285  0.0012  0.0012  0.0000  0.0000  0.0000  0.0000  0.0000 </r>
        <r>  0.4330  0.0000  0.0000  0.0000  0.0000  0.0000  0.0000  0.0000  0.0000 </r>
       </set>
       <set comment="band 2">
        <r>  0.3515  0.0001  0.0004  0.0004  0.0000  0.0000  0.0000  0.0000  0.0000 </r>
        <r>  0.0000  0.1830  0.0007  0.0007  0.0000  0.0000  0.0000  0.0000  0.0000 </r>
       </set>
       <set comment="band 3">
        <r>  0.0078  0.0119  0.1012  0.1012  0.0000  0.0000  0.0000  0.0000  0.0000 </r>
        <r>  0.0027  0.0036  0.1390  0.1390  0.0000  0.0000  0.0000  0.0000  0.0000 </r>
       </set>
       <set comment="band 4">
        <r>  0.0000  0.0000  0.1110  0.1110  0.0000  0.0000  0.0000  0.0000  0.0000 </r>
        <r>  0.0000  0.0000  0.1583  0.1583  0.0000  0.0000  0.0000  0.0000  0.0000 </r>
       </set>
       <set comment="band 5">
        <r>  0.0043  0.0893  0.0025  0.0025  0.0000  0.0000  0.0000  0.0000  0.0000 </r>
        <r>  0.0827  0.0007  0.0124  0.0124  0.0000  0.0000  0.0000  0.0000  0.0000 </r>
       </set>
       <set comment="band 6">
        <r>  0.2364  0.0003  0.0061  0.0061  0.0000  0.0000  0.0000  0.0000  0.0000 </r>
        <r>  0.0003  0.0332  0.0094  0.0094  0.0000  0.0000  0.0000  0.0000  0.0000 </r>
       </set>
       <set comment="band 7">
        <r>  0.0000  0.0000  0.1078  0.1016  0.0000  0.0000  0.0000  0.0000  0.0000 </r>
        <r>  0.0000  0.0000  0.1433  0.1516  0.0000  0.0000  0.0000  0.0000  0.0000 </r>
       </set>
       <set comment="band 8">
        <r>  0.0013  0.0099  0.0906  0.0996  0.0000  0.0000  0.0000  0.0000  0.0000 </r>
        <r>  0.0111  0.0233  0.1403  0.1308  0.0000  0.0000  0.0000  0.0000  0.0000 </r>
       </set>
      </set>
      <set comment="kpoint 28">
       <set comment="band 1">
        <r>  0.0004  0.1270  0.0017  0.0017  0.0000  0.0000  0.0000  0.0000  0.0000 </r>
        <r>  0.4338  0.0000  0.0000  0.0000  0.0000  0.0000  0.0000  0.0000  0.0000 </r>
       </set>
       <set comment="band 2">
        <r>  0.3524  0.0001  0.0005  0.0005  0.0000  0.0000  0.0000  0.0000  0.0000 </r>
        <r>  0.0000  0.1825  0.0009  0.0009  0.0000  0.0000  0.0000  0.0000  0.0000 </r>
       </set>
       <set comment="band 3">
        <r>  0.0095  0.0153  0.0984  0.0984  0.0000  0.0000  0.0000  0.0000  0.0000 </r>
        <r>  0.0030  0.0048  0.1342  0.1342  0.0000  0.0000  0.0000  0.0000  0.0000 </r>
       </set>
       <set comment="band 4">
        <r>  0.0000  0.0000  0.1107  0.1107  0.0000  0.0000  0.0000  0.0000  0.0000 </r>
        <r>  0.0000  0.0000  0.1587  0.1587  0.0000  0.0000  0.0000  0.0000  0.0000 </r>
       </set>
       <set comment="band 5">
        <r>  0.0071  0.0868  0.0027  0.0027  0.0000  0.0000  0.0000  0.0000  0.0000 </r>
        <r>  0.0804  0.0011  0.0148  0.0148  0.0000  0.0000  0.0000  0.0000  0.0000 </r>
       </set>
       <set comment="band 6">
        <r>  0.2300  0.0005  0.0080  0.0080  0.0000  0.0000  0.0000  0.0000  0.0000 </r>
        <r>  0.0005  0.0326  0.0130  0.0130  0.0000  0.0000  0.0000  0.0000  0.0000 </r>
       </set>
       <set comment="band 7">
        <r>  0.0000  0.0000  0.1053  0.1026  0.0000  0.0000  0.0000  0.0000  0.0000 </r>
        <r>  0.0000  0.0000  0.1433  0.1465  0.0000  0.0000  0.0000  0.0000  0.0000 </r>
       </set>
       <set comment="band 8">
        <r>  0.0000  0.0175  0.0970  0.0979  0.0000  0.0000  0.0000  0.0000  0.0000 </r>
        <r>  0.0189  0.0091  0.1359  0.1337  0.0000  0.0000  0.0000  0.0000  0.0000 </r>
       </set>
      </set>
      <set comment="kpoint 29">
       <set comment="band 1">
        <r>  0.0006  0.1253  0.0022  0.0022  0.0000  0.0000  0.0000  0.0000  0.0000 </r>
        <r>  0.4347  0.0000  0.0000  0.0000  0.0000  0.0000  0.0000  0.0000  0.0000 </r>
       </set>
       <set comment="band 2">
        <r>  0.3535  0.0002  0.0006  0.0006  0.0000  0.0000  0.0000  0.0000  0.0000 </r>
        <r>  0.0001  0.1819  0.0013  0.0013  0.0000  0.0000  0.0000  0.0000  0.0000 </r>
       </set>
       <set comment="band 3">
        <r>  0.0109  0.0187  0.0957  0.0957  0.0000  0.0000  0.0000  0.0000  0.0000 </r>
        <r>  0.0032  0.0063  0.1296  0.1296  0.0000  0.0000  0.0000  0.0000  0.0000 </r>
       </set>
       <set comment="band 4">
        <r>  0.0000  0.0000  0.1104  0.1104  0.0000  0.0000  0.0000  0.0000  0.0000 </r>
        <r>  0.0000  0.0000  0.1590  0.1590  0.0000  0.0000  0.0000  0.0000  0.0000 </r>
       </set>
       <set comment="band 5">
        <r>  0.0106  0.0842  0.0026  0.0026  0.0000  0.0000  0.0000  0.0000  0.0000 </r>
        <r>  0.0779  0.0016  0.0167  0.0167  0.0000  0.0000  0.0000  0.0000  0.0000 </r>
       </set>
       <set comment="band 6">
        <r>  0.2228  0.0008  0.0100  0.0100  0.0000  0.0000  0.0000  0.0000  0.0000 </r>
        <r>  0.0007  0.0318  0.0171  0.0171  0.0000  0.0000  0.0000  0.0000  0.0000 </r>
       </set>
       <set comment="band 7">
        <r>  0.0000  0.0000  0.1047  0.1028  0.0000  0.0000  0.0000  0.0000  0.0000 </r>
        <r>  0.0000  0.0000  0.1411  0.1431  0.0000  0.0000  0.0000  0.0000  0.0000 </r>
       </set>
       <set comment="band 8">
        <r>  0.0001  0.0224  0.0944  0.0953  0.0000  0.0000  0.0000  0.0000  0.0000 </r>
        <r>  0.0239  0.0126  0.1291  0.1284  0.0000  0.0000  0.0000  0.0000  0.0000 </r>
       </set>
      </set>
      <set comment="kpoint 30">
       <set comment="band 1">
        <r>  0.0010  0.1232  0.0029  0.0029  0.0000  0.0000  0.0000  0.0000  0.0000 </r>
        <r>  0.4357  0.0000  0.0000  0.0000  0.0000  0.0000  0.0000  0.0000  0.0000 </r>
       </set>
       <set comment="band 2">
        <r>  0.3547  0.0004  0.0008  0.0008  0.0000  0.0000  0.0000  0.0000  0.0000 </r>
        <r>  0.0001  0.1810  0.0018  0.0018  0.0000  0.0000  0.0000  0.0000  0.0000 </r>
       </set>
       <set comment="band 3">
        <r>  0.0120  0.0223  0.0931  0.0931  0.0000  0.0000  0.0000  0.0000  0.0000 </r>
        <r>  0.0032  0.0080  0.1250  0.1250  0.0000  0.0000  0.0000  0.0000  0.0000 </r>
       </set>
       <set comment="band 4">
        <r>  0.0000  0.0000  0.1101  0.1101  0.0000  0.0000  0.0000  0.0000  0.0000 </r>
        <r>  0.0000  0.0000  0.1595  0.1595  0.0000  0.0000  0.0000  0.0000  0.0000 </r>
       </set>
       <set comment="band 5">
        <r>  0.0149  0.0818  0.0024  0.0024  0.0000  0.0000  0.0000  0.0000  0.0000 </r>
        <r>  0.0754  0.0023  0.0183  0.0183  0.0000  0.0000  0.0000  0.0000  0.0000 </r>
       </set>
       <set comment="band 6">
        <r>  0.2149  0.0010  0.0119  0.0119  0.0000  0.0000  0.0000  0.0000  0.0000 </r>
        <r>  0.0009  0.0310  0.0217  0.0217  0.0000  0.0000  0.0000  0.0000  0.0000 </r>
       </set>
       <set comment="band 7">
        <r>  0.0000  0.0000  0.1031  0.1033  0.0000  0.0000  0.0000  0.0000  0.0000 </r>
        <r>  0.0000  0.0000  0.1395  0.1391  0.0000  0.0000  0.0000  0.0000  0.0000 </r>
       </set>
       <set comment="band 8">
        <r>  0.0001  0.0274  0.0943  0.0933  0.0000  0.0000  0.0000  0.0000  0.0000 </r>
        <r>  0.0292  0.0142  0.1228  0.1240  0.0000  0.0000  0.0000  0.0000  0.0000 </r>
       </set>
      </set>
      <set comment="kpoint 31">
       <set comment="band 1">
        <r>  0.0016  0.1208  0.0036  0.0036  0.0000  0.0000  0.0000  0.0000  0.0000 </r>
        <r>  0.4366  0.0001  0.0000  0.0000  0.0000  0.0000  0.0000  0.0000  0.0000 </r>
       </set>
       <set comment="band 2">
        <r>  0.3560  0.0006  0.0009  0.0009  0.0000  0.0000  0.0000  0.0000  0.0000 </r>
        <r>  0.0002  0.1799  0.0023  0.0023  0.0000  0.0000  0.0000  0.0000  0.0000 </r>
       </set>
       <set comment="band 3">
        <r>  0.0126  0.0259  0.0905  0.0905  0.0000  0.0000  0.0000  0.0000  0.0000 </r>
        <r>  0.0030  0.0100  0.1205  0.1205  0.0000  0.0000  0.0000  0.0000  0.0000 </r>
       </set>
       <set comment="band 4">
        <r>  0.0000  0.0000  0.1098  0.1098  0.0000  0.0000  0.0000  0.0000  0.0000 </r>
        <r>  0.0000  0.0000  0.1600  0.1600  0.0000  0.0000  0.0000  0.0000  0.0000 </r>
       </set>
       <set comment="band 5">
        <r>  0.0197  0.0794  0.0020  0.0020  0.0000  0.0000  0.0000  0.0000  0.0000 </r>
        <r>  0.0728  0.0031  0.0194  0.0194  0.0000  0.0000  0.0000  0.0000  0.0000 </r>
       </set>
       <set comment="band 6">
        <r>  0.2065  0.0013  0.0138  0.0138  0.0000  0.0000  0.0000  0.0000  0.0000 </r>
        <r>  0.0011  0.0301  0.0268  0.0268  0.0000  0.0000  0.0000  0.0000  0.0000 </r>
       </set>
       <set comment="band 7">
        <r>  0.0001  0.0000  0.1020  0.1029  0.0000  0.0000  0.0000  0.0000  0.0000 </r>
        <r>  0.0000  0.0004  0.1367  0.1354  0.0000  0.0000  0.0000  0.0000  0.0000 </r>
       </set>
       <set comment="band 8">
        <r>  0.0002  0.0333  0.0910  0.0902  0.0000  0.0000  0.0000  0.0000  0.0000 </r>
        <r>  0.0349  0.0200  0.1153  0.1164  0.0000  0.0000  0.0000  0.0000  0.0000 </r>
       </set>
      </set>
      <set comment="kpoint 32">
       <set comment="band 1">
        <r>  0.0024  0.1181  0.0044  0.0044  0.0000  0.0000  0.0000  0.0000  0.0000 </r>
        <r>  0.4375  0.0001  0.0000  0.0000  0.0000  0.0000  0.0000  0.0000  0.0000 </r>
       </set>
       <set comment="band 2">
        <r>  0.3575  0.0009  0.0010  0.0010  0.0000  0.0000  0.0000  0.0000  0.0000 </r>
        <r>  0.0004  0.1785  0.0030  0.0030  0.0000  0.0000  0.0000  0.0000  0.0000 </r>
       </set>
       <set comment="band 3">
        <r>  0.0127  0.0296  0.0879  0.0879  0.0000  0.0000  0.0000  0.0000  0.0000 </r>
        <r>  0.0026  0.0123  0.1162  0.1162  0.0000  0.0000  0.0000  0.0000  0.0000 </r>
       </set>
       <set comment="band 4">
        <r>  0.0000  0.0000  0.1094  0.1094  0.0000  0.0000  0.0000  0.0000  0.0000 </r>
        <r>  0.0000  0.0000  0.1605  0.1605  0.0000  0.0000  0.0000  0.0000  0.0000 </r>
       </set>
       <set comment="band 5">
        <r>  0.0247  0.0771  0.0016  0.0016  0.0000  0.0000  0.0000  0.0000  0.0000 </r>
        <r>  0.0703  0.0039  0.0202  0.0202  0.0000  0.0000  0.0000  0.0000  0.0000 </r>
       </set>
       <set comment="band 6">
        <r>  0.1979  0.0015  0.0155  0.0155  0.0000  0.0000  0.0000  0.0000  0.0000 </r>
        <r>  0.0012  0.0292  0.0324  0.0324  0.0000  0.0000  0.0000  0.0000  0.0000 </r>
       </set>
       <set comment="band 7">
        <r>  0.0000  0.0000  0.1021  0.1023  0.0000  0.0000  0.0000  0.0000  0.0000 </r>
        <r>  0.0000  0.0000  0.1331  0.1327  0.0000  0.0000  0.0000  0.0000  0.0000 </r>
       </set>
       <set comment="band 8">
        <r>  0.0006  0.0400  0.0866  0.0862  0.0000  0.0000  0.0000  0.0000  0.0000 </r>
        <r>  0.0407  0.0283  0.1067  0.1071  0.0000  0.0000  0.0000  0.0000  0.0000 </r>
       </set>
      </set>
      <set comment="kpoint 33">
       <set comment="band 1">
        <r>  0.0034  0.1150  0.0053  0.0053  0.0000  0.0000  0.0000  0.0000  0.0000 </r>
        <r>  0.4384  0.0001  0.0000  0.0000  0.0000  0.0000  0.0000  0.0000  0.0000 </r>
       </set>
       <set comment="band 2">
        <r>  0.3591  0.0013  0.0011  0.0011  0.0000  0.0000  0.0000  0.0000  0.0000 </r>
        <r>  0.0006  0.1766  0.0039  0.0039  0.0000  0.0000  0.0000  0.0000  0.0000 </r>
       </set>
       <set comment="band 3">
        <r>  0.0123  0.0334  0.0855  0.0855  0.0000  0.0000  0.0000  0.0000  0.0000 </r>
        <r>  0.0021  0.0151  0.1120  0.1120  0.0000  0.0000  0.0000  0.0000  0.0000 </r>
       </set>
       <set comment="band 4">
        <r>  0.0000  0.0000  0.1090  0.1090  0.0000  0.0000  0.0000  0.0000  0.0000 </r>
        <r>  0.0000  0.0000  0.1611  0.1611  0.0000  0.0000  0.0000  0.0000  0.0000 </r>
       </set>
       <set comment="band 5">
        <r>  0.0299  0.0750  0.0012  0.0012  0.0000  0.0000  0.0000  0.0000  0.0000 </r>
        <r>  0.0679  0.0048  0.0207  0.0207  0.0000  0.0000  0.0000  0.0000  0.0000 </r>
       </set>
       <set comment="band 6">
        <r>  0.1892  0.0017  0.0169  0.0169  0.0000  0.0000  0.0000  0.0000  0.0000 </r>
        <r>  0.0012  0.0283  0.0383  0.0383  0.0000  0.0000  0.0000  0.0000  0.0000 </r>
       </set>
       <set comment="band 7">
        <r>  0.0000  0.0000  0.1005  0.1039  0.0000  0.0000  0.0000  0.0000  0.0000 </r>
        <r>  0.0000  0.0001  0.1314  0.1286  0.0000  0.0000  0.0000  0.0000  0.0000 </r>
       </set>
       <set comment="band 8">
        <r>  0.0013  0.0465  0.0823  0.0817  0.0000  0.0000  0.0000  0.0000  0.0000 </r>
        <r>  0.0462  0.0394  0.0973  0.0975  0.0000  0.0000  0.0000  0.0000  0.0000 </r>
       </set>
      </set>
      <set comment="kpoint 34">
       <set comment="band 1">
        <r>  0.0048  0.1116  0.0063  0.0063  0.0000  0.0000  0.0000  0.0000  0.0000 </r>
        <r>  0.4391  0.0002  0.0000  0.0000  0.0000  0.0000  0.0000  0.0000  0.0000 </r>
       </set>
       <set comment="band 2">
        <r>  0.3606  0.0020  0.0011  0.0011  0.0000  0.0000  0.0000  0.0000  0.0000 </r>
        <r>  0.0009  0.1743  0.0050  0.0050  0.0000  0.0000  0.0000  0.0000  0.0000 </r>
       </set>
       <set comment="band 3">
        <r>  0.0113  0.0372  0.0832  0.0832  0.0000  0.0000  0.0000  0.0000  0.0000 </r>
        <r>  0.0016  0.0184  0.1079  0.1079  0.0000  0.0000  0.0000  0.0000  0.0000 </r>
       </set>
       <set comment="band 4">
        <r>  0.0000  0.0000  0.1085  0.1085  0.0000  0.0000  0.0000  0.0000  0.0000 </r>
        <r>  0.0000  0.0000  0.1618  0.1618  0.0000  0.0000  0.0000  0.0000  0.0000 </r>
       </set>
       <set comment="band 5">
        <r>  0.0351  0.0731  0.0008  0.0008  0.0000  0.0000  0.0000  0.0000  0.0000 </r>
        <r>  0.0656  0.0057  0.0210  0.0210  0.0000  0.0000  0.0000  0.0000  0.0000 </r>
       </set>
       <set comment="band 6">
        <r>  0.1807  0.0018  0.0180  0.0180  0.0000  0.0000  0.0000  0.0000  0.0000 </r>
        <r>  0.0012  0.0274  0.0445  0.0445  0.0000  0.0000  0.0000  0.0000  0.0000 </r>
       </set>
       <set comment="band 7">
        <r>  0.0000  0.0000  0.1013  0.1013  0.0000  0.0000  0.0000  0.0000  0.0000 </r>
        <r>  0.0000  0.0000  0.1262  0.1263  0.0000  0.0000  0.0000  0.0000  0.0000 </r>
       </set>
       <set comment="band 8">
        <r>  0.0021  0.0528  0.0788  0.0785  0.0000  0.0000  0.0000  0.0000  0.0000 </r>
        <r>  0.0513  0.0491  0.0884  0.0887  0.0000  0.0000  0.0000  0.0000  0.0000 </r>
       </set>
      </set>
      <set comment="kpoint 35">
       <set comment="band 1">
        <r>  0.0066  0.1077  0.0075  0.0075  0.0000  0.0000  0.0000  0.0000  0.0000 </r>
        <r>  0.4396  0.0002  0.0000  0.0000  0.0000  0.0000  0.0000  0.0000  0.0000 </r>
       </set>
       <set comment="band 2">
        <r>  0.3621  0.0029  0.0011  0.0011  0.0000  0.0000  0.0000  0.0000  0.0000 </r>
        <r>  0.0013  0.1713  0.0063  0.0063  0.0000  0.0000  0.0000  0.0000  0.0000 </r>
       </set>
       <set comment="band 3">
        <r>  0.0097  0.0410  0.0810  0.0810  0.0000  0.0000  0.0000  0.0000  0.0000 </r>
        <r>  0.0011  0.0224  0.1038  0.1038  0.0000  0.0000  0.0000  0.0000  0.0000 </r>
       </set>
       <set comment="band 4">
        <r>  0.0000  0.0000  0.1080  0.1080  0.0000  0.0000  0.0000  0.0000  0.0000 </r>
        <r>  0.0000  0.0000  0.1625  0.1625  0.0000  0.0000  0.0000  0.0000  0.0000 </r>
       </set>
       <set comment="band 5">
        <r>  0.0400  0.0713  0.0005  0.0005  0.0000  0.0000  0.0000  0.0000  0.0000 </r>
        <r>  0.0634  0.0066  0.0211  0.0211  0.0000  0.0000  0.0000  0.0000  0.0000 </r>
       </set>
       <set comment="band 6">
        <r>  0.1725  0.0018  0.0187  0.0187  0.0000  0.0000  0.0000  0.0000  0.0000 </r>
        <r>  0.0010  0.0266  0.0511  0.0511  0.0000  0.0000  0.0000  0.0000  0.0000 </r>
       </set>
       <set comment="band 7">
        <r>  0.0000  0.0000  0.1021  0.1006  0.0000  0.0000  0.0000  0.0000  0.0000 </r>
        <r>  0.0000  0.0000  0.1226  0.1238  0.0000  0.0000  0.0000  0.0000  0.0000 </r>
       </set>
       <set comment="band 8">
        <r>  0.0053  0.0593  0.0701  0.0700  0.0000  0.0000  0.0000  0.0000  0.0000 </r>
        <r>  0.0542  0.0768  0.0746  0.0747  0.0000  0.0000  0.0000  0.0000  0.0000 </r>
       </set>
      </set>
      <set comment="kpoint 36">
       <set comment="band 1">
        <r>  0.0089  0.1033  0.0087  0.0087  0.0000  0.0000  0.0000  0.0000  0.0000 </r>
        <r>  0.4397  0.0003  0.0000  0.0000  0.0000  0.0000  0.0000  0.0000  0.0000 </r>
       </set>
       <set comment="band 2">
        <r>  0.3633  0.0042  0.0011  0.0011  0.0000  0.0000  0.0000  0.0000  0.0000 </r>
        <r>  0.0019  0.1675  0.0080  0.0080  0.0000  0.0000  0.0000  0.0000  0.0000 </r>
       </set>
       <set comment="band 3">
        <r>  0.0077  0.0447  0.0788  0.0788  0.0000  0.0000  0.0000  0.0000  0.0000 </r>
        <r>  0.0006  0.0272  0.0995  0.0995  0.0000  0.0000  0.0000  0.0000  0.0000 </r>
       </set>
       <set comment="band 4">
        <r>  0.0000  0.0000  0.1074  0.1074  0.0000  0.0000  0.0000  0.0000  0.0000 </r>
        <r>  0.0000  0.0000  0.1632  0.1632  0.0000  0.0000  0.0000  0.0000  0.0000 </r>
       </set>
       <set comment="band 5">
        <r>  0.0447  0.0697  0.0002  0.0002  0.0000  0.0000  0.0000  0.0000  0.0000 </r>
        <r>  0.0612  0.0076  0.0211  0.0211  0.0000  0.0000  0.0000  0.0000  0.0000 </r>
       </set>
       <set comment="band 6">
        <r>  0.1647  0.0017  0.0191  0.0191  0.0000  0.0000  0.0000  0.0000  0.0000 </r>
        <r>  0.0008  0.0257  0.0580  0.0580  0.0000  0.0000  0.0000  0.0000  0.0000 </r>
       </set>
       <set comment="band 7">
        <r>  0.0000  0.0000  0.1015  0.1010  0.0000  0.0000  0.0000  0.0000  0.0000 </r>
        <r>  0.0000  0.0000  0.1196  0.1201  0.0000  0.0000  0.0000  0.0000  0.0000 </r>
       </set>
       <set comment="band 8">
        <r>  0.0071  0.0661  0.0666  0.0662  0.0000  0.0000  0.0000  0.0000  0.0000 </r>
        <r>  0.0588  0.0889  0.0653  0.0650  0.0000  0.0000  0.0000  0.0000  0.0000 </r>
       </set>
      </set>
      <set comment="kpoint 37">
       <set comment="band 1">
        <r>  0.0118  0.0986  0.0100  0.0100  0.0000  0.0000  0.0000  0.0000  0.0000 </r>
        <r>  0.4393  0.0004  0.0001  0.0001  0.0000  0.0000  0.0000  0.0000  0.0000 </r>
       </set>
       <set comment="band 2">
        <r>  0.3640  0.0059  0.0010  0.0010  0.0000  0.0000  0.0000  0.0000  0.0000 </r>
        <r>  0.0027  0.1628  0.0101  0.0101  0.0000  0.0000  0.0000  0.0000  0.0000 </r>
       </set>
       <set comment="band 3">
        <r>  0.0055  0.0482  0.0768  0.0768  0.0000  0.0000  0.0000  0.0000  0.0000 </r>
        <r>  0.0002  0.0331  0.0951  0.0951  0.0000  0.0000  0.0000  0.0000  0.0000 </r>
       </set>
       <set comment="band 4">
        <r>  0.0000  0.0000  0.1068  0.1068  0.0000  0.0000  0.0000  0.0000  0.0000 </r>
        <r>  0.0000  0.0000  0.1641  0.1641  0.0000  0.0000  0.0000  0.0000  0.0000 </r>
       </set>
       <set comment="band 5">
        <r>  0.0491  0.0683  0.0001  0.0001  0.0000  0.0000  0.0000  0.0000  0.0000 </r>
        <r>  0.0592  0.0085  0.0210  0.0210  0.0000  0.0000  0.0000  0.0000  0.0000 </r>
       </set>
       <set comment="band 6">
        <r>  0.1573  0.0014  0.0190  0.0190  0.0000  0.0000  0.0000  0.0000  0.0000 </r>
        <r>  0.0005  0.0249  0.0653  0.0653  0.0000  0.0000  0.0000  0.0000  0.0000 </r>
       </set>
       <set comment="band 7">
        <r>  0.0000  0.0000  0.1007  0.1019  0.0000  0.0000  0.0000  0.0000  0.0000 </r>
        <r>  0.0000  0.0000  0.1169  0.1162  0.0000  0.0000  0.0000  0.0000  0.0000 </r>
       </set>
       <set comment="band 8">
        <r>  0.0121  0.0697  0.0597  0.0594  0.0000  0.0000  0.0000  0.0000  0.0000 </r>
        <r>  0.0593  0.1202  0.0532  0.0528  0.0000  0.0000  0.0000  0.0000  0.0000 </r>
       </set>
      </set>
      <set comment="kpoint 38">
       <set comment="band 1">
        <r>  0.0154  0.0934  0.0115  0.0115  0.0000  0.0000  0.0000  0.0000  0.0000 </r>
        <r>  0.4384  0.0005  0.0002  0.0002  0.0000  0.0000  0.0000  0.0000  0.0000 </r>
       </set>
       <set comment="band 2">
        <r>  0.3639  0.0082  0.0009  0.0009  0.0000  0.0000  0.0000  0.0000  0.0000 </r>
        <r>  0.0038  0.1570  0.0126  0.0126  0.0000  0.0000  0.0000  0.0000  0.0000 </r>
       </set>
       <set comment="band 3">
        <r>  0.0032  0.0514  0.0748  0.0748  0.0000  0.0000  0.0000  0.0000  0.0000 </r>
        <r>  0.0000  0.0400  0.0905  0.0905  0.0000  0.0000  0.0000  0.0000  0.0000 </r>
       </set>
       <set comment="band 4">
        <r>  0.0000  0.0000  0.1062  0.1062  0.0000  0.0000  0.0000  0.0000  0.0000 </r>
        <r>  0.0000  0.0000  0.1649  0.1649  0.0000  0.0000  0.0000  0.0000  0.0000 </r>
       </set>
       <set comment="band 5">
        <r>  0.0531  0.0671  0.0000  0.0000  0.0000  0.0000  0.0000  0.0000  0.0000 </r>
        <r>  0.0573  0.0093  0.0209  0.0209  0.0000  0.0000  0.0000  0.0000  0.0000 </r>
       </set>
       <set comment="band 6">
        <r>  0.1505  0.0011  0.0185  0.0185  0.0000  0.0000  0.0000  0.0000  0.0000 </r>
        <r>  0.0002  0.0241  0.0730  0.0730  0.0000  0.0000  0.0000  0.0000  0.0000 </r>
       </set>
       <set comment="band 7">
        <r>  0.0000  0.0000  0.1024  0.1006  0.0000  0.0000  0.0000  0.0000  0.0000 </r>
        <r>  0.0000  0.0000  0.1125  0.1141  0.0000  0.0000  0.0000  0.0000  0.0000 </r>
       </set>
       <set comment="band 8">
        <r>  0.0217  0.0741  0.0463  0.0465  0.0000  0.0000  0.0000  0.0000  0.0000 </r>
        <r>  0.0559  0.1657  0.0368  0.0368  0.0000  0.0000  0.0000  0.0000  0.0000 </r>
       </set>
      </set>
      <set comment="kpoint 39">
       <set comment="band 1">
        <r>  0.0197  0.0878  0.0130  0.0130  0.0000  0.0000  0.0000  0.0000  0.0000 </r>
        <r>  0.4366  0.0006  0.0003  0.0003  0.0000  0.0000  0.0000  0.0000  0.0000 </r>
       </set>
       <set comment="band 2">
        <r>  0.3625  0.0113  0.0008  0.0008  0.0000  0.0000  0.0000  0.0000  0.0000 </r>
        <r>  0.0054  0.1500  0.0157  0.0157  0.0000  0.0000  0.0000  0.0000  0.0000 </r>
       </set>
       <set comment="band 3">
        <r>  0.0013  0.0542  0.0728  0.0728  0.0000  0.0000  0.0000  0.0000  0.0000 </r>
        <r>  0.0000  0.0482  0.0854  0.0854  0.0000  0.0000  0.0000  0.0000  0.0000 </r>
       </set>
       <set comment="band 4">
        <r>  0.0000  0.0000  0.1055  0.1055  0.0000  0.0000  0.0000  0.0000  0.0000 </r>
        <r>  0.0000  0.0000  0.1659  0.1659  0.0000  0.0000  0.0000  0.0000  0.0000 </r>
       </set>
       <set comment="band 5">
        <r>  0.0567  0.0660  0.0000  0.0000  0.0000  0.0000  0.0000  0.0000  0.0000 </r>
        <r>  0.0555  0.0102  0.0208  0.0208  0.0000  0.0000  0.0000  0.0000  0.0000 </r>
       </set>
       <set comment="band 6">
        <r>  0.1441  0.0007  0.0175  0.0175  0.0000  0.0000  0.0000  0.0000  0.0000 </r>
        <r>  0.0000  0.0233  0.0811  0.0811  0.0000  0.0000  0.0000  0.0000  0.0000 </r>
       </set>
       <set comment="band 7">
        <r>  0.0000  0.0000  0.1035  0.1002  0.0000  0.0000  0.0000  0.0000  0.0000 </r>
        <r>  0.0000  0.0000  0.1088  0.1115  0.0000  0.0000  0.0000  0.0000  0.0000 </r>
       </set>
       <set comment="band 8">
        <r>  0.0300  0.0767  0.0386  0.0388  0.0000  0.0000  0.0000  0.0000  0.0000 </r>
        <r>  0.0533  0.1985  0.0260  0.0259  0.0000  0.0000  0.0000  0.0000  0.0000 </r>
       </set>
      </set>
      <set comment="kpoint 40">
       <set comment="band 1">
        <r>  0.0247  0.0818  0.0146  0.0146  0.0000  0.0000  0.0000  0.0000  0.0000 </r>
        <r>  0.4340  0.0007  0.0006  0.0006  0.0000  0.0000  0.0000  0.0000  0.0000 </r>
       </set>
       <set comment="band 2">
        <r>  0.3593  0.0152  0.0006  0.0006  0.0000  0.0000  0.0000  0.0000  0.0000 </r>
        <r>  0.0075  0.1417  0.0193  0.0193  0.0000  0.0000  0.0000  0.0000  0.0000 </r>
       </set>
       <set comment="band 3">
        <r>  0.0001  0.0564  0.0710  0.0710  0.0000  0.0000  0.0000  0.0000  0.0000 </r>
        <r>  0.0002  0.0578  0.0800  0.0800  0.0000  0.0000  0.0000  0.0000  0.0000 </r>
       </set>
       <set comment="band 4">
        <r>  0.0000  0.0000  0.1048  0.1048  0.0000  0.0000  0.0000  0.0000  0.0000 </r>
        <r>  0.0000  0.0000  0.1669  0.1669  0.0000  0.0000  0.0000  0.0000  0.0000 </r>
       </set>
       <set comment="band 5">
        <r>  0.0600  0.0650  0.0002  0.0002  0.0000  0.0000  0.0000  0.0000  0.0000 </r>
        <r>  0.0538  0.0111  0.0207  0.0207  0.0000  0.0000  0.0000  0.0000  0.0000 </r>
       </set>
       <set comment="band 6">
        <r>  0.1381  0.0003  0.0160  0.0160  0.0000  0.0000  0.0000  0.0000  0.0000 </r>
        <r>  0.0001  0.0224  0.0897  0.0897  0.0000  0.0000  0.0000  0.0000  0.0000 </r>
       </set>
       <set comment="band 7">
        <r>  0.0000  0.0000  0.1023  0.1020  0.0000  0.0000  0.0000  0.0000  0.0000 </r>
        <r>  0.0000  0.0000  0.1068  0.1070  0.0000  0.0000  0.0000  0.0000  0.0000 </r>
       </set>
       <set comment="band 8">
        <r>  0.0384  0.0787  0.0327  0.0326  0.0000  0.0000  0.0000  0.0000  0.0000 </r>
        <r>  0.0503  0.2253  0.0173  0.0174  0.0000  0.0000  0.0000  0.0000  0.0000 </r>
       </set>
      </set>
      <set comment="kpoint 41">
       <set comment="band 1">
        <r>  0.0247  0.0146  0.0818  0.0146  0.0000  0.0000  0.0000  0.0000  0.0000 </r>
        <r>  0.4340  0.0006  0.0007  0.0006  0.0000  0.0000  0.0000  0.0000  0.0000 </r>
       </set>
       <set comment="band 2">
        <r>  0.3593  0.0006  0.0152  0.0006  0.0000  0.0000  0.0000  0.0000  0.0000 </r>
        <r>  0.0075  0.0193  0.1417  0.0193  0.0000  0.0000  0.0000  0.0000  0.0000 </r>
       </set>
       <set comment="band 3">
        <r>  0.0001  0.0710  0.0564  0.0710  0.0000  0.0000  0.0000  0.0000  0.0000 </r>
        <r>  0.0002  0.0800  0.0578  0.0800  0.0000  0.0000  0.0000  0.0000  0.0000 </r>
       </set>
       <set comment="band 4">
        <r>  0.0000  0.1048  0.0000  0.1048  0.0000  0.0000  0.0000  0.0000  0.0000 </r>
        <r>  0.0000  0.1669  0.0000  0.1669  0.0000  0.0000  0.0000  0.0000  0.0000 </r>
       </set>
       <set comment="band 5">
        <r>  0.0600  0.0002  0.0650  0.0002  0.0000  0.0000  0.0000  0.0000  0.0000 </r>
        <r>  0.0538  0.0207  0.0111  0.0207  0.0000  0.0000  0.0000  0.0000  0.0000 </r>
       </set>
       <set comment="band 6">
        <r>  0.1381  0.0160  0.0003  0.0160  0.0000  0.0000  0.0000  0.0000  0.0000 </r>
        <r>  0.0001  0.0897  0.0224  0.0897  0.0000  0.0000  0.0000  0.0000  0.0000 </r>
       </set>
       <set comment="band 7">
        <r>  0.0000  0.1022  0.0000  0.1018  0.0000  0.0000  0.0000  0.0000  0.0000 </r>
        <r>  0.0000  0.1066  0.0000  0.1069  0.0000  0.0000  0.0000  0.0000  0.0000 </r>
       </set>
       <set comment="band 8">
        <r>  0.0370  0.0339  0.0798  0.0345  0.0000  0.0000  0.0000  0.0000  0.0000 </r>
        <r>  0.0516  0.0183  0.2196  0.0179  0.0000  0.0000  0.0000  0.0000  0.0000 </r>
       </set>
      </set>
      <set comment="kpoint 42">
       <set comment="band 1">
        <r>  0.0443  0.0194  0.0627  0.0194  0.0000  0.0000  0.0000  0.0000  0.0000 </r>
        <r>  0.4203  0.0016  0.0010  0.0016  0.0000  0.0000  0.0000  0.0000  0.0000 </r>
       </set>
       <set comment="band 2">
        <r>  0.3351  0.0002  0.0326  0.0002  0.0000  0.0000  0.0000  0.0000  0.0000 </r>
        <r>  0.0185  0.0326  0.1103  0.0326  0.0000  0.0000  0.0000  0.0000  0.0000 </r>
       </set>
       <set comment="band 3">
        <r>  0.0055  0.0658  0.0579  0.0658  0.0000  0.0000  0.0000  0.0000  0.0000 </r>
        <r>  0.0017  0.0619  0.0934  0.0619  0.0000  0.0000  0.0000  0.0000  0.0000 </r>
       </set>
       <set comment="band 4">
        <r>  0.0000  0.1024  0.0000  0.1024  0.0000  0.0000  0.0000  0.0000  0.0000 </r>
        <r>  0.0000  0.1703  0.0000  0.1703  0.0000  0.0000  0.0000  0.0000  0.0000 </r>
       </set>
       <set comment="band 5">
        <r>  0.0680  0.0011  0.0630  0.0011  0.0000  0.0000  0.0000  0.0000  0.0000 </r>
        <r>  0.0491  0.0204  0.0137  0.0204  0.0000  0.0000  0.0000  0.0000  0.0000 </r>
       </set>
       <set comment="band 6">
        <r>  0.1214  0.0091  0.0005  0.0091  0.0000  0.0000  0.0000  0.0000  0.0000 </r>
        <r>  0.0041  0.1174  0.0187  0.1174  0.0000  0.0000  0.0000  0.0000  0.0000 </r>
       </set>
       <set comment="band 7">
        <r>  0.0000  0.1041  0.0000  0.1042  0.0000  0.0000  0.0000  0.0000  0.0000 </r>
        <r>  0.0000  0.0974  0.0000  0.0973  0.0000  0.0000  0.0000  0.0000  0.0000 </r>
       </set>
       <set comment="band 8">
        <r>  0.0720  0.0149  0.0743  0.0149  0.0000  0.0000  0.0000  0.0000  0.0000 </r>
        <r>  0.0326  0.0013  0.3035  0.0013  0.0000  0.0000  0.0000  0.0000  0.0000 </r>
       </set>
      </set>
      <set comment="kpoint 43">
       <set comment="band 1">
        <r>  0.0690  0.0235  0.0442  0.0235  0.0000  0.0000  0.0000  0.0000  0.0000 </r>
        <r>  0.3981  0.0034  0.0011  0.0034  0.0000  0.0000  0.0000  0.0000  0.0000 </r>
       </set>
       <set comment="band 2">
        <r>  0.2898  0.0001  0.0555  0.0001  0.0000  0.0000  0.0000  0.0000  0.0000 </r>
        <r>  0.0374  0.0464  0.0773  0.0464  0.0000  0.0000  0.0000  0.0000  0.0000 </r>
       </set>
       <set comment="band 3">
        <r>  0.0250  0.0618  0.0525  0.0618  0.0000  0.0000  0.0000  0.0000  0.0000 </r>
        <r>  0.0029  0.0442  0.1316  0.0442  0.0000  0.0000  0.0000  0.0000  0.0000 </r>
       </set>
       <set comment="band 4">
        <r>  0.0000  0.0995  0.0000  0.0995  0.0000  0.0000  0.0000  0.0000  0.0000 </r>
        <r>  0.0000  0.1744  0.0000  0.1744  0.0000  0.0000  0.0000  0.0000  0.0000 </r>
       </set>
       <set comment="band 5">
        <r>  0.0737  0.0028  0.0618  0.0028  0.0000  0.0000  0.0000  0.0000  0.0000 </r>
        <r>  0.0448  0.0204  0.0164  0.0204  0.0000  0.0000  0.0000  0.0000  0.0000 </r>
       </set>
       <set comment="band 6">
        <r>  0.1016  0.0017  0.0085  0.0017  0.0000  0.0000  0.0000  0.0000  0.0000 </r>
        <r>  0.0215  0.1404  0.0116  0.1404  0.0000  0.0000  0.0000  0.0000  0.0000 </r>
       </set>
       <set comment="band 7">
        <r>  0.0000  0.1077  0.0000  0.1076  0.0000  0.0000  0.0000  0.0000  0.0000 </r>
        <r>  0.0000  0.0881  0.0000  0.0881  0.0000  0.0000  0.0000  0.0000  0.0000 </r>
       </set>
       <set comment="band 8">
        <r>  0.1045  0.0054  0.0616  0.0054  0.0000  0.0000  0.0000  0.0000  0.0000 </r>
        <r>  0.0150  0.0021  0.3405  0.0021  0.0000  0.0000  0.0000  0.0000  0.0000 </r>
       </set>
      </set>
      <set comment="kpoint 44">
       <set comment="band 1">
        <r>  0.0948  0.0262  0.0291  0.0262  0.0000  0.0000  0.0000  0.0000  0.0000 </r>
        <r>  0.3714  0.0053  0.0011  0.0053  0.0000  0.0000  0.0000  0.0000  0.0000 </r>
       </set>
       <set comment="band 2">
        <r>  0.2384  0.0002  0.0764  0.0002  0.0000  0.0000  0.0000  0.0000  0.0000 </r>
        <r>  0.0609  0.0569  0.0521  0.0569  0.0000  0.0000  0.0000  0.0000  0.0000 </r>
       </set>
       <set comment="band 3">
        <r>  0.0476  0.0596  0.0451  0.0596  0.0000  0.0000  0.0000  0.0000  0.0000 </r>
        <r>  0.0032  0.0308  0.1629  0.0308  0.0000  0.0000  0.0000  0.0000  0.0000 </r>
       </set>
       <set comment="band 4">
        <r>  0.0000  0.0962  0.0000  0.0962  0.0000  0.0000  0.0000  0.0000  0.0000 </r>
        <r>  0.0000  0.1790  0.0000  0.1790  0.0000  0.0000  0.0000  0.0000  0.0000 </r>
       </set>
       <set comment="band 5">
        <r>  0.0779  0.0050  0.0613  0.0050  0.0000  0.0000  0.0000  0.0000  0.0000 </r>
        <r>  0.0409  0.0205  0.0194  0.0205  0.0000  0.0000  0.0000  0.0000  0.0000 </r>
       </set>
       <set comment="band 6">
        <r>  0.0748  0.0004  0.0312  0.0004  0.0000  0.0000  0.0000  0.0000  0.0000 </r>
        <r>  0.0556  0.1417  0.0030  0.1417  0.0000  0.0000  0.0000  0.0000  0.0000 </r>
       </set>
       <set comment="band 7">
        <r>  0.0000  0.1126  0.0000  0.1128  0.0000  0.0000  0.0000  0.0000  0.0000 </r>
        <r>  0.0000  0.0791  0.0000  0.0791  0.0000  0.0000  0.0000  0.0000  0.0000 </r>
       </set>
       <set comment="band 8">
        <r>  0.1303  0.0016  0.0487  0.0016  0.0000  0.0000  0.0000  0.0000  0.0000 </r>
        <r>  0.0041  0.0120  0.3405  0.0120  0.0000  0.0000  0.0000  0.0000  0.0000 </r>
       </set>
      </set>
      <set comment="kpoint 45">
       <set comment="band 1">
        <r>  0.1186  0.0270  0.0183  0.0270  0.0000  0.0000  0.0000  0.0000  0.0000 </r>
        <r>  0.3454  0.0068  0.0009  0.0068  0.0000  0.0000  0.0000  0.0000  0.0000 </r>
       </set>
       <set comment="band 2">
        <r>  0.1937  0.0005  0.0909  0.0005  0.0000  0.0000  0.0000  0.0000  0.0000 </r>
        <r>  0.0835  0.0644  0.0359  0.0644  0.0000  0.0000  0.0000  0.0000  0.0000 </r>
       </set>
       <set comment="band 3">
        <r>  0.0639  0.0593  0.0390  0.0593  0.0000  0.0000  0.0000  0.0000  0.0000 </r>
        <r>  0.0029  0.0221  0.1864  0.0221  0.0000  0.0000  0.0000  0.0000  0.0000 </r>
       </set>
       <set comment="band 4">
        <r>  0.0000  0.0924  0.0000  0.0924  0.0000  0.0000  0.0000  0.0000  0.0000 </r>
        <r>  0.0000  0.1842  0.0000  0.1842  0.0000  0.0000  0.0000  0.0000  0.0000 </r>
       </set>
       <set comment="band 5">
        <r>  0.0812  0.0079  0.0613  0.0079  0.0000  0.0000  0.0000  0.0000  0.0000 </r>
        <r>  0.0371  0.0208  0.0231  0.0208  0.0000  0.0000  0.0000  0.0000  0.0000 </r>
       </set>
       <set comment="band 6">
        <r>  0.0486  0.0046  0.0623  0.0046  0.0000  0.0000  0.0000  0.0000  0.0000 </r>
        <r>  0.0916  0.1221  0.0001  0.1221  0.0000  0.0000  0.0000  0.0000  0.0000 </r>
       </set>
       <set comment="band 7">
        <r>  0.0000  0.1196  0.0000  0.1196  0.0000  0.0000  0.0000  0.0000  0.0000 </r>
        <r>  0.0000  0.0701  0.0000  0.0701  0.0000  0.0000  0.0000  0.0000  0.0000 </r>
       </set>
       <set comment="band 8">
        <r>  0.1485  0.0004  0.0376  0.0004  0.0000  0.0000  0.0000  0.0000  0.0000 </r>
        <r>  0.0001  0.0247  0.3199  0.0247  0.0000  0.0000  0.0000  0.0000  0.0000 </r>
       </set>
      </set>
      <set comment="kpoint 46">
       <set comment="band 1">
        <r>  0.1392  0.0264  0.0113  0.0264  0.0000  0.0000  0.0000  0.0000  0.0000 </r>
        <r>  0.3232  0.0077  0.0007  0.0077  0.0000  0.0000  0.0000  0.0000  0.0000 </r>
       </set>
       <set comment="band 2">
        <r>  0.1587  0.0011  0.0993  0.0011  0.0000  0.0000  0.0000  0.0000  0.0000 </r>
        <r>  0.1015  0.0703  0.0259  0.0703  0.0000  0.0000  0.0000  0.0000  0.0000 </r>
       </set>
       <set comment="band 3">
        <r>  0.0721  0.0602  0.0349  0.0602  0.0000  0.0000  0.0000  0.0000  0.0000 </r>
        <r>  0.0025  0.0165  0.2049  0.0165  0.0000  0.0000  0.0000  0.0000  0.0000 </r>
       </set>
       <set comment="band 4">
        <r>  0.0000  0.0880  0.0000  0.0880  0.0000  0.0000  0.0000  0.0000  0.0000 </r>
        <r>  0.0000  0.1900  0.0000  0.1900  0.0000  0.0000  0.0000  0.0000  0.0000 </r>
       </set>
       <set comment="band 5">
        <r>  0.0844  0.0114  0.0617  0.0114  0.0000  0.0000  0.0000  0.0000  0.0000 </r>
        <r>  0.0333  0.0209  0.0279  0.0209  0.0000  0.0000  0.0000  0.0000  0.0000 </r>
       </set>
       <set comment="band 6">
        <r>  0.0302  0.0091  0.0914  0.0091  0.0000  0.0000  0.0000  0.0000  0.0000 </r>
        <r>  0.1188  0.0972  0.0038  0.0972  0.0000  0.0000  0.0000  0.0000  0.0000 </r>
       </set>
       <set comment="band 7">
        <r>  0.0000  0.1285  0.0000  0.1285  0.0000  0.0000  0.0000  0.0000  0.0000 </r>
        <r>  0.0000  0.0612  0.0000  0.0612  0.0000  0.0000  0.0000  0.0000  0.0000 </r>
       </set>
       <set comment="band 8">
        <r>  0.1594  0.0001  0.0296  0.0001  0.0000  0.0000  0.0000  0.0000  0.0000 </r>
        <r>  0.0014  0.0369  0.2891  0.0369  0.0000  0.0000  0.0000  0.0000  0.0000 </r>
       </set>
      </set>
      <set comment="kpoint 47">
       <set comment="band 1">
        <r>  0.1565  0.0248  0.0069  0.0248  0.0000  0.0000  0.0000  0.0000  0.0000 </r>
        <r>  0.3055  0.0080  0.0005  0.0080  0.0000  0.0000  0.0000  0.0000  0.0000 </r>
       </set>
       <set comment="band 2">
        <r>  0.1321  0.0021  0.1029  0.0021  0.0000  0.0000  0.0000  0.0000  0.0000 </r>
        <r>  0.1142  0.0761  0.0196  0.0761  0.0000  0.0000  0.0000  0.0000  0.0000 </r>
       </set>
       <set comment="band 3">
        <r>  0.0736  0.0617  0.0324  0.0617  0.0000  0.0000  0.0000  0.0000  0.0000 </r>
        <r>  0.0020  0.0129  0.2212  0.0129  0.0000  0.0000  0.0000  0.0000  0.0000 </r>
       </set>
       <set comment="band 4">
        <r>  0.0000  0.0832  0.0000  0.0832  0.0000  0.0000  0.0000  0.0000  0.0000 </r>
        <r>  0.0000  0.1963  0.0000  0.1963  0.0000  0.0000  0.0000  0.0000  0.0000 </r>
       </set>
       <set comment="band 5">
        <r>  0.0883  0.0157  0.0620  0.0157  0.0000  0.0000  0.0000  0.0000  0.0000 </r>
        <r>  0.0296  0.0209  0.0344  0.0209  0.0000  0.0000  0.0000  0.0000  0.0000 </r>
       </set>
       <set comment="band 6">
        <r>  0.0192  0.0126  0.1156  0.0126  0.0000  0.0000  0.0000  0.0000  0.0000 </r>
        <r>  0.1380  0.0753  0.0100  0.0753  0.0000  0.0000  0.0000  0.0000  0.0000 </r>
       </set>
       <set comment="band 7">
        <r>  0.0000  0.1396  0.0000  0.1396  0.0000  0.0000  0.0000  0.0000  0.0000 </r>
        <r>  0.0000  0.0525  0.0000  0.0525  0.0000  0.0000  0.0000  0.0000  0.0000 </r>
       </set>
       <set comment="band 8">
        <r>  0.1634  0.0001  0.0253  0.0001  0.0000  0.0000  0.0000  0.0000  0.0000 </r>
        <r>  0.0058  0.0473  0.2545  0.0473  0.0000  0.0000  0.0000  0.0000  0.0000 </r>
       </set>
      </set>
      <set comment="kpoint 48">
       <set comment="band 1">
        <r>  0.1712  0.0225  0.0042  0.0225  0.0000  0.0000  0.0000  0.0000  0.0000 </r>
        <r>  0.2919  0.0077  0.0003  0.0077  0.0000  0.0000  0.0000  0.0000  0.0000 </r>
       </set>
       <set comment="band 2">
        <r>  0.1115  0.0034  0.1032  0.0034  0.0000  0.0000  0.0000  0.0000  0.0000 </r>
        <r>  0.1219  0.0824  0.0154  0.0824  0.0000  0.0000  0.0000  0.0000  0.0000 </r>
       </set>
       <set comment="band 3">
        <r>  0.0704  0.0633  0.0312  0.0633  0.0000  0.0000  0.0000  0.0000  0.0000 </r>
        <r>  0.0016  0.0104  0.2369  0.0104  0.0000  0.0000  0.0000  0.0000  0.0000 </r>
       </set>
       <set comment="band 4">
        <r>  0.0000  0.0778  0.0000  0.0778  0.0000  0.0000  0.0000  0.0000  0.0000 </r>
        <r>  0.0000  0.2028  0.0000  0.2028  0.0000  0.0000  0.0000  0.0000  0.0000 </r>
       </set>
       <set comment="band 5">
        <r>  0.0938  0.0211  0.0618  0.0211  0.0000  0.0000  0.0000  0.0000  0.0000 </r>
        <r>  0.0259  0.0202  0.0436  0.0202  0.0000  0.0000  0.0000  0.0000  0.0000 </r>
       </set>
       <set comment="band 6">
        <r>  0.0135  0.0152  0.1353  0.0152  0.0000  0.0000  0.0000  0.0000  0.0000 </r>
        <r>  0.1530  0.0581  0.0149  0.0581  0.0000  0.0000  0.0000  0.0000  0.0000 </r>
       </set>
       <set comment="band 7">
        <r>  0.0000  0.1530  0.0000  0.1530  0.0000  0.0000  0.0000  0.0000  0.0000 </r>
        <r>  0.0000  0.0440  0.0000  0.0440  0.0000  0.0000  0.0000  0.0000  0.0000 </r>
       </set>
       <set comment="band 8">
        <r>  0.1607  0.0001  0.0249  0.0001  0.0000  0.0000  0.0000  0.0000  0.0000 </r>
        <r>  0.0113  0.0563  0.2186  0.0563  0.0000  0.0000  0.0000  0.0000  0.0000 </r>
       </set>
      </set>
      <set comment="kpoint 49">
       <set comment="band 1">
        <r>  0.1839  0.0199  0.0025  0.0199  0.0000  0.0000  0.0000  0.0000  0.0000 </r>
        <r>  0.2815  0.0072  0.0002  0.0072  0.0000  0.0000  0.0000  0.0000  0.0000 </r>
       </set>
       <set comment="band 2">
        <r>  0.0951  0.0049  0.1011  0.0049  0.0000  0.0000  0.0000  0.0000  0.0000 </r>
        <r>  0.1252  0.0894  0.0124  0.0894  0.0000  0.0000  0.0000  0.0000  0.0000 </r>
       </set>
       <set comment="band 3">
        <r>  0.0638  0.0644  0.0309  0.0644  0.0000  0.0000  0.0000  0.0000  0.0000 </r>
        <r>  0.0013  0.0086  0.2533  0.0086  0.0000  0.0000  0.0000  0.0000  0.0000 </r>
       </set>
       <set comment="band 4">
        <r>  0.0000  0.0719  0.0000  0.0719  0.0000  0.0000  0.0000  0.0000  0.0000 </r>
        <r>  0.0000  0.2093  0.0000  0.2093  0.0000  0.0000  0.0000  0.0000  0.0000 </r>
       </set>
       <set comment="band 5">
        <r>  0.1024  0.0282  0.0598  0.0282  0.0000  0.0000  0.0000  0.0000  0.0000 </r>
        <r>  0.0220  0.0185  0.0572  0.0185  0.0000  0.0000  0.0000  0.0000  0.0000 </r>
       </set>
       <set comment="band 6">
        <r>  0.0116  0.0173  0.1516  0.0173  0.0000  0.0000  0.0000  0.0000  0.0000 </r>
        <r>  0.1670  0.0451  0.0163  0.0451  0.0000  0.0000  0.0000  0.0000  0.0000 </r>
       </set>
       <set comment="band 7">
        <r>  0.0000  0.1683  0.0000  0.1683  0.0000  0.0000  0.0000  0.0000  0.0000 </r>
        <r>  0.0000  0.0360  0.0000  0.0360  0.0000  0.0000  0.0000  0.0000  0.0000 </r>
       </set>
       <set comment="band 8">
        <r>  0.1504  0.0002  0.0295  0.0002  0.0000  0.0000  0.0000  0.0000  0.0000 </r>
        <r>  0.0159  0.0646  0.1812  0.0646  0.0000  0.0000  0.0000  0.0000  0.0000 </r>
       </set>
      </set>
      <set comment="kpoint 50">
       <set comment="band 1">
        <r>  0.1949  0.0171  0.0015  0.0171  0.0000  0.0000  0.0000  0.0000  0.0000 </r>
        <r>  0.2737  0.0063  0.0001  0.0063  0.0000  0.0000  0.0000  0.0000  0.0000 </r>
       </set>
       <set comment="band 2">
        <r>  0.0816  0.0065  0.0971  0.0065  0.0000  0.0000  0.0000  0.0000  0.0000 </r>
        <r>  0.1248  0.0974  0.0102  0.0974  0.0000  0.0000  0.0000  0.0000  0.0000 </r>
       </set>
       <set comment="band 3">
        <r>  0.0550  0.0646  0.0315  0.0646  0.0000  0.0000  0.0000  0.0000  0.0000 </r>
        <r>  0.0010  0.0072  0.2711  0.0072  0.0000  0.0000  0.0000  0.0000  0.0000 </r>
       </set>
       <set comment="band 4">
        <r>  0.0000  0.0658  0.0000  0.0658  0.0000  0.0000  0.0000  0.0000  0.0000 </r>
        <r>  0.0000  0.2155  0.0000  0.2155  0.0000  0.0000  0.0000  0.0000  0.0000 </r>
       </set>
       <set comment="band 5">
        <r>  0.1151  0.0382  0.0533  0.0382  0.0000  0.0000  0.0000  0.0000  0.0000 </r>
        <r>  0.0176  0.0153  0.0771  0.0153  0.0000  0.0000  0.0000  0.0000  0.0000 </r>
       </set>
       <set comment="band 6">
        <r>  0.0133  0.0183  0.1654  0.0183  0.0000  0.0000  0.0000  0.0000  0.0000 </r>
        <r>  0.1826  0.0356  0.0137  0.0356  0.0000  0.0000  0.0000  0.0000  0.0000 </r>
       </set>
       <set comment="band 7">
        <r>  0.0000  0.1848  0.0000  0.1848  0.0000  0.0000  0.0000  0.0000  0.0000 </r>
        <r>  0.0000  0.0287  0.0000  0.0287  0.0000  0.0000  0.0000  0.0000  0.0000 </r>
       </set>
       <set comment="band 8">
        <r>  0.1312  0.0002  0.0422  0.0002  0.0000  0.0000  0.0000  0.0000  0.0000 </r>
        <r>  0.0186  0.0735  0.1406  0.0735  0.0000  0.0000  0.0000  0.0000  0.0000 </r>
       </set>
      </set>
      <set comment="kpoint 51">
       <set comment="band 1">
        <r>  0.2045  0.0143  0.0009  0.0143  0.0000  0.0000  0.0000  0.0000  0.0000 </r>
        <r>  0.2678  0.0054  0.0001  0.0054  0.0000  0.0000  0.0000  0.0000  0.0000 </r>
       </set>
       <set comment="band 2">
        <r>  0.0701  0.0084  0.0917  0.0084  0.0000  0.0000  0.0000  0.0000  0.0000 </r>
        <r>  0.1213  0.1064  0.0084  0.1064  0.0000  0.0000  0.0000  0.0000  0.0000 </r>
       </set>
       <set comment="band 3">
        <r>  0.0451  0.0635  0.0327  0.0635  0.0000  0.0000  0.0000  0.0000  0.0000 </r>
        <r>  0.0008  0.0060  0.2907  0.0060  0.0000  0.0000  0.0000  0.0000  0.0000 </r>
       </set>
       <set comment="band 4">
        <r>  0.0000  0.0596  0.0000  0.0596  0.0000  0.0000  0.0000  0.0000  0.0000 </r>
        <r>  0.0000  0.2211  0.0000  0.2211  0.0000  0.0000  0.0000  0.0000  0.0000 </r>
       </set>
       <set comment="band 5">
        <r>  0.1294  0.0531  0.0382  0.0531  0.0000  0.0000  0.0000  0.0000  0.0000 </r>
        <r>  0.0115  0.0108  0.1034  0.0108  0.0000  0.0000  0.0000  0.0000  0.0000 </r>
       </set>
       <set comment="band 6">
        <r>  0.0205  0.0171  0.1775  0.0171  0.0000  0.0000  0.0000  0.0000  0.0000 </r>
        <r>  0.2025  0.0286  0.0076  0.0286  0.0000  0.0000  0.0000  0.0000  0.0000 </r>
       </set>
       <set comment="band 7">
        <r>  0.0000  0.2013  0.0000  0.2013  0.0000  0.0000  0.0000  0.0000  0.0000 </r>
        <r>  0.0000  0.0224  0.0000  0.0224  0.0000  0.0000  0.0000  0.0000  0.0000 </r>
       </set>
       <set comment="band 8">
        <r>  0.1029  0.0001  0.0681  0.0001  0.0000  0.0000  0.0000  0.0000  0.0000 </r>
        <r>  0.0194  0.0832  0.0959  0.0832  0.0000  0.0000  0.0000  0.0000  0.0000 </r>
       </set>
      </set>
      <set comment="kpoint 52">
       <set comment="band 1">
        <r>  0.2129  0.0116  0.0005  0.0116  0.0000  0.0000  0.0000  0.0000  0.0000 </r>
        <r>  0.2633  0.0045  0.0001  0.0045  0.0000  0.0000  0.0000  0.0000  0.0000 </r>
       </set>
       <set comment="band 2">
        <r>  0.0600  0.0103  0.0848  0.0103  0.0000  0.0000  0.0000  0.0000  0.0000 </r>
        <r>  0.1149  0.1168  0.0070  0.1168  0.0000  0.0000  0.0000  0.0000  0.0000 </r>
       </set>
       <set comment="band 3">
        <r>  0.0347  0.0605  0.0347  0.0605  0.0000  0.0000  0.0000  0.0000  0.0000 </r>
        <r>  0.0005  0.0050  0.3124  0.0050  0.0000  0.0000  0.0000  0.0000  0.0000 </r>
       </set>
       <set comment="band 4">
        <r>  0.0000  0.0535  0.0000  0.0535  0.0000  0.0000  0.0000  0.0000  0.0000 </r>
        <r>  0.0000  0.2258  0.0000  0.2258  0.0000  0.0000  0.0000  0.0000  0.0000 </r>
       </set>
       <set comment="band 5">
        <r>  0.1290  0.0769  0.0126  0.0769  0.0000  0.0000  0.0000  0.0000  0.0000 </r>
        <r>  0.0020  0.0072  0.1276  0.0072  0.0000  0.0000  0.0000  0.0000  0.0000 </r>
       </set>
       <set comment="band 6">
        <r>  0.0435  0.0099  0.1885  0.0099  0.0000  0.0000  0.0000  0.0000  0.0000 </r>
        <r>  0.2284  0.0230  0.0004  0.0230  0.0000  0.0000  0.0000  0.0000  0.0000 </r>
       </set>
       <set comment="band 7">
        <r>  0.0000  0.2161  0.0000  0.2161  0.0000  0.0000  0.0000  0.0000  0.0000 </r>
        <r>  0.0000  0.0172  0.0000  0.0172  0.0000  0.0000  0.0000  0.0000  0.0000 </r>
       </set>
       <set comment="band 8">
        <r>  0.0711  0.0000  0.1110  0.0000  0.0000  0.0000  0.0000  0.0000  0.0000 </r>
        <r>  0.0197  0.0918  0.0525  0.0918  0.0000  0.0000  0.0000  0.0000  0.0000 </r>
       </set>
      </set>
      <set comment="kpoint 53">
       <set comment="band 1">
        <r>  0.2202  0.0091  0.0003  0.0091  0.0000  0.0000  0.0000  0.0000  0.0000 </r>
        <r>  0.2600  0.0035  0.0000  0.0035  0.0000  0.0000  0.0000  0.0000  0.0000 </r>
       </set>
       <set comment="band 2">
        <r>  0.0507  0.0124  0.0766  0.0124  0.0000  0.0000  0.0000  0.0000  0.0000 </r>
        <r>  0.1059  0.1286  0.0057  0.1286  0.0000  0.0000  0.0000  0.0000  0.0000 </r>
       </set>
       <set comment="band 3">
        <r>  0.0248  0.0555  0.0373  0.0555  0.0000  0.0000  0.0000  0.0000  0.0000 </r>
        <r>  0.0004  0.0041  0.3362  0.0041  0.0000  0.0000  0.0000  0.0000  0.0000 </r>
       </set>
       <set comment="band 4">
        <r>  0.0000  0.0478  0.0000  0.0478  0.0000  0.0000  0.0000  0.0000  0.0000 </r>
        <r>  0.0000  0.2294  0.0000  0.2294  0.0000  0.0000  0.0000  0.0000  0.0000 </r>
       </set>
       <set comment="band 5">
        <r>  0.0418  0.1016  0.0190  0.1016  0.0000  0.0000  0.0000  0.0000  0.0000 </r>
        <r>  0.0442  0.0127  0.1001  0.0127  0.0000  0.0000  0.0000  0.0000  0.0000 </r>
       </set>
       <set comment="band 6">
        <r>  0.1439  0.0046  0.1601  0.0046  0.0000  0.0000  0.0000  0.0000  0.0000 </r>
        <r>  0.2045  0.0122  0.0318  0.0122  0.0000  0.0000  0.0000  0.0000  0.0000 </r>
       </set>
       <set comment="band 7">
        <r>  0.0000  0.2280  0.0000  0.2280  0.0000  0.0000  0.0000  0.0000  0.0000 </r>
        <r>  0.0000  0.0132  0.0000  0.0132  0.0000  0.0000  0.0000  0.0000  0.0000 </r>
       </set>
       <set comment="band 8">
        <r>  0.0461  0.0003  0.1680  0.0003  0.0000  0.0000  0.0000  0.0000  0.0000 </r>
        <r>  0.0220  0.0955  0.0212  0.0955  0.0000  0.0000  0.0000  0.0000  0.0000 </r>
       </set>
      </set>
      <set comment="kpoint 54">
       <set comment="band 1">
        <r>  0.2265  0.0068  0.0001  0.0068  0.0000  0.0000  0.0000  0.0000  0.0000 </r>
        <r>  0.2575  0.0027  0.0000  0.0027  0.0000  0.0000  0.0000  0.0000  0.0000 </r>
       </set>
       <set comment="band 2">
        <r>  0.0420  0.0147  0.0669  0.0147  0.0000  0.0000  0.0000  0.0000  0.0000 </r>
        <r>  0.0942  0.1422  0.0046  0.1422  0.0000  0.0000  0.0000  0.0000  0.0000 </r>
       </set>
       <set comment="band 3">
        <r>  0.0161  0.0482  0.0404  0.0482  0.0000  0.0000  0.0000  0.0000  0.0000 </r>
        <r>  0.0002  0.0032  0.3617  0.0032  0.0000  0.0000  0.0000  0.0000  0.0000 </r>
       </set>
       <set comment="band 4">
        <r>  0.0000  0.0426  0.0000  0.0426  0.0000  0.0000  0.0000  0.0000  0.0000 </r>
        <r>  0.0000  0.2320  0.0000  0.2320  0.0000  0.0000  0.0000  0.0000  0.0000 </r>
       </set>
       <set comment="band 5">
        <r>  0.0057  0.0545  0.1106  0.0545  0.0000  0.0000  0.0000  0.0000  0.0000 </r>
        <r>  0.2062  0.0198  0.0182  0.0198  0.0000  0.0000  0.0000  0.0000  0.0000 </r>
       </set>
       <set comment="band 6">
        <r>  0.1800  0.0739  0.0435  0.0739  0.0000  0.0000  0.0000  0.0000  0.0000 </r>
        <r>  0.0635  0.0031  0.1017  0.0031  0.0000  0.0000  0.0000  0.0000  0.0000 </r>
       </set>
       <set comment="band 7">
        <r>  0.0000  0.2365  0.0000  0.2365  0.0000  0.0000  0.0000  0.0000  0.0000 </r>
        <r>  0.0000  0.0104  0.0000  0.0104  0.0000  0.0000  0.0000  0.0000  0.0000 </r>
       </set>
       <set comment="band 8">
        <r>  0.0313  0.0009  0.2321  0.0009  0.0000  0.0000  0.0000  0.0000  0.0000 </r>
        <r>  0.0271  0.0909  0.0054  0.0909  0.0000  0.0000  0.0000  0.0000  0.0000 </r>
       </set>
      </set>
      <set comment="kpoint 55">
       <set comment="band 1">
        <r>  0.2318  0.0048  0.0001  0.0048  0.0000  0.0000  0.0000  0.0000  0.0000 </r>
        <r>  0.2556  0.0019  0.0000  0.0019  0.0000  0.0000  0.0000  0.0000  0.0000 </r>
       </set>
       <set comment="band 2">
        <r>  0.0334  0.0172  0.0558  0.0172  0.0000  0.0000  0.0000  0.0000  0.0000 </r>
        <r>  0.0797  0.1577  0.0036  0.1577  0.0000  0.0000  0.0000  0.0000  0.0000 </r>
       </set>
       <set comment="band 3">
        <r>  0.0092  0.0390  0.0440  0.0390  0.0000  0.0000  0.0000  0.0000  0.0000 </r>
        <r>  0.0001  0.0024  0.3880  0.0024  0.0000  0.0000  0.0000  0.0000  0.0000 </r>
       </set>
       <set comment="band 4">
        <r>  0.0000  0.0383  0.0000  0.0383  0.0000  0.0000  0.0000  0.0000  0.0000 </r>
        <r>  0.0000  0.2337  0.0000  0.2337  0.0000  0.0000  0.0000  0.0000  0.0000 </r>
       </set>
       <set comment="band 5">
        <r>  0.0317  0.0341  0.1120  0.0341  0.0000  0.0000  0.0000  0.0000  0.0000 </r>
        <r>  0.2681  0.0198  0.0033  0.0198  0.0000  0.0000  0.0000  0.0000  0.0000 </r>
       </set>
       <set comment="band 6">
        <r>  0.1449  0.1194  0.0133  0.1194  0.0000  0.0000  0.0000  0.0000  0.0000 </r>
        <r>  0.0276  0.0029  0.0942  0.0029  0.0000  0.0000  0.0000  0.0000  0.0000 </r>
       </set>
       <set comment="band 7">
        <r>  0.0000  0.2422  0.0000  0.2422  0.0000  0.0000  0.0000  0.0000  0.0000 </r>
        <r>  0.0000  0.0083  0.0000  0.0083  0.0000  0.0000  0.0000  0.0000  0.0000 </r>
       </set>
       <set comment="band 8">
        <r>  0.0228  0.0010  0.2968  0.0010  0.0000  0.0000  0.0000  0.0000  0.0000 </r>
        <r>  0.0315  0.0766  0.0003  0.0766  0.0000  0.0000  0.0000  0.0000  0.0000 </r>
       </set>
      </set>
      <set comment="kpoint 56">
       <set comment="band 1">
        <r>  0.2361  0.0031  0.0000  0.0031  0.0000  0.0000  0.0000  0.0000  0.0000 </r>
        <r>  0.2542  0.0012  0.0000  0.0012  0.0000  0.0000  0.0000  0.0000  0.0000 </r>
       </set>
       <set comment="band 2">
        <r>  0.0249  0.0199  0.0431  0.0199  0.0000  0.0000  0.0000  0.0000  0.0000 </r>
        <r>  0.0624  0.1753  0.0026  0.1753  0.0000  0.0000  0.0000  0.0000  0.0000 </r>
       </set>
       <set comment="band 3">
        <r>  0.0043  0.0284  0.0478  0.0284  0.0000  0.0000  0.0000  0.0000  0.0000 </r>
        <r>  0.0001  0.0017  0.4136  0.0017  0.0000  0.0000  0.0000  0.0000  0.0000 </r>
       </set>
       <set comment="band 4">
        <r>  0.0000  0.0347  0.0000  0.0347  0.0000  0.0000  0.0000  0.0000  0.0000 </r>
        <r>  0.0000  0.2347  0.0000  0.2347  0.0000  0.0000  0.0000  0.0000  0.0000 </r>
       </set>
       <set comment="band 5">
        <r>  0.0589  0.0223  0.0855  0.0223  0.0000  0.0000  0.0000  0.0000  0.0000 </r>
        <r>  0.3159  0.0194  0.0003  0.0194  0.0000  0.0000  0.0000  0.0000  0.0000 </r>
       </set>
       <set comment="band 6">
        <r>  0.1046  0.1581  0.0039  0.1581  0.0000  0.0000  0.0000  0.0000  0.0000 </r>
        <r>  0.0131  0.0034  0.0703  0.0034  0.0000  0.0000  0.0000  0.0000  0.0000 </r>
       </set>
       <set comment="band 7">
        <r>  0.0000  0.2456  0.0000  0.2456  0.0000  0.0000  0.0000  0.0000  0.0000 </r>
        <r>  0.0000  0.0069  0.0000  0.0069  0.0000  0.0000  0.0000  0.0000  0.0000 </r>
       </set>
       <set comment="band 8">
        <r>  0.0159  0.0007  0.3599  0.0007  0.0000  0.0000  0.0000  0.0000  0.0000 </r>
        <r>  0.0298  0.0552  0.0007  0.0552  0.0000  0.0000  0.0000  0.0000  0.0000 </r>
       </set>
      </set>
      <set comment="kpoint 57">
       <set comment="band 1">
        <r>  0.2394  0.0018  0.0000  0.0018  0.0000  0.0000  0.0000  0.0000  0.0000 </r>
        <r>  0.2532  0.0007  0.0000  0.0007  0.0000  0.0000  0.0000  0.0000  0.0000 </r>
       </set>
       <set comment="band 2">
        <r>  0.0164  0.0227  0.0292  0.0227  0.0000  0.0000  0.0000  0.0000  0.0000 </r>
        <r>  0.0429  0.1945  0.0017  0.1945  0.0000  0.0000  0.0000  0.0000  0.0000 </r>
       </set>
       <set comment="band 3">
        <r>  0.0015  0.0178  0.0514  0.0178  0.0000  0.0000  0.0000  0.0000  0.0000 </r>
        <r>  0.0000  0.0010  0.4366  0.0010  0.0000  0.0000  0.0000  0.0000  0.0000 </r>
       </set>
       <set comment="band 4">
        <r>  0.0000  0.0320  0.0000  0.0320  0.0000  0.0000  0.0000  0.0000  0.0000 </r>
        <r>  0.0000  0.2352  0.0000  0.2352  0.0000  0.0000  0.0000  0.0000  0.0000 </r>
       </set>
       <set comment="band 5">
        <r>  0.0856  0.0133  0.0470  0.0133  0.0000  0.0000  0.0000  0.0000  0.0000 </r>
        <r>  0.3643  0.0177  0.0000  0.0177  0.0000  0.0000  0.0000  0.0000  0.0000 </r>
       </set>
       <set comment="band 6">
        <r>  0.0650  0.1934  0.0009  0.1934  0.0000  0.0000  0.0000  0.0000  0.0000 </r>
        <r>  0.0059  0.0040  0.0437  0.0040  0.0000  0.0000  0.0000  0.0000  0.0000 </r>
       </set>
       <set comment="band 7">
        <r>  0.0000  0.2476  0.0000  0.2476  0.0000  0.0000  0.0000  0.0000  0.0000 </r>
        <r>  0.0000  0.0060  0.0000  0.0060  0.0000  0.0000  0.0000  0.0000  0.0000 </r>
       </set>
       <set comment="band 8">
        <r>  0.0088  0.0002  0.4210  0.0002  0.0000  0.0000  0.0000  0.0000  0.0000 </r>
        <r>  0.0193  0.0320  0.0033  0.0320  0.0000  0.0000  0.0000  0.0000  0.0000 </r>
       </set>
      </set>
      <set comment="kpoint 58">
       <set comment="band 1">
        <r>  0.2418  0.0008  0.0000  0.0008  0.0000  0.0000  0.0000  0.0000  0.0000 </r>
        <r>  0.2527  0.0003  0.0000  0.0003  0.0000  0.0000  0.0000  0.0000  0.0000 </r>
       </set>
       <set comment="band 2">
        <r>  0.0085  0.0255  0.0154  0.0255  0.0000  0.0000  0.0000  0.0000  0.0000 </r>
        <r>  0.0228  0.2138  0.0008  0.2138  0.0000  0.0000  0.0000  0.0000  0.0000 </r>
       </set>
       <set comment="band 3">
        <r>  0.0003  0.0085  0.0544  0.0085  0.0000  0.0000  0.0000  0.0000  0.0000 </r>
        <r>  0.0000  0.0005  0.4550  0.0005  0.0000  0.0000  0.0000  0.0000  0.0000 </r>
       </set>
       <set comment="band 4">
        <r>  0.0000  0.0301  0.0000  0.0301  0.0000  0.0000  0.0000  0.0000  0.0000 </r>
        <r>  0.0000  0.2354  0.0000  0.2354  0.0000  0.0000  0.0000  0.0000  0.0000 </r>
       </set>
       <set comment="band 5">
        <r>  0.1079  0.0063  0.0140  0.0063  0.0000  0.0000  0.0000  0.0000  0.0000 </r>
        <r>  0.4085  0.0124  0.0001  0.0124  0.0000  0.0000  0.0000  0.0000  0.0000 </r>
       </set>
       <set comment="band 6">
        <r>  0.0312  0.2227  0.0002  0.2227  0.0000  0.0000  0.0000  0.0000  0.0000 </r>
        <r>  0.0022  0.0045  0.0207  0.0045  0.0000  0.0000  0.0000  0.0000  0.0000 </r>
       </set>
       <set comment="band 7">
        <r>  0.0000  0.2487  0.0000  0.2487  0.0000  0.0000  0.0000  0.0000  0.0000 </r>
        <r>  0.0000  0.0054  0.0000  0.0054  0.0000  0.0000  0.0000  0.0000  0.0000 </r>
       </set>
       <set comment="band 8">
        <r>  0.0027  0.0000  0.4698  0.0000  0.0000  0.0000  0.0000  0.0000  0.0000 </r>
        <r>  0.0063  0.0132  0.0066  0.0132  0.0000  0.0000  0.0000  0.0000  0.0000 </r>
       </set>
      </set>
      <set comment="kpoint 59">
       <set comment="band 1">
        <r>  0.2433  0.0002  0.0000  0.0002  0.0000  0.0000  0.0000  0.0000  0.0000 </r>
        <r>  0.2524  0.0001  0.0000  0.0001  0.0000  0.0000  0.0000  0.0000  0.0000 </r>
       </set>
       <set comment="band 2">
        <r>  0.0024  0.0277  0.0043  0.0277  0.0000  0.0000  0.0000  0.0000  0.0000 </r>
        <r>  0.0065  0.2293  0.0002  0.2293  0.0000  0.0000  0.0000  0.0000  0.0000 </r>
       </set>
       <set comment="band 3">
        <r>  0.0000  0.0022  0.0564  0.0022  0.0000  0.0000  0.0000  0.0000  0.0000 </r>
        <r>  0.0000  0.0001  0.4668  0.0001  0.0000  0.0000  0.0000  0.0000  0.0000 </r>
       </set>
       <set comment="band 4">
        <r>  0.0000  0.0289  0.0000  0.0289  0.0000  0.0000  0.0000  0.0000  0.0000 </r>
        <r>  0.0000  0.2354  0.0000  0.2354  0.0000  0.0000  0.0000  0.0000  0.0000 </r>
       </set>
       <set comment="band 5">
        <r>  0.1216  0.0017  0.0011  0.0017  0.0000  0.0000  0.0000  0.0000  0.0000 </r>
        <r>  0.4367  0.0042  0.0000  0.0042  0.0000  0.0000  0.0000  0.0000  0.0000 </r>
       </set>
       <set comment="band 6">
        <r>  0.0082  0.2424  0.0000  0.2424  0.0000  0.0000  0.0000  0.0000  0.0000 </r>
        <r>  0.0005  0.0049  0.0054  0.0049  0.0000  0.0000  0.0000  0.0000  0.0000 </r>
       </set>
       <set comment="band 7">
        <r>  0.0000  0.2492  0.0000  0.2492  0.0000  0.0000  0.0000  0.0000  0.0000 </r>
        <r>  0.0000  0.0051  0.0000  0.0051  0.0000  0.0000  0.0000  0.0000  0.0000 </r>
       </set>
       <set comment="band 8">
        <r>  0.0002  0.0000  0.4936  0.0000  0.0000  0.0000  0.0000  0.0000  0.0000 </r>
        <r>  0.0005  0.0029  0.0091  0.0029  0.0000  0.0000  0.0000  0.0000  0.0000 </r>
       </set>
      </set>
      <set comment="kpoint 60">
       <set comment="band 1">
        <r>  0.2437  0.0000  0.0000  0.0000  0.0000  0.0000  0.0000  0.0000  0.0000 </r>
        <r>  0.2523  0.0000  0.0000  0.0000  0.0000  0.0000  0.0000  0.0000  0.0000 </r>
       </set>
       <set comment="band 2">
        <r>  0.0000  0.0349  0.0074  0.0148  0.0000  0.0000  0.0000  0.0000  0.0000 </r>
        <r>  0.0000  0.2877  0.0611  0.1221  0.0000  0.0000  0.0000  0.0000  0.0000 </r>
       </set>
       <set comment="band 3">
        <r>  0.0000  0.0032  0.0306  0.0233  0.0000  0.0000  0.0000  0.0000  0.0000 </r>
        <r>  0.0000  0.0263  0.2528  0.1918  0.0000  0.0000  0.0000  0.0000  0.0000 </r>
       </set>
       <set comment="band 4">
        <r>  0.0000  0.0190  0.0190  0.0190  0.0000  0.0000  0.0000  0.0000  0.0000 </r>
        <r>  0.0000  0.1570  0.1570  0.1569  0.0000  0.0000  0.0000  0.0000  0.0000 </r>
       </set>
       <set comment="band 5">
        <r>  0.1259  0.0000  0.0000  0.0000  0.0000  0.0000  0.0000  0.0000  0.0000 </r>
        <r>  0.4456  0.0000  0.0000  0.0000  0.0000  0.0000  0.0000  0.0000  0.0000 </r>
       </set>
       <set comment="band 6">
        <r>  0.0000  0.1389  0.1690  0.1908  0.0000  0.0000  0.0000  0.0000  0.0000 </r>
        <r>  0.0000  0.0028  0.0034  0.0038  0.0000  0.0000  0.0000  0.0000  0.0000 </r>
       </set>
       <set comment="band 7">
        <r>  0.0000  0.0191  0.3128  0.1669  0.0000  0.0000  0.0000  0.0000  0.0000 </r>
        <r>  0.0000  0.0004  0.0062  0.0033  0.0000  0.0000  0.0000  0.0000  0.0000 </r>
       </set>
       <set comment="band 8">
        <r>  0.0000  0.3407  0.0170  0.1410  0.0000  0.0000  0.0000  0.0000  0.0000 </r>
        <r>  0.0000  0.0068  0.0003  0.0028  0.0000  0.0000  0.0000  0.0000  0.0000 </r>
       </set>
      </set>
      <set comment="kpoint 61">
       <set comment="band 1">
        <r>  0.2437  0.0000  0.0000  0.0000  0.0000  0.0000  0.0000  0.0000  0.0000 </r>
        <r>  0.2523  0.0000  0.0000  0.0000  0.0000  0.0000  0.0000  0.0000  0.0000 </r>
       </set>
       <set comment="band 2">
        <r>  0.0000  0.0297  0.0001  0.0273  0.0000  0.0000  0.0000  0.0000  0.0000 </r>
        <r>  0.0000  0.2451  0.0010  0.2248  0.0000  0.0000  0.0000  0.0000  0.0000 </r>
       </set>
       <set comment="band 3">
        <r>  0.0000  0.0083  0.0379  0.0108  0.0000  0.0000  0.0000  0.0000  0.0000 </r>
        <r>  0.0000  0.0689  0.3130  0.0891  0.0000  0.0000  0.0000  0.0000  0.0000 </r>
       </set>
       <set comment="band 4">
        <r>  0.0000  0.0190  0.0190  0.0190  0.0000  0.0000  0.0000  0.0000  0.0000 </r>
        <r>  0.0000  0.1569  0.1569  0.1570  0.0000  0.0000  0.0000  0.0000  0.0000 </r>
       </set>
       <set comment="band 5">
        <r>  0.1259  0.0000  0.0000  0.0000  0.0000  0.0000  0.0000  0.0000  0.0000 </r>
        <r>  0.4456  0.0000  0.0000  0.0000  0.0000  0.0000  0.0000  0.0000  0.0000 </r>
       </set>
       <set comment="band 6">
        <r>  0.0000  0.3119  0.1695  0.0173  0.0000  0.0000  0.0000  0.0000  0.0000 </r>
        <r>  0.0000  0.0062  0.0034  0.0003  0.0000  0.0000  0.0000  0.0000  0.0000 </r>
       </set>
       <set comment="band 7">
        <r>  0.0000  0.1840  0.3069  0.0079  0.0000  0.0000  0.0000  0.0000  0.0000 </r>
        <r>  0.0000  0.0037  0.0061  0.0002  0.0000  0.0000  0.0000  0.0000  0.0000 </r>
       </set>
       <set comment="band 8">
        <r>  0.0000  0.0029  0.0223  0.4736  0.0000  0.0000  0.0000  0.0000  0.0000 </r>
        <r>  0.0000  0.0001  0.0004  0.0095  0.0000  0.0000  0.0000  0.0000  0.0000 </r>
       </set>
      </set>
      <set comment="kpoint 62">
       <set comment="band 1">
        <r>  0.2434  0.0001  0.0001  0.0001  0.0000  0.0000  0.0000  0.0000  0.0000 </r>
        <r>  0.2524  0.0000  0.0000  0.0000  0.0000  0.0000  0.0000  0.0000  0.0000 </r>
       </set>
       <set comment="band 2">
        <r>  0.0016  0.0198  0.0198  0.0198  0.0000  0.0000  0.0000  0.0000  0.0000 </r>
        <r>  0.0044  0.1540  0.1540  0.1540  0.0000  0.0000  0.0000  0.0000  0.0000 </r>
       </set>
       <set comment="band 3">
        <r>  0.0000  0.0300  0.0001  0.0282  0.0000  0.0000  0.0000  0.0000  0.0000 </r>
        <r>  0.0000  0.2422  0.0005  0.2273  0.0000  0.0000  0.0000  0.0000  0.0000 </r>
       </set>
       <set comment="band 4">
        <r>  0.0000  0.0088  0.0388  0.0107  0.0000  0.0000  0.0000  0.0000  0.0000 </r>
        <r>  0.0000  0.0711  0.3129  0.0860  0.0000  0.0000  0.0000  0.0000  0.0000 </r>
       </set>
       <set comment="band 5">
        <r>  0.1231  0.0010  0.0010  0.0010  0.0000  0.0000  0.0000  0.0000  0.0000 </r>
        <r>  0.4397  0.0019  0.0019  0.0019  0.0000  0.0000  0.0000  0.0000  0.0000 </r>
       </set>
       <set comment="band 6">
        <r>  0.0056  0.1627  0.1627  0.1627  0.0000  0.0000  0.0000  0.0000  0.0000 </r>
        <r>  0.0006  0.0049  0.0049  0.0049  0.0000  0.0000  0.0000  0.0000  0.0000 </r>
       </set>
       <set comment="band 7">
        <r>  0.0000  0.1378  0.1618  0.1981  0.0000  0.0000  0.0000  0.0000  0.0000 </r>
        <r>  0.0000  0.0031  0.0036  0.0044  0.0000  0.0000  0.0000  0.0000  0.0000 </r>
       </set>
       <set comment="band 8">
        <r>  0.0000  0.1940  0.1700  0.1337  0.0000  0.0000  0.0000  0.0000  0.0000 </r>
        <r>  0.0000  0.0043  0.0038  0.0030  0.0000  0.0000  0.0000  0.0000  0.0000 </r>
       </set>
      </set>
      <set comment="kpoint 63">
       <set comment="band 1">
        <r>  0.2425  0.0004  0.0004  0.0004  0.0000  0.0000  0.0000  0.0000  0.0000 </r>
        <r>  0.2525  0.0001  0.0001  0.0001  0.0000  0.0000  0.0000  0.0000  0.0000 </r>
       </set>
       <set comment="band 2">
        <r>  0.0060  0.0220  0.0220  0.0220  0.0000  0.0000  0.0000  0.0000  0.0000 </r>
        <r>  0.0159  0.1460  0.1460  0.1460  0.0000  0.0000  0.0000  0.0000  0.0000 </r>
       </set>
       <set comment="band 3">
        <r>  0.0000  0.0315  0.0000  0.0301  0.0000  0.0000  0.0000  0.0000  0.0000 </r>
        <r>  0.0000  0.2389  0.0003  0.2284  0.0000  0.0000  0.0000  0.0000  0.0000 </r>
       </set>
       <set comment="band 4">
        <r>  0.0000  0.0096  0.0411  0.0110  0.0000  0.0000  0.0000  0.0000  0.0000 </r>
        <r>  0.0000  0.0728  0.3114  0.0833  0.0000  0.0000  0.0000  0.0000  0.0000 </r>
       </set>
       <set comment="band 5">
        <r>  0.1144  0.0062  0.0062  0.0062  0.0000  0.0000  0.0000  0.0000  0.0000 </r>
        <r>  0.4191  0.0057  0.0057  0.0057  0.0000  0.0000  0.0000  0.0000  0.0000 </r>
       </set>
       <set comment="band 6">
        <r>  0.0223  0.1500  0.1500  0.1500  0.0000  0.0000  0.0000  0.0000  0.0000 </r>
        <r>  0.0068  0.0104  0.0104  0.0104  0.0000  0.0000  0.0000  0.0000  0.0000 </r>
       </set>
       <set comment="band 7">
        <r>  0.0000  0.2938  0.1857  0.0150  0.0000  0.0000  0.0000  0.0000  0.0000 </r>
        <r>  0.0000  0.0084  0.0053  0.0004  0.0000  0.0000  0.0000  0.0000  0.0000 </r>
       </set>
       <set comment="band 8">
        <r>  0.0000  0.0359  0.1440  0.3146  0.0000  0.0000  0.0000  0.0000  0.0000 </r>
        <r>  0.0000  0.0010  0.0041  0.0090  0.0000  0.0000  0.0000  0.0000  0.0000 </r>
       </set>
      </set>
      <set comment="kpoint 64">
       <set comment="band 1">
        <r>  0.2409  0.0008  0.0008  0.0008  0.0000  0.0000  0.0000  0.0000  0.0000 </r>
        <r>  0.2529  0.0003  0.0003  0.0003  0.0000  0.0000  0.0000  0.0000  0.0000 </r>
       </set>
       <set comment="band 2">
        <r>  0.0123  0.0251  0.0251  0.0251  0.0000  0.0000  0.0000  0.0000  0.0000 </r>
        <r>  0.0308  0.1352  0.1352  0.1352  0.0000  0.0000  0.0000  0.0000  0.0000 </r>
       </set>
       <set comment="band 3">
        <r>  0.0000  0.0335  0.0000  0.0335  0.0000  0.0000  0.0000  0.0000  0.0000 </r>
        <r>  0.0000  0.2319  0.0000  0.2318  0.0000  0.0000  0.0000  0.0000  0.0000 </r>
       </set>
       <set comment="band 4">
        <r>  0.0000  0.0112  0.0447  0.0112  0.0000  0.0000  0.0000  0.0000  0.0000 </r>
        <r>  0.0000  0.0772  0.3091  0.0773  0.0000  0.0000  0.0000  0.0000  0.0000 </r>
       </set>
       <set comment="band 5">
        <r>  0.1014  0.0208  0.0208  0.0208  0.0000  0.0000  0.0000  0.0000  0.0000 </r>
        <r>  0.3762  0.0073  0.0073  0.0073  0.0000  0.0000  0.0000  0.0000  0.0000 </r>
       </set>
       <set comment="band 6">
        <r>  0.0480  0.1245  0.1245  0.1245  0.0000  0.0000  0.0000  0.0000  0.0000 </r>
        <r>  0.0302  0.0219  0.0219  0.0219  0.0000  0.0000  0.0000  0.0000  0.0000 </r>
       </set>
       <set comment="band 7">
        <r>  0.0000  0.0375  0.2497  0.2020  0.0000  0.0000  0.0000  0.0000  0.0000 </r>
        <r>  0.0000  0.0015  0.0097  0.0079  0.0000  0.0000  0.0000  0.0000  0.0000 </r>
       </set>
       <set comment="band 8">
        <r>  0.0000  0.2886  0.0765  0.1241  0.0000  0.0000  0.0000  0.0000  0.0000 </r>
        <r>  0.0000  0.0112  0.0030  0.0048  0.0000  0.0000  0.0000  0.0000  0.0000 </r>
       </set>
      </set>
      <set comment="kpoint 65">
       <set comment="band 1">
        <r>  0.2386  0.0014  0.0014  0.0014  0.0000  0.0000  0.0000  0.0000  0.0000 </r>
        <r>  0.2535  0.0005  0.0005  0.0005  0.0000  0.0000  0.0000  0.0000  0.0000 </r>
       </set>
       <set comment="band 2">
        <r>  0.0197  0.0283  0.0283  0.0283  0.0000  0.0000  0.0000  0.0000  0.0000 </r>
        <r>  0.0458  0.1236  0.1236  0.1236  0.0000  0.0000  0.0000  0.0000  0.0000 </r>
       </set>
       <set comment="band 3">
        <r>  0.0000  0.0365  0.0000  0.0374  0.0000  0.0000  0.0000  0.0000  0.0000 </r>
        <r>  0.0000  0.2265  0.0000  0.2323  0.0000  0.0000  0.0000  0.0000  0.0000 </r>
       </set>
       <set comment="band 4">
        <r>  0.0000  0.0128  0.0492  0.0118  0.0000  0.0000  0.0000  0.0000  0.0000 </r>
        <r>  0.0000  0.0794  0.3059  0.0736  0.0000  0.0000  0.0000  0.0000  0.0000 </r>
       </set>
       <set comment="band 5">
        <r>  0.0928  0.0413  0.0413  0.0413  0.0000  0.0000  0.0000  0.0000  0.0000 </r>
        <r>  0.3157  0.0052  0.0052  0.0052  0.0000  0.0000  0.0000  0.0000  0.0000 </r>
       </set>
       <set comment="band 6">
        <r>  0.0000  0.0421  0.2029  0.2367  0.0000  0.0000  0.0000  0.0000  0.0000 </r>
        <r>  0.0000  0.0022  0.0106  0.0123  0.0000  0.0000  0.0000  0.0000  0.0000 </r>
       </set>
       <set comment="band 7">
        <r>  0.0000  0.2790  0.1183  0.0844  0.0000  0.0000  0.0000  0.0000  0.0000 </r>
        <r>  0.0000  0.0145  0.0062  0.0044  0.0000  0.0000  0.0000  0.0000  0.0000 </r>
       </set>
       <set comment="band 8">
        <r>  0.0725  0.0910  0.0910  0.0910  0.0000  0.0000  0.0000  0.0000  0.0000 </r>
        <r>  0.0691  0.0383  0.0383  0.0383  0.0000  0.0000  0.0000  0.0000  0.0000 </r>
       </set>
      </set>
      <set comment="kpoint 66">
       <set comment="band 1">
        <r>  0.2358  0.0022  0.0022  0.0022  0.0000  0.0000  0.0000  0.0000  0.0000 </r>
        <r>  0.2544  0.0008  0.0008  0.0008  0.0000  0.0000  0.0000  0.0000  0.0000 </r>
       </set>
       <set comment="band 2">
        <r>  0.0278  0.0314  0.0314  0.0314  0.0000  0.0000  0.0000  0.0000  0.0000 </r>
        <r>  0.0592  0.1124  0.1124  0.1124  0.0000  0.0000  0.0000  0.0000  0.0000 </r>
       </set>
       <set comment="band 3">
        <r>  0.0000  0.0408  0.0000  0.0409  0.0000  0.0000  0.0000  0.0000  0.0000 </r>
        <r>  0.0000  0.2266  0.0000  0.2268  0.0000  0.0000  0.0000  0.0000  0.0000 </r>
       </set>
       <set comment="band 4">
        <r>  0.0000  0.0136  0.0545  0.0136  0.0000  0.0000  0.0000  0.0000  0.0000 </r>
        <r>  0.0000  0.0757  0.3023  0.0755  0.0000  0.0000  0.0000  0.0000  0.0000 </r>
       </set>
       <set comment="band 5">
        <r>  0.0965  0.0553  0.0553  0.0553  0.0000  0.0000  0.0000  0.0000  0.0000 </r>
        <r>  0.2638  0.0028  0.0028  0.0028  0.0000  0.0000  0.0000  0.0000  0.0000 </r>
       </set>
       <set comment="band 6">
        <r>  0.0000  0.2211  0.2221  0.0284  0.0000  0.0000  0.0000  0.0000  0.0000 </r>
        <r>  0.0000  0.0148  0.0149  0.0019  0.0000  0.0000  0.0000  0.0000  0.0000 </r>
       </set>
       <set comment="band 7">
        <r>  0.0000  0.0933  0.0923  0.2860  0.0000  0.0000  0.0000  0.0000  0.0000 </r>
        <r>  0.0000  0.0063  0.0062  0.0192  0.0000  0.0000  0.0000  0.0000  0.0000 </r>
       </set>
       <set comment="band 8">
        <r>  0.0861  0.0632  0.0632  0.0632  0.0000  0.0000  0.0000  0.0000  0.0000 </r>
        <r>  0.0991  0.0553  0.0553  0.0553  0.0000  0.0000  0.0000  0.0000  0.0000 </r>
       </set>
      </set>
      <set comment="kpoint 67">
       <set comment="band 1">
        <r>  0.2323  0.0031  0.0031  0.0031  0.0000  0.0000  0.0000  0.0000  0.0000 </r>
        <r>  0.2554  0.0012  0.0012  0.0012  0.0000  0.0000  0.0000  0.0000  0.0000 </r>
       </set>
       <set comment="band 2">
        <r>  0.0363  0.0342  0.0342  0.0342  0.0000  0.0000  0.0000  0.0000  0.0000 </r>
        <r>  0.0703  0.1022  0.1022  0.1022  0.0000  0.0000  0.0000  0.0000  0.0000 </r>
       </set>
       <set comment="band 3">
        <r>  0.0000  0.0450  0.0000  0.0451  0.0000  0.0000  0.0000  0.0000  0.0000 </r>
        <r>  0.0000  0.2239  0.0000  0.2240  0.0000  0.0000  0.0000  0.0000  0.0000 </r>
       </set>
       <set comment="band 4">
        <r>  0.0000  0.0150  0.0601  0.0150  0.0000  0.0000  0.0000  0.0000  0.0000 </r>
        <r>  0.0000  0.0747  0.2986  0.0746  0.0000  0.0000  0.0000  0.0000  0.0000 </r>
       </set>
       <set comment="band 5">
        <r>  0.1095  0.0597  0.0597  0.0597  0.0000  0.0000  0.0000  0.0000  0.0000 </r>
        <r>  0.2312  0.0013  0.0013  0.0013  0.0000  0.0000  0.0000  0.0000  0.0000 </r>
       </set>
       <set comment="band 6">
        <r>  0.0000  0.1334  0.1608  0.1642  0.0000  0.0000  0.0000  0.0000  0.0000 </r>
        <r>  0.0000  0.0110  0.0132  0.0135  0.0000  0.0000  0.0000  0.0000  0.0000 </r>
       </set>
       <set comment="band 7">
        <r>  0.0000  0.1722  0.1448  0.1414  0.0000  0.0000  0.0000  0.0000  0.0000 </r>
        <r>  0.0000  0.0142  0.0119  0.0116  0.0000  0.0000  0.0000  0.0000  0.0000 </r>
       </set>
       <set comment="band 8">
        <r>  0.0900  0.0451  0.0451  0.0451  0.0000  0.0000  0.0000  0.0000  0.0000 </r>
        <r>  0.1104  0.0706  0.0706  0.0706  0.0000  0.0000  0.0000  0.0000  0.0000 </r>
       </set>
      </set>
      <set comment="kpoint 68">
       <set comment="band 1">
        <r>  0.2282  0.0041  0.0041  0.0041  0.0000  0.0000  0.0000  0.0000  0.0000 </r>
        <r>  0.2569  0.0016  0.0016  0.0016  0.0000  0.0000  0.0000  0.0000  0.0000 </r>
       </set>
       <set comment="band 2">
        <r>  0.0451  0.0364  0.0364  0.0364  0.0000  0.0000  0.0000  0.0000  0.0000 </r>
        <r>  0.0790  0.0931  0.0931  0.0931  0.0000  0.0000  0.0000  0.0000  0.0000 </r>
       </set>
       <set comment="band 3">
        <r>  0.0000  0.0493  0.0000  0.0493  0.0000  0.0000  0.0000  0.0000  0.0000 </r>
        <r>  0.0000  0.2212  0.0000  0.2211  0.0000  0.0000  0.0000  0.0000  0.0000 </r>
       </set>
       <set comment="band 4">
        <r>  0.0000  0.0164  0.0657  0.0164  0.0000  0.0000  0.0000  0.0000  0.0000 </r>
        <r>  0.0000  0.0737  0.2948  0.0737  0.0000  0.0000  0.0000  0.0000  0.0000 </r>
       </set>
       <set comment="band 5">
        <r>  0.1268  0.0581  0.0581  0.0581  0.0000  0.0000  0.0000  0.0000  0.0000 </r>
        <r>  0.2128  0.0006  0.0006  0.0006  0.0000  0.0000  0.0000  0.0000  0.0000 </r>
       </set>
       <set comment="band 6">
        <r>  0.0000  0.0496  0.2746  0.1168  0.0000  0.0000  0.0000  0.0000  0.0000 </r>
        <r>  0.0000  0.0048  0.0265  0.0113  0.0000  0.0000  0.0000  0.0000  0.0000 </r>
       </set>
       <set comment="band 7">
        <r>  0.0000  0.2444  0.0194  0.1772  0.0000  0.0000  0.0000  0.0000  0.0000 </r>
        <r>  0.0000  0.0236  0.0019  0.0171  0.0000  0.0000  0.0000  0.0000  0.0000 </r>
       </set>
       <set comment="band 8">
        <r>  0.0878  0.0337  0.0337  0.0337  0.0000  0.0000  0.0000  0.0000  0.0000 </r>
        <r>  0.1082  0.0839  0.0839  0.0839  0.0000  0.0000  0.0000  0.0000  0.0000 </r>
       </set>
      </set>
      <set comment="kpoint 69">
       <set comment="band 1">
        <r>  0.2235  0.0053  0.0053  0.0053  0.0000  0.0000  0.0000  0.0000  0.0000 </r>
        <r>  0.2589  0.0020  0.0020  0.0020  0.0000  0.0000  0.0000  0.0000  0.0000 </r>
       </set>
       <set comment="band 2">
        <r>  0.0544  0.0382  0.0382  0.0382  0.0000  0.0000  0.0000  0.0000  0.0000 </r>
        <r>  0.0853  0.0850  0.0850  0.0850  0.0000  0.0000  0.0000  0.0000  0.0000 </r>
       </set>
       <set comment="band 3">
        <r>  0.0000  0.0534  0.0000  0.0536  0.0000  0.0000  0.0000  0.0000  0.0000 </r>
        <r>  0.0000  0.2182  0.0000  0.2187  0.0000  0.0000  0.0000  0.0000  0.0000 </r>
       </set>
       <set comment="band 4">
        <r>  0.0000  0.0179  0.0713  0.0178  0.0000  0.0000  0.0000  0.0000  0.0000 </r>
        <r>  0.0000  0.0731  0.2913  0.0726  0.0000  0.0000  0.0000  0.0000  0.0000 </r>
       </set>
       <set comment="band 5">
        <r>  0.1453  0.0534  0.0534  0.0534  0.0000  0.0000  0.0000  0.0000  0.0000 </r>
        <r>  0.2030  0.0003  0.0003  0.0003  0.0000  0.0000  0.0000  0.0000  0.0000 </r>
       </set>
       <set comment="band 6">
        <r>  0.0000  0.2132  0.2002  0.0064  0.0000  0.0000  0.0000  0.0000  0.0000 </r>
        <r>  0.0000  0.0232  0.0218  0.0007  0.0000  0.0000  0.0000  0.0000  0.0000 </r>
       </set>
       <set comment="band 7">
        <r>  0.0000  0.0666  0.0796  0.2734  0.0000  0.0000  0.0000  0.0000  0.0000 </r>
        <r>  0.0000  0.0073  0.0087  0.0298  0.0000  0.0000  0.0000  0.0000  0.0000 </r>
       </set>
       <set comment="band 8">
        <r>  0.0817  0.0265  0.0265  0.0265  0.0000  0.0000  0.0000  0.0000  0.0000 </r>
        <r>  0.0982  0.0952  0.0952  0.0952  0.0000  0.0000  0.0000  0.0000  0.0000 </r>
       </set>
      </set>
      <set comment="kpoint 70">
       <set comment="band 1">
        <r>  0.2181  0.0066  0.0066  0.0066  0.0000  0.0000  0.0000  0.0000  0.0000 </r>
        <r>  0.2614  0.0025  0.0025  0.0025  0.0000  0.0000  0.0000  0.0000  0.0000 </r>
       </set>
       <set comment="band 2">
        <r>  0.0640  0.0394  0.0394  0.0394  0.0000  0.0000  0.0000  0.0000  0.0000 </r>
        <r>  0.0896  0.0781  0.0781  0.0781  0.0000  0.0000  0.0000  0.0000  0.0000 </r>
       </set>
       <set comment="band 3">
        <r>  0.0000  0.0561  0.0000  0.0588  0.0000  0.0000  0.0000  0.0000  0.0000 </r>
        <r>  0.0000  0.2109  0.0001  0.2211  0.0000  0.0000  0.0000  0.0000  0.0000 </r>
       </set>
       <set comment="band 4">
        <r>  0.0000  0.0205  0.0766  0.0178  0.0000  0.0000  0.0000  0.0000  0.0000 </r>
        <r>  0.0000  0.0772  0.2880  0.0670  0.0000  0.0000  0.0000  0.0000  0.0000 </r>
       </set>
       <set comment="band 5">
        <r>  0.1635  0.0474  0.0474  0.0474  0.0000  0.0000  0.0000  0.0000  0.0000 </r>
        <r>  0.1982  0.0002  0.0002  0.0002  0.0000  0.0000  0.0000  0.0000  0.0000 </r>
       </set>
       <set comment="band 6">
        <r>  0.0000  0.1926  0.0619  0.1410  0.0000  0.0000  0.0000  0.0000  0.0000 </r>
        <r>  0.0000  0.0227  0.0073  0.0166  0.0000  0.0000  0.0000  0.0000  0.0000 </r>
       </set>
       <set comment="band 7">
        <r>  0.0000  0.0711  0.2018  0.1226  0.0000  0.0000  0.0000  0.0000  0.0000 </r>
        <r>  0.0000  0.0084  0.0238  0.0145  0.0000  0.0000  0.0000  0.0000  0.0000 </r>
       </set>
       <set comment="band 8">
        <r>  0.0728  0.0216  0.0216  0.0216  0.0000  0.0000  0.0000  0.0000  0.0000 </r>
        <r>  0.0844  0.1044  0.1044  0.1044  0.0000  0.0000  0.0000  0.0000  0.0000 </r>
       </set>
      </set>
      <set comment="kpoint 71">
       <set comment="band 1">
        <r>  0.2121  0.0080  0.0080  0.0080  0.0000  0.0000  0.0000  0.0000  0.0000 </r>
        <r>  0.2645  0.0030  0.0030  0.0030  0.0000  0.0000  0.0000  0.0000  0.0000 </r>
       </set>
       <set comment="band 2">
        <r>  0.0739  0.0402  0.0402  0.0402  0.0000  0.0000  0.0000  0.0000  0.0000 </r>
        <r>  0.0918  0.0720  0.0720  0.0720  0.0000  0.0000  0.0000  0.0000  0.0000 </r>
       </set>
       <set comment="band 3">
        <r>  0.0000  0.0612  0.0000  0.0612  0.0000  0.0000  0.0000  0.0000  0.0000 </r>
        <r>  0.0000  0.2139  0.0000  0.2140  0.0000  0.0000  0.0000  0.0000  0.0000 </r>
       </set>
       <set comment="band 4">
        <r>  0.0000  0.0204  0.0816  0.0204  0.0000  0.0000  0.0000  0.0000  0.0000 </r>
        <r>  0.0000  0.0714  0.2852  0.0712  0.0000  0.0000  0.0000  0.0000  0.0000 </r>
       </set>
       <set comment="band 5">
        <r>  0.1806  0.0411  0.0411  0.0411  0.0000  0.0000  0.0000  0.0000  0.0000 </r>
        <r>  0.1963  0.0002  0.0002  0.0002  0.0000  0.0000  0.0000  0.0000  0.0000 </r>
       </set>
       <set comment="band 6">
        <r>  0.0000  0.0393  0.1824  0.1490  0.0000  0.0000  0.0000  0.0000  0.0000 </r>
        <r>  0.0000  0.0048  0.0225  0.0184  0.0000  0.0000  0.0000  0.0000  0.0000 </r>
       </set>
       <set comment="band 7">
        <r>  0.0000  0.2078  0.0647  0.0981  0.0000  0.0000  0.0000  0.0000  0.0000 </r>
        <r>  0.0000  0.0256  0.0080  0.0121  0.0000  0.0000  0.0000  0.0000  0.0000 </r>
       </set>
       <set comment="band 8">
        <r>  0.0620  0.0181  0.0181  0.0181  0.0000  0.0000  0.0000  0.0000  0.0000 </r>
        <r>  0.0693  0.1110  0.1110  0.1110  0.0000  0.0000  0.0000  0.0000  0.0000 </r>
       </set>
      </set>
      <set comment="kpoint 72">
       <set comment="band 1">
        <r>  0.2056  0.0095  0.0095  0.0095  0.0000  0.0000  0.0000  0.0000  0.0000 </r>
        <r>  0.2687  0.0034  0.0034  0.0034  0.0000  0.0000  0.0000  0.0000  0.0000 </r>
       </set>
       <set comment="band 2">
        <r>  0.0841  0.0406  0.0406  0.0406  0.0000  0.0000  0.0000  0.0000  0.0000 </r>
        <r>  0.0920  0.0668  0.0668  0.0668  0.0000  0.0000  0.0000  0.0000  0.0000 </r>
       </set>
       <set comment="band 3">
        <r>  0.0000  0.0640  0.0000  0.0651  0.0000  0.0000  0.0000  0.0000  0.0000 </r>
        <r>  0.0000  0.2103  0.0000  0.2138  0.0000  0.0000  0.0000  0.0000  0.0000 </r>
       </set>
       <set comment="band 4">
        <r>  0.0000  0.0221  0.0861  0.0210  0.0000  0.0000  0.0000  0.0000  0.0000 </r>
        <r>  0.0000  0.0725  0.2827  0.0689  0.0000  0.0000  0.0000  0.0000  0.0000 </r>
       </set>
       <set comment="band 5">
        <r>  0.1963  0.0349  0.0349  0.0349  0.0000  0.0000  0.0000  0.0000  0.0000 </r>
        <r>  0.1961  0.0002  0.0002  0.0002  0.0000  0.0000  0.0000  0.0000  0.0000 </r>
       </set>
       <set comment="band 6">
        <r>  0.0000  0.0183  0.1982  0.1307  0.0000  0.0000  0.0000  0.0000  0.0000 </r>
        <r>  0.0000  0.0023  0.0249  0.0164  0.0000  0.0000  0.0000  0.0000  0.0000 </r>
       </set>
       <set comment="band 7">
        <r>  0.0000  0.2132  0.0333  0.1008  0.0000  0.0000  0.0000  0.0000  0.0000 </r>
        <r>  0.0000  0.0268  0.0042  0.0127  0.0000  0.0000  0.0000  0.0000  0.0000 </r>
       </set>
       <set comment="band 8">
        <r>  0.0503  0.0154  0.0154  0.0154  0.0000  0.0000  0.0000  0.0000  0.0000 </r>
        <r>  0.0547  0.1149  0.1149  0.1149  0.0000  0.0000  0.0000  0.0000  0.0000 </r>
       </set>
      </set>
      <set comment="kpoint 73">
       <set comment="band 1">
        <r>  0.1983  0.0110  0.0110  0.0110  0.0000  0.0000  0.0000  0.0000  0.0000 </r>
        <r>  0.2741  0.0038  0.0038  0.0038  0.0000  0.0000  0.0000  0.0000  0.0000 </r>
       </set>
       <set comment="band 2">
        <r>  0.0946  0.0407  0.0407  0.0407  0.0000  0.0000  0.0000  0.0000  0.0000 </r>
        <r>  0.0901  0.0625  0.0625  0.0625  0.0000  0.0000  0.0000  0.0000  0.0000 </r>
       </set>
       <set comment="band 3">
        <r>  0.0000  0.0676  0.0000  0.0676  0.0000  0.0000  0.0000  0.0000  0.0000 </r>
        <r>  0.0000  0.2105  0.0000  0.2104  0.0000  0.0000  0.0000  0.0000  0.0000 </r>
       </set>
       <set comment="band 4">
        <r>  0.0000  0.0225  0.0901  0.0225  0.0000  0.0000  0.0000  0.0000  0.0000 </r>
        <r>  0.0000  0.0701  0.2806  0.0702  0.0000  0.0000  0.0000  0.0000  0.0000 </r>
       </set>
       <set comment="band 5">
        <r>  0.2103  0.0292  0.0292  0.0292  0.0000  0.0000  0.0000  0.0000  0.0000 </r>
        <r>  0.1968  0.0002  0.0002  0.0002  0.0000  0.0000  0.0000  0.0000  0.0000 </r>
       </set>
       <set comment="band 6">
        <r>  0.0000  0.1628  0.0083  0.1559  0.0000  0.0000  0.0000  0.0000  0.0000 </r>
        <r>  0.0000  0.0204  0.0010  0.0195  0.0000  0.0000  0.0000  0.0000  0.0000 </r>
       </set>
       <set comment="band 7">
        <r>  0.0000  0.0552  0.2097  0.0621  0.0000  0.0000  0.0000  0.0000  0.0000 </r>
        <r>  0.0000  0.0069  0.0262  0.0078  0.0000  0.0000  0.0000  0.0000  0.0000 </r>
       </set>
       <set comment="band 8">
        <r>  0.0389  0.0131  0.0132  0.0131  0.0000  0.0000  0.0000  0.0000  0.0000 </r>
        <r>  0.0421  0.1160  0.1160  0.1160  0.0000  0.0000  0.0000  0.0000  0.0000 </r>
       </set>
      </set>
      <set comment="kpoint 74">
       <set comment="band 1">
        <r>  0.1905  0.0125  0.0125  0.0125  0.0000  0.0000  0.0000  0.0000  0.0000 </r>
        <r>  0.2812  0.0041  0.0041  0.0041  0.0000  0.0000  0.0000  0.0000  0.0000 </r>
       </set>
       <set comment="band 2">
        <r>  0.1054  0.0404  0.0404  0.0404  0.0000  0.0000  0.0000  0.0000  0.0000 </r>
        <r>  0.0859  0.0589  0.0589  0.0589  0.0000  0.0000  0.0000  0.0000  0.0000 </r>
       </set>
       <set comment="band 3">
        <r>  0.0000  0.0701  0.0000  0.0702  0.0000  0.0000  0.0000  0.0000  0.0000 </r>
        <r>  0.0000  0.2090  0.0000  0.2093  0.0000  0.0000  0.0000  0.0000  0.0000 </r>
       </set>
       <set comment="band 4">
        <r>  0.0000  0.0235  0.0936  0.0233  0.0000  0.0000  0.0000  0.0000  0.0000 </r>
        <r>  0.0000  0.0699  0.2788  0.0695  0.0000  0.0000  0.0000  0.0000  0.0000 </r>
       </set>
       <set comment="band 5">
        <r>  0.2226  0.0241  0.0241  0.0241  0.0000  0.0000  0.0000  0.0000  0.0000 </r>
        <r>  0.1981  0.0002  0.0002  0.0002  0.0000  0.0000  0.0000  0.0000  0.0000 </r>
       </set>
       <set comment="band 6">
        <r>  0.0000  0.1062  0.1906  0.0133  0.0000  0.0000  0.0000  0.0000  0.0000 </r>
        <r>  0.0000  0.0130  0.0234  0.0016  0.0000  0.0000  0.0000  0.0000  0.0000 </r>
       </set>
       <set comment="band 7">
        <r>  0.0000  0.1006  0.0161  0.1934  0.0000  0.0000  0.0000  0.0000  0.0000 </r>
        <r>  0.0000  0.0124  0.0020  0.0238  0.0000  0.0000  0.0000  0.0000  0.0000 </r>
       </set>
       <set comment="band 8">
        <r>  0.0288  0.0112  0.0112  0.0112  0.0000  0.0000  0.0000  0.0000  0.0000 </r>
        <r>  0.0322  0.1148  0.1148  0.1148  0.0000  0.0000  0.0000  0.0000  0.0000 </r>
       </set>
      </set>
      <set comment="kpoint 75">
       <set comment="band 1">
        <r>  0.1820  0.0139  0.0139  0.0139  0.0000  0.0000  0.0000  0.0000  0.0000 </r>
        <r>  0.2903  0.0042  0.0042  0.0042  0.0000  0.0000  0.0000  0.0000  0.0000 </r>
       </set>
       <set comment="band 2">
        <r>  0.1164  0.0400  0.0400  0.0400  0.0000  0.0000  0.0000  0.0000  0.0000 </r>
        <r>  0.0789  0.0561  0.0561  0.0561  0.0000  0.0000  0.0000  0.0000  0.0000 </r>
       </set>
       <set comment="band 3">
        <r>  0.0000  0.0724  0.0000  0.0724  0.0000  0.0000  0.0000  0.0000  0.0000 </r>
        <r>  0.0000  0.2080  0.0000  0.2081  0.0000  0.0000  0.0000  0.0000  0.0000 </r>
       </set>
       <set comment="band 4">
        <r>  0.0000  0.0241  0.0965  0.0241  0.0000  0.0000  0.0000  0.0000  0.0000 </r>
        <r>  0.0000  0.0694  0.2774  0.0693  0.0000  0.0000  0.0000  0.0000  0.0000 </r>
       </set>
       <set comment="band 5">
        <r>  0.2331  0.0197  0.0197  0.0197  0.0000  0.0000  0.0000  0.0000  0.0000 </r>
        <r>  0.1996  0.0002  0.0002  0.0002  0.0000  0.0000  0.0000  0.0000  0.0000 </r>
       </set>
       <set comment="band 6">
        <r>  0.0000  0.0491  0.0578  0.1898  0.0000  0.0000  0.0000  0.0000  0.0000 </r>
        <r>  0.0000  0.0059  0.0069  0.0227  0.0000  0.0000  0.0000  0.0000  0.0000 </r>
       </set>
       <set comment="band 7">
        <r>  0.0000  0.1487  0.1400  0.0080  0.0000  0.0000  0.0000  0.0000  0.0000 </r>
        <r>  0.0000  0.0178  0.0167  0.0010  0.0000  0.0000  0.0000  0.0000  0.0000 </r>
       </set>
       <set comment="band 8">
        <r>  0.0205  0.0096  0.0096  0.0096  0.0000  0.0000  0.0000  0.0000  0.0000 </r>
        <r>  0.0250  0.1121  0.1121  0.1121  0.0000  0.0000  0.0000  0.0000  0.0000 </r>
       </set>
      </set>
      <set comment="kpoint 76">
       <set comment="band 1">
        <r>  0.1729  0.0152  0.0152  0.0152  0.0000  0.0000  0.0000  0.0000  0.0000 </r>
        <r>  0.3022  0.0040  0.0040  0.0040  0.0000  0.0000  0.0000  0.0000  0.0000 </r>
       </set>
       <set comment="band 2">
        <r>  0.1276  0.0395  0.0395  0.0395  0.0000  0.0000  0.0000  0.0000  0.0000 </r>
        <r>  0.0687  0.0542  0.0542  0.0542  0.0000  0.0000  0.0000  0.0000  0.0000 </r>
       </set>
       <set comment="band 3">
        <r>  0.0000  0.0743  0.0000  0.0741  0.0000  0.0000  0.0000  0.0000  0.0000 </r>
        <r>  0.0000  0.2075  0.0000  0.2069  0.0000  0.0000  0.0000  0.0000  0.0000 </r>
       </set>
       <set comment="band 4">
        <r>  0.0000  0.0246  0.0989  0.0248  0.0000  0.0000  0.0000  0.0000  0.0000 </r>
        <r>  0.0000  0.0688  0.2763  0.0694  0.0000  0.0000  0.0000  0.0000  0.0000 </r>
       </set>
       <set comment="band 5">
        <r>  0.2417  0.0160  0.0160  0.0160  0.0000  0.0000  0.0000  0.0000  0.0000 </r>
        <r>  0.2010  0.0001  0.0001  0.0001  0.0000  0.0000  0.0000  0.0000  0.0000 </r>
       </set>
       <set comment="band 6">
        <r>  0.0000  0.1362  0.0586  0.0918  0.0000  0.0000  0.0000  0.0000  0.0000 </r>
        <r>  0.0000  0.0158  0.0068  0.0106  0.0000  0.0000  0.0000  0.0000  0.0000 </r>
       </set>
       <set comment="band 7">
        <r>  0.0000  0.0549  0.1325  0.0993  0.0000  0.0000  0.0000  0.0000  0.0000 </r>
        <r>  0.0000  0.0064  0.0153  0.0115  0.0000  0.0000  0.0000  0.0000  0.0000 </r>
       </set>
       <set comment="band 8">
        <r>  0.0143  0.0082  0.0082  0.0082  0.0000  0.0000  0.0000  0.0000  0.0000 </r>
        <r>  0.0203  0.1089  0.1089  0.1089  0.0000  0.0000  0.0000  0.0000  0.0000 </r>
       </set>
      </set>
      <set comment="kpoint 77">
       <set comment="band 1">
        <r>  0.1635  0.0163  0.0163  0.0163  0.0000  0.0000  0.0000  0.0000  0.0000 </r>
        <r>  0.3171  0.0035  0.0035  0.0035  0.0000  0.0000  0.0000  0.0000  0.0000 </r>
       </set>
       <set comment="band 2">
        <r>  0.1386  0.0390  0.0390  0.0390  0.0000  0.0000  0.0000  0.0000  0.0000 </r>
        <r>  0.0550  0.0531  0.0531  0.0531  0.0000  0.0000  0.0000  0.0000  0.0000 </r>
       </set>
       <set comment="band 3">
        <r>  0.0000  0.0756  0.0000  0.0757  0.0000  0.0000  0.0000  0.0000  0.0000 </r>
        <r>  0.0000  0.2064  0.0000  0.2068  0.0000  0.0000  0.0000  0.0000  0.0000 </r>
       </set>
       <set comment="band 4">
        <r>  0.0000  0.0253  0.1008  0.0251  0.0000  0.0000  0.0000  0.0000  0.0000 </r>
        <r>  0.0000  0.0690  0.2755  0.0687  0.0000  0.0000  0.0000  0.0000  0.0000 </r>
       </set>
       <set comment="band 5">
        <r>  0.2484  0.0132  0.0132  0.0132  0.0000  0.0000  0.0000  0.0000  0.0000 </r>
        <r>  0.2023  0.0001  0.0001  0.0001  0.0000  0.0000  0.0000  0.0000  0.0000 </r>
       </set>
       <set comment="band 6">
        <r>  0.0000  0.1130  0.0068  0.1594  0.0000  0.0000  0.0000  0.0000  0.0000 </r>
        <r>  0.0000  0.0127  0.0008  0.0179  0.0000  0.0000  0.0000  0.0000  0.0000 </r>
       </set>
       <set comment="band 7">
        <r>  0.0000  0.0731  0.1794  0.0267  0.0000  0.0000  0.0000  0.0000  0.0000 </r>
        <r>  0.0000  0.0082  0.0202  0.0030  0.0000  0.0000  0.0000  0.0000  0.0000 </r>
       </set>
       <set comment="band 8">
        <r>  0.0099  0.0071  0.0071  0.0071  0.0000  0.0000  0.0000  0.0000  0.0000 </r>
        <r>  0.0173  0.1058  0.1058  0.1058  0.0000  0.0000  0.0000  0.0000  0.0000 </r>
       </set>
      </set>
      <set comment="kpoint 78">
       <set comment="band 1">
        <r>  0.1545  0.0172  0.0172  0.0172  0.0000  0.0000  0.0000  0.0000  0.0000 </r>
        <r>  0.3343  0.0025  0.0025  0.0025  0.0000  0.0000  0.0000  0.0000  0.0000 </r>
       </set>
       <set comment="band 2">
        <r>  0.1489  0.0386  0.0386  0.0386  0.0000  0.0000  0.0000  0.0000  0.0000 </r>
        <r>  0.0388  0.0529  0.0529  0.0529  0.0000  0.0000  0.0000  0.0000  0.0000 </r>
       </set>
       <set comment="band 3">
        <r>  0.0000  0.0764  0.0000  0.0768  0.0000  0.0000  0.0000  0.0000  0.0000 </r>
        <r>  0.0000  0.2056  0.0000  0.2067  0.0000  0.0000  0.0000  0.0000  0.0000 </r>
       </set>
       <set comment="band 4">
        <r>  0.0000  0.0258  0.1022  0.0253  0.0000  0.0000  0.0000  0.0000  0.0000 </r>
        <r>  0.0000  0.0693  0.2749  0.0682  0.0000  0.0000  0.0000  0.0000  0.0000 </r>
       </set>
       <set comment="band 5">
        <r>  0.2532  0.0111  0.0111  0.0111  0.0000  0.0000  0.0000  0.0000  0.0000 </r>
        <r>  0.2032  0.0001  0.0001  0.0001  0.0000  0.0000  0.0000  0.0000  0.0000 </r>
       </set>
       <set comment="band 6">
        <r>  0.0000  0.1650  0.0789  0.0302  0.0000  0.0000  0.0000  0.0000  0.0000 </r>
        <r>  0.0000  0.0181  0.0087  0.0033  0.0000  0.0000  0.0000  0.0000  0.0000 </r>
       </set>
       <set comment="band 7">
        <r>  0.0000  0.0177  0.1039  0.1526  0.0000  0.0000  0.0000  0.0000  0.0000 </r>
        <r>  0.0000  0.0019  0.0114  0.0167  0.0000  0.0000  0.0000  0.0000  0.0000 </r>
       </set>
       <set comment="band 8">
        <r>  0.0070  0.0063  0.0063  0.0063  0.0000  0.0000  0.0000  0.0000  0.0000 </r>
        <r>  0.0155  0.1033  0.1033  0.1033  0.0000  0.0000  0.0000  0.0000  0.0000 </r>
       </set>
      </set>
      <set comment="kpoint 79">
       <set comment="band 1">
        <r>  0.1473  0.0176  0.0176  0.0176  0.0000  0.0000  0.0000  0.0000  0.0000 </r>
        <r>  0.3497  0.0015  0.0015  0.0015  0.0000  0.0000  0.0000  0.0000  0.0000 </r>
       </set>
       <set comment="band 2">
        <r>  0.1567  0.0384  0.0384  0.0384  0.0000  0.0000  0.0000  0.0000  0.0000 </r>
        <r>  0.0238  0.0532  0.0532  0.0532  0.0000  0.0000  0.0000  0.0000  0.0000 </r>
       </set>
       <set comment="band 3">
        <r>  0.0000  0.0784  0.0006  0.0755  0.0000  0.0000  0.0000  0.0000  0.0000 </r>
        <r>  0.0000  0.2090  0.0015  0.2013  0.0000  0.0000  0.0000  0.0000  0.0000 </r>
       </set>
       <set comment="band 4">
        <r>  0.0000  0.0246  0.1024  0.0275  0.0000  0.0000  0.0000  0.0000  0.0000 </r>
        <r>  0.0000  0.0655  0.2731  0.0732  0.0000  0.0000  0.0000  0.0000  0.0000 </r>
       </set>
       <set comment="band 5">
        <r>  0.2562  0.0099  0.0099  0.0099  0.0000  0.0000  0.0000  0.0000  0.0000 </r>
        <r>  0.2038  0.0001  0.0001  0.0001  0.0000  0.0000  0.0000  0.0000  0.0000 </r>
       </set>
       <set comment="band 6">
        <r>  0.0000  0.0637  0.1352  0.0723  0.0000  0.0000  0.0000  0.0000  0.0000 </r>
        <r>  0.0000  0.0069  0.0146  0.0078  0.0000  0.0000  0.0000  0.0000  0.0000 </r>
       </set>
       <set comment="band 7">
        <r>  0.0000  0.1171  0.0456  0.1085  0.0000  0.0000  0.0000  0.0000  0.0000 </r>
        <r>  0.0000  0.0126  0.0049  0.0117  0.0000  0.0000  0.0000  0.0000  0.0000 </r>
       </set>
       <set comment="band 8">
        <r>  0.0053  0.0059  0.0059  0.0058  0.0000  0.0000  0.0000  0.0000  0.0000 </r>
        <r>  0.0147  0.1017  0.1017  0.1018  0.0000  0.0000  0.0000  0.0000  0.0000 </r>
       </set>
      </set>
      <set comment="kpoint 80">
       <set comment="band 1">
        <r>  0.1445  0.0178  0.0178  0.0178  0.0000  0.0000  0.0000  0.0000  0.0000 </r>
        <r>  0.3563  0.0010  0.0010  0.0010  0.0000  0.0000  0.0000  0.0000  0.0000 </r>
       </set>
       <set comment="band 2">
        <r>  0.1598  0.0383  0.0383  0.0383  0.0000  0.0000  0.0000  0.0000  0.0000 </r>
        <r>  0.0174  0.0535  0.0535  0.0535  0.0000  0.0000  0.0000  0.0000  0.0000 </r>
       </set>
       <set comment="band 3">
        <r>  0.0000  0.0775  0.0000  0.0774  0.0000  0.0000  0.0000  0.0000  0.0000 </r>
        <r>  0.0000  0.2059  0.0000  0.2057  0.0000  0.0000  0.0000  0.0000  0.0000 </r>
       </set>
       <set comment="band 4">
        <r>  0.0000  0.0258  0.1032  0.0258  0.0000  0.0000  0.0000  0.0000  0.0000 </r>
        <r>  0.0000  0.0685  0.2744  0.0687  0.0000  0.0000  0.0000  0.0000  0.0000 </r>
       </set>
       <set comment="band 5">
        <r>  0.2571  0.0095  0.0095  0.0095  0.0000  0.0000  0.0000  0.0000  0.0000 </r>
        <r>  0.2040  0.0001  0.0001  0.0001  0.0000  0.0000  0.0000  0.0000  0.0000 </r>
       </set>
       <set comment="band 6">
        <r>  0.0000  0.1750  0.0640  0.0313  0.0000  0.0000  0.0000  0.0000  0.0000 </r>
        <r>  0.0000  0.0188  0.0069  0.0034  0.0000  0.0000  0.0000  0.0000  0.0000 </r>
       </set>
       <set comment="band 7">
        <r>  0.0000  0.0052  0.1162  0.1489  0.0000  0.0000  0.0000  0.0000  0.0000 </r>
        <r>  0.0000  0.0006  0.0125  0.0160  0.0000  0.0000  0.0000  0.0000  0.0000 </r>
       </set>
       <set comment="band 8">
        <r>  0.0048  0.0057  0.0057  0.0057  0.0000  0.0000  0.0000  0.0000  0.0000 </r>
        <r>  0.0144  0.1012  0.1012  0.1012  0.0000  0.0000  0.0000  0.0000  0.0000 </r>
       </set>
      </set>
      <set comment="kpoint 81">
       <set comment="band 1">
        <r>  0.1445  0.0178  0.0178  0.0178  0.0000  0.0000  0.0000  0.0000  0.0000 </r>
        <r>  0.3563  0.0010  0.0010  0.0010  0.0000  0.0000  0.0000  0.0000  0.0000 </r>
       </set>
       <set comment="band 2">
        <r>  0.1598  0.0383  0.0383  0.0383  0.0000  0.0000  0.0000  0.0000  0.0000 </r>
        <r>  0.0174  0.0535  0.0535  0.0535  0.0000  0.0000  0.0000  0.0000  0.0000 </r>
       </set>
       <set comment="band 3">
        <r>  0.0000  0.0789  0.0000  0.0759  0.0000  0.0000  0.0000  0.0000  0.0000 </r>
        <r>  0.0000  0.2097  0.0001  0.2018  0.0000  0.0000  0.0000  0.0000  0.0000 </r>
       </set>
       <set comment="band 4">
        <r>  0.0000  0.0244  0.1032  0.0273  0.0000  0.0000  0.0000  0.0000  0.0000 </r>
        <r>  0.0000  0.0647  0.2743  0.0726  0.0000  0.0000  0.0000  0.0000  0.0000 </r>
       </set>
       <set comment="band 5">
        <r>  0.2571  0.0095  0.0095  0.0095  0.0000  0.0000  0.0000  0.0000  0.0000 </r>
        <r>  0.2040  0.0001  0.0001  0.0001  0.0000  0.0000  0.0000  0.0000  0.0000 </r>
       </set>
       <set comment="band 6">
        <r>  0.0000  0.1444  0.0300  0.0959  0.0000  0.0000  0.0000  0.0000  0.0000 </r>
        <r>  0.0000  0.0155  0.0032  0.0103  0.0000  0.0000  0.0000  0.0000  0.0000 </r>
       </set>
       <set comment="band 7">
        <r>  0.0000  0.0358  0.1502  0.0843  0.0000  0.0000  0.0000  0.0000  0.0000 </r>
        <r>  0.0000  0.0038  0.0161  0.0090  0.0000  0.0000  0.0000  0.0000  0.0000 </r>
       </set>
       <set comment="band 8">
        <r>  0.0048  0.0057  0.0057  0.0057  0.0000  0.0000  0.0000  0.0000  0.0000 </r>
        <r>  0.0144  0.1012  0.1012  0.1012  0.0000  0.0000  0.0000  0.0000  0.0000 </r>
       </set>
      </set>
      <set comment="kpoint 82">
       <set comment="band 1">
        <r>  0.1441  0.0179  0.0179  0.0177  0.0000  0.0000  0.0000  0.0000  0.0000 </r>
        <r>  0.3564  0.0011  0.0011  0.0010  0.0000  0.0000  0.0000  0.0000  0.0000 </r>
       </set>
       <set comment="band 2">
        <r>  0.1601  0.0383  0.0383  0.0383  0.0000  0.0000  0.0000  0.0000  0.0000 </r>
        <r>  0.0174  0.0535  0.0535  0.0535  0.0000  0.0000  0.0000  0.0000  0.0000 </r>
       </set>
       <set comment="band 3">
        <r>  0.0023  0.0767  0.0767  0.0009  0.0000  0.0000  0.0000  0.0000  0.0000 </r>
        <r>  0.0016  0.2034  0.2034  0.0002  0.0000  0.0000  0.0000  0.0000  0.0000 </r>
       </set>
       <set comment="band 4">
        <r>  0.0000  0.0262  0.0262  0.1030  0.0000  0.0000  0.0000  0.0000  0.0000 </r>
        <r>  0.0000  0.0686  0.0686  0.2735  0.0000  0.0000  0.0000  0.0000  0.0000 </r>
       </set>
       <set comment="band 5">
        <r>  0.2548  0.0101  0.0101  0.0084  0.0000  0.0000  0.0000  0.0000  0.0000 </r>
        <r>  0.2000  0.0027  0.0027  0.0000  0.0000  0.0000  0.0000  0.0000  0.0000 </r>
       </set>
       <set comment="band 6">
        <r>  0.0002  0.1314  0.1314  0.0006  0.0000  0.0000  0.0000  0.0000  0.0000 </r>
        <r>  0.0028  0.0136  0.0136  0.0035  0.0000  0.0000  0.0000  0.0000  0.0000 </r>
       </set>
       <set comment="band 7">
        <r>  0.0000  0.0447  0.0447  0.1802  0.0000  0.0000  0.0000  0.0000  0.0000 </r>
        <r>  0.0000  0.0053  0.0053  0.0197  0.0000  0.0000  0.0000  0.0000  0.0000 </r>
       </set>
       <set comment="band 8">
        <r>  0.0055  0.0092  0.0092  0.0054  0.0000  0.0000  0.0000  0.0000  0.0000 </r>
        <r>  0.0133  0.1030  0.1030  0.0990  0.0000  0.0000  0.0000  0.0000  0.0000 </r>
       </set>
      </set>
      <set comment="kpoint 83">
       <set comment="band 1">
        <r>  0.1428  0.0184  0.0184  0.0176  0.0000  0.0000  0.0000  0.0000  0.0000 </r>
        <r>  0.3570  0.0012  0.0012  0.0010  0.0000  0.0000  0.0000  0.0000  0.0000 </r>
       </set>
       <set comment="band 2">
        <r>  0.1608  0.0383  0.0383  0.0381  0.0000  0.0000  0.0000  0.0000  0.0000 </r>
        <r>  0.0174  0.0536  0.0536  0.0534  0.0000  0.0000  0.0000  0.0000  0.0000 </r>
       </set>
       <set comment="band 3">
        <r>  0.0088  0.0748  0.0748  0.0035  0.0000  0.0000  0.0000  0.0000  0.0000 </r>
        <r>  0.0061  0.1968  0.1968  0.0008  0.0000  0.0000  0.0000  0.0000  0.0000 </r>
       </set>
       <set comment="band 4">
        <r>  0.0000  0.0275  0.0275  0.1022  0.0000  0.0000  0.0000  0.0000  0.0000 </r>
        <r>  0.0000  0.0686  0.0686  0.2706  0.0000  0.0000  0.0000  0.0000  0.0000 </r>
       </set>
       <set comment="band 5">
        <r>  0.2476  0.0118  0.0118  0.0056  0.0000  0.0000  0.0000  0.0000  0.0000 </r>
        <r>  0.1873  0.0098  0.0098  0.0003  0.0000  0.0000  0.0000  0.0000  0.0000 </r>
       </set>
       <set comment="band 6">
        <r>  0.0012  0.1222  0.1222  0.0023  0.0000  0.0000  0.0000  0.0000  0.0000 </r>
        <r>  0.0114  0.0111  0.0111  0.0119  0.0000  0.0000  0.0000  0.0000  0.0000 </r>
       </set>
       <set comment="band 7">
        <r>  0.0006  0.0435  0.0435  0.1796  0.0000  0.0000  0.0000  0.0000  0.0000 </r>
        <r>  0.0005  0.0069  0.0069  0.0207  0.0000  0.0000  0.0000  0.0000  0.0000 </r>
       </set>
       <set comment="band 8">
        <r>  0.0076  0.0175  0.0175  0.0047  0.0000  0.0000  0.0000  0.0000  0.0000 </r>
        <r>  0.0108  0.1081  0.1081  0.0941  0.0000  0.0000  0.0000  0.0000  0.0000 </r>
       </set>
      </set>
      <set comment="kpoint 84">
       <set comment="band 1">
        <r>  0.1407  0.0191  0.0191  0.0174  0.0000  0.0000  0.0000  0.0000  0.0000 </r>
        <r>  0.3579  0.0013  0.0013  0.0010  0.0000  0.0000  0.0000  0.0000  0.0000 </r>
       </set>
       <set comment="band 2">
        <r>  0.1620  0.0382  0.0382  0.0378  0.0000  0.0000  0.0000  0.0000  0.0000 </r>
        <r>  0.0174  0.0539  0.0539  0.0534  0.0000  0.0000  0.0000  0.0000  0.0000 </r>
       </set>
       <set comment="band 3">
        <r>  0.0180  0.0720  0.0720  0.0073  0.0000  0.0000  0.0000  0.0000  0.0000 </r>
        <r>  0.0122  0.1874  0.1874  0.0017  0.0000  0.0000  0.0000  0.0000  0.0000 </r>
       </set>
       <set comment="band 4">
        <r>  0.0001  0.0295  0.0295  0.1010  0.0000  0.0000  0.0000  0.0000  0.0000 </r>
        <r>  0.0000  0.0686  0.0686  0.2659  0.0000  0.0000  0.0000  0.0000  0.0000 </r>
       </set>
       <set comment="band 5">
        <r>  0.2332  0.0147  0.0147  0.0028  0.0000  0.0000  0.0000  0.0000  0.0000 </r>
        <r>  0.1630  0.0190  0.0190  0.0027  0.0000  0.0000  0.0000  0.0000  0.0000 </r>
       </set>
       <set comment="band 6">
        <r>  0.0052  0.1109  0.1109  0.0052  0.0000  0.0000  0.0000  0.0000  0.0000 </r>
        <r>  0.0277  0.0074  0.0074  0.0211  0.0000  0.0000  0.0000  0.0000  0.0000 </r>
       </set>
       <set comment="band 7">
        <r>  0.0027  0.0416  0.0416  0.1771  0.0000  0.0000  0.0000  0.0000  0.0000 </r>
        <r>  0.0025  0.0104  0.0104  0.0220  0.0000  0.0000  0.0000  0.0000  0.0000 </r>
       </set>
       <set comment="band 8">
        <r>  0.0117  0.0269  0.0269  0.0038  0.0000  0.0000  0.0000  0.0000  0.0000 </r>
        <r>  0.0078  0.1159  0.1159  0.0891  0.0000  0.0000  0.0000  0.0000  0.0000 </r>
       </set>
      </set>
      <set comment="kpoint 85">
       <set comment="band 1">
        <r>  0.1378  0.0200  0.0200  0.0170  0.0000  0.0000  0.0000  0.0000  0.0000 </r>
        <r>  0.3593  0.0016  0.0016  0.0009  0.0000  0.0000  0.0000  0.0000  0.0000 </r>
       </set>
       <set comment="band 2">
        <r>  0.1638  0.0380  0.0380  0.0374  0.0000  0.0000  0.0000  0.0000  0.0000 </r>
        <r>  0.0174  0.0542  0.0542  0.0533  0.0000  0.0000  0.0000  0.0000  0.0000 </r>
       </set>
       <set comment="band 3">
        <r>  0.0286  0.0687  0.0687  0.0118  0.0000  0.0000  0.0000  0.0000  0.0000 </r>
        <r>  0.0189  0.1766  0.1766  0.0028  0.0000  0.0000  0.0000  0.0000  0.0000 </r>
       </set>
       <set comment="band 4">
        <r>  0.0002  0.0323  0.0323  0.0993  0.0000  0.0000  0.0000  0.0000  0.0000 </r>
        <r>  0.0000  0.0685  0.0685  0.2593  0.0000  0.0000  0.0000  0.0000  0.0000 </r>
       </set>
       <set comment="band 5">
        <r>  0.2066  0.0190  0.0190  0.0012  0.0000  0.0000  0.0000  0.0000  0.0000 </r>
        <r>  0.1239  0.0270  0.0270  0.0112  0.0000  0.0000  0.0000  0.0000  0.0000 </r>
       </set>
       <set comment="band 6">
        <r>  0.0176  0.0988  0.0988  0.0099  0.0000  0.0000  0.0000  0.0000  0.0000 </r>
        <r>  0.0548  0.0040  0.0040  0.0260  0.0000  0.0000  0.0000  0.0000  0.0000 </r>
       </set>
       <set comment="band 7">
        <r>  0.0075  0.0390  0.0390  0.1709  0.0000  0.0000  0.0000  0.0000  0.0000 </r>
        <r>  0.0067  0.0165  0.0165  0.0233  0.0000  0.0000  0.0000  0.0000  0.0000 </r>
       </set>
       <set comment="band 8">
        <r>  0.0182  0.0349  0.0349  0.0028  0.0000  0.0000  0.0000  0.0000  0.0000 </r>
        <r>  0.0049  0.1252  0.1252  0.0852  0.0000  0.0000  0.0000  0.0000  0.0000 </r>
       </set>
      </set>
      <set comment="kpoint 86">
       <set comment="band 1">
        <r>  0.1339  0.0213  0.0213  0.0166  0.0000  0.0000  0.0000  0.0000  0.0000 </r>
        <r>  0.3612  0.0018  0.0018  0.0009  0.0000  0.0000  0.0000  0.0000  0.0000 </r>
       </set>
       <set comment="band 2">
        <r>  0.1663  0.0378  0.0378  0.0369  0.0000  0.0000  0.0000  0.0000  0.0000 </r>
        <r>  0.0174  0.0547  0.0547  0.0531  0.0000  0.0000  0.0000  0.0000  0.0000 </r>
       </set>
       <set comment="band 3">
        <r>  0.0396  0.0652  0.0652  0.0165  0.0000  0.0000  0.0000  0.0000  0.0000 </r>
        <r>  0.0252  0.1658  0.1658  0.0040  0.0000  0.0000  0.0000  0.0000  0.0000 </r>
       </set>
       <set comment="band 4">
        <r>  0.0006  0.0355  0.0355  0.0971  0.0000  0.0000  0.0000  0.0000  0.0000 </r>
        <r>  0.0000  0.0682  0.0682  0.2510  0.0000  0.0000  0.0000  0.0000  0.0000 </r>
       </set>
       <set comment="band 5">
        <r>  0.1657  0.0247  0.0247  0.0010  0.0000  0.0000  0.0000  0.0000  0.0000 </r>
        <r>  0.0761  0.0297  0.0297  0.0296  0.0000  0.0000  0.0000  0.0000  0.0000 </r>
       </set>
       <set comment="band 6">
        <r>  0.0416  0.0862  0.0862  0.0167  0.0000  0.0000  0.0000  0.0000  0.0000 </r>
        <r>  0.0880  0.0037  0.0037  0.0229  0.0000  0.0000  0.0000  0.0000  0.0000 </r>
       </set>
       <set comment="band 7">
        <r>  0.0145  0.0361  0.0361  0.1610  0.0000  0.0000  0.0000  0.0000  0.0000 </r>
        <r>  0.0122  0.0258  0.0258  0.0242  0.0000  0.0000  0.0000  0.0000  0.0000 </r>
       </set>
       <set comment="band 8">
        <r>  0.0272  0.0405  0.0405  0.0019  0.0000  0.0000  0.0000  0.0000  0.0000 </r>
        <r>  0.0027  0.1344  0.1344  0.0826  0.0000  0.0000  0.0000  0.0000  0.0000 </r>
       </set>
      </set>
      <set comment="kpoint 87">
       <set comment="band 1">
        <r>  0.1291  0.0229  0.0229  0.0160  0.0000  0.0000  0.0000  0.0000  0.0000 </r>
        <r>  0.3635  0.0021  0.0021  0.0008  0.0000  0.0000  0.0000  0.0000  0.0000 </r>
       </set>
       <set comment="band 2">
        <r>  0.1696  0.0376  0.0376  0.0361  0.0000  0.0000  0.0000  0.0000  0.0000 </r>
        <r>  0.0175  0.0553  0.0553  0.0529  0.0000  0.0000  0.0000  0.0000  0.0000 </r>
       </set>
       <set comment="band 3">
        <r>  0.0501  0.0616  0.0616  0.0214  0.0000  0.0000  0.0000  0.0000  0.0000 </r>
        <r>  0.0305  0.1554  0.1554  0.0054  0.0000  0.0000  0.0000  0.0000  0.0000 </r>
       </set>
       <set comment="band 4">
        <r>  0.0011  0.0392  0.0392  0.0945  0.0000  0.0000  0.0000  0.0000  0.0000 </r>
        <r>  0.0000  0.0678  0.0678  0.2413  0.0000  0.0000  0.0000  0.0000  0.0000 </r>
       </set>
       <set comment="band 5">
        <r>  0.1241  0.0288  0.0288  0.0016  0.0000  0.0000  0.0000  0.0000  0.0000 </r>
        <r>  0.0389  0.0270  0.0270  0.0541  0.0000  0.0000  0.0000  0.0000  0.0000 </r>
       </set>
       <set comment="band 6">
        <r>  0.0657  0.0757  0.0757  0.0247  0.0000  0.0000  0.0000  0.0000  0.0000 </r>
        <r>  0.1103  0.0070  0.0070  0.0153  0.0000  0.0000  0.0000  0.0000  0.0000 </r>
       </set>
       <set comment="band 7">
        <r>  0.0224  0.0332  0.0332  0.1488  0.0000  0.0000  0.0000  0.0000  0.0000 </r>
        <r>  0.0173  0.0377  0.0377  0.0246  0.0000  0.0000  0.0000  0.0000  0.0000 </r>
       </set>
       <set comment="band 8">
        <r>  0.0383  0.0433  0.0433  0.0010  0.0000  0.0000  0.0000  0.0000  0.0000 </r>
        <r>  0.0011  0.1417  0.1417  0.0804  0.0000  0.0000  0.0000  0.0000  0.0000 </r>
       </set>
      </set>
      <set comment="kpoint 88">
       <set comment="band 1">
        <r>  0.1234  0.0247  0.0247  0.0153  0.0000  0.0000  0.0000  0.0000  0.0000 </r>
        <r>  0.3665  0.0024  0.0024  0.0007  0.0000  0.0000  0.0000  0.0000  0.0000 </r>
       </set>
       <set comment="band 2">
        <r>  0.1741  0.0371  0.0371  0.0352  0.0000  0.0000  0.0000  0.0000  0.0000 </r>
        <r>  0.0175  0.0560  0.0560  0.0525  0.0000  0.0000  0.0000  0.0000  0.0000 </r>
       </set>
       <set comment="band 3">
        <r>  0.0598  0.0582  0.0582  0.0264  0.0000  0.0000  0.0000  0.0000  0.0000 </r>
        <r>  0.0345  0.1458  0.1458  0.0070  0.0000  0.0000  0.0000  0.0000  0.0000 </r>
       </set>
       <set comment="band 4">
        <r>  0.0018  0.0431  0.0431  0.0916  0.0000  0.0000  0.0000  0.0000  0.0000 </r>
        <r>  0.0001  0.0672  0.0672  0.2304  0.0000  0.0000  0.0000  0.0000  0.0000 </r>
       </set>
       <set comment="band 5">
        <r>  0.0945  0.0290  0.0290  0.0028  0.0000  0.0000  0.0000  0.0000  0.0000 </r>
        <r>  0.0189  0.0225  0.0225  0.0786  0.0000  0.0000  0.0000  0.0000  0.0000 </r>
       </set>
       <set comment="band 6">
        <r>  0.0791  0.0694  0.0694  0.0323  0.0000  0.0000  0.0000  0.0000  0.0000 </r>
        <r>  0.1170  0.0110  0.0110  0.0092  0.0000  0.0000  0.0000  0.0000  0.0000 </r>
       </set>
       <set comment="band 7">
        <r>  0.0300  0.0302  0.0302  0.1360  0.0000  0.0000  0.0000  0.0000  0.0000 </r>
        <r>  0.0201  0.0516  0.0516  0.0250  0.0000  0.0000  0.0000  0.0000  0.0000 </r>
       </set>
       <set comment="band 8">
        <r>  0.0502  0.0434  0.0434  0.0004  0.0000  0.0000  0.0000  0.0000  0.0000 </r>
        <r>  0.0002  0.1453  0.1454  0.0773  0.0000  0.0000  0.0000  0.0000  0.0000 </r>
       </set>
      </set>
      <set comment="kpoint 89">
       <set comment="band 1">
        <r>  0.1166  0.0269  0.0269  0.0145  0.0000  0.0000  0.0000  0.0000  0.0000 </r>
        <r>  0.3702  0.0027  0.0027  0.0007  0.0000  0.0000  0.0000  0.0000  0.0000 </r>
       </set>
       <set comment="band 2">
        <r>  0.1799  0.0365  0.0365  0.0339  0.0000  0.0000  0.0000  0.0000  0.0000 </r>
        <r>  0.0176  0.0570  0.0570  0.0519  0.0000  0.0000  0.0000  0.0000  0.0000 </r>
       </set>
       <set comment="band 3">
        <r>  0.0683  0.0548  0.0548  0.0315  0.0000  0.0000  0.0000  0.0000  0.0000 </r>
        <r>  0.0371  0.1371  0.1371  0.0088  0.0000  0.0000  0.0000  0.0000  0.0000 </r>
       </set>
       <set comment="band 4">
        <r>  0.0027  0.0470  0.0470  0.0884  0.0000  0.0000  0.0000  0.0000  0.0000 </r>
        <r>  0.0001  0.0663  0.0663  0.2187  0.0000  0.0000  0.0000  0.0000  0.0000 </r>
       </set>
       <set comment="band 5">
        <r>  0.0752  0.0265  0.0265  0.0041  0.0000  0.0000  0.0000  0.0000  0.0000 </r>
        <r>  0.0094  0.0183  0.0183  0.1016  0.0000  0.0000  0.0000  0.0000  0.0000 </r>
       </set>
       <set comment="band 6">
        <r>  0.0839  0.0663  0.0663  0.0385  0.0000  0.0000  0.0000  0.0000  0.0000 </r>
        <r>  0.1153  0.0143  0.0143  0.0055  0.0000  0.0000  0.0000  0.0000  0.0000 </r>
       </set>
       <set comment="band 7">
        <r>  0.0382  0.0272  0.0272  0.1234  0.0000  0.0000  0.0000  0.0000  0.0000 </r>
        <r>  0.0200  0.0674  0.0674  0.0264  0.0000  0.0000  0.0000  0.0000  0.0000 </r>
       </set>
       <set comment="band 8">
        <r>  0.0603  0.0414  0.0414  0.0001  0.0000  0.0000  0.0000  0.0000  0.0000 </r>
        <r>  0.0000  0.1446  0.1446  0.0716  0.0000  0.0000  0.0000  0.0000  0.0000 </r>
       </set>
      </set>
      <set comment="kpoint 90">
       <set comment="band 1">
        <r>  0.1088  0.0293  0.0293  0.0136  0.0000  0.0000  0.0000  0.0000  0.0000 </r>
        <r>  0.3747  0.0030  0.0030  0.0006  0.0000  0.0000  0.0000  0.0000  0.0000 </r>
       </set>
       <set comment="band 2">
        <r>  0.1877  0.0357  0.0357  0.0323  0.0000  0.0000  0.0000  0.0000  0.0000 </r>
        <r>  0.0177  0.0581  0.0581  0.0510  0.0000  0.0000  0.0000  0.0000  0.0000 </r>
       </set>
       <set comment="band 3">
        <r>  0.0751  0.0517  0.0517  0.0368  0.0000  0.0000  0.0000  0.0000  0.0000 </r>
        <r>  0.0381  0.1292  0.1292  0.0109  0.0000  0.0000  0.0000  0.0000  0.0000 </r>
       </set>
       <set comment="band 4">
        <r>  0.0038  0.0508  0.0508  0.0852  0.0000  0.0000  0.0000  0.0000  0.0000 </r>
        <r>  0.0002  0.0651  0.0651  0.2067  0.0000  0.0000  0.0000  0.0000  0.0000 </r>
       </set>
       <set comment="band 5">
        <r>  0.0619  0.0228  0.0228  0.0051  0.0000  0.0000  0.0000  0.0000  0.0000 </r>
        <r>  0.0048  0.0149  0.0149  0.1236  0.0000  0.0000  0.0000  0.0000  0.0000 </r>
       </set>
       <set comment="band 6">
        <r>  0.0842  0.0650  0.0650  0.0432  0.0000  0.0000  0.0000  0.0000  0.0000 </r>
        <r>  0.1108  0.0168  0.0168  0.0034  0.0000  0.0000  0.0000  0.0000  0.0000 </r>
       </set>
       <set comment="band 7">
        <r>  0.0513  0.0239  0.0239  0.1101  0.0000  0.0000  0.0000  0.0000  0.0000 </r>
        <r>  0.0167  0.0862  0.0862  0.0309  0.0000  0.0000  0.0000  0.0000  0.0000 </r>
       </set>
       <set comment="band 8">
        <r>  0.0632  0.0376  0.0376  0.0001  0.0000  0.0000  0.0000  0.0000  0.0000 </r>
        <r>  0.0005  0.1383  0.1383  0.0608  0.0000  0.0000  0.0000  0.0000  0.0000 </r>
       </set>
      </set>
      <set comment="kpoint 91">
       <set comment="band 1">
        <r>  0.0998  0.0321  0.0321  0.0125  0.0000  0.0000  0.0000  0.0000  0.0000 </r>
        <r>  0.3801  0.0033  0.0033  0.0005  0.0000  0.0000  0.0000  0.0000  0.0000 </r>
       </set>
       <set comment="band 2">
        <r>  0.1981  0.0345  0.0345  0.0301  0.0000  0.0000  0.0000  0.0000  0.0000 </r>
        <r>  0.0179  0.0596  0.0596  0.0495  0.0000  0.0000  0.0000  0.0000  0.0000 </r>
       </set>
       <set comment="band 3">
        <r>  0.0799  0.0487  0.0487  0.0425  0.0000  0.0000  0.0000  0.0000  0.0000 </r>
        <r>  0.0374  0.1221  0.1221  0.0135  0.0000  0.0000  0.0000  0.0000  0.0000 </r>
       </set>
       <set comment="band 4">
        <r>  0.0049  0.0543  0.0543  0.0819  0.0000  0.0000  0.0000  0.0000  0.0000 </r>
        <r>  0.0003  0.0638  0.0638  0.1950  0.0000  0.0000  0.0000  0.0000  0.0000 </r>
       </set>
       <set comment="band 5">
        <r>  0.0517  0.0188  0.0188  0.0059  0.0000  0.0000  0.0000  0.0000  0.0000 </r>
        <r>  0.0025  0.0122  0.0122  0.1448  0.0000  0.0000  0.0000  0.0000  0.0000 </r>
       </set>
       <set comment="band 6">
        <r>  0.0828  0.0647  0.0647  0.0464  0.0000  0.0000  0.0000  0.0000  0.0000 </r>
        <r>  0.1057  0.0190  0.0190  0.0022  0.0000  0.0000  0.0000  0.0000  0.0000 </r>
       </set>
       <set comment="band 7">
        <r>  0.0860  0.0218  0.0218  0.0909  0.0000  0.0000  0.0000  0.0000  0.0000 </r>
        <r>  0.0094  0.1134  0.1134  0.0469  0.0000  0.0000  0.0000  0.0000  0.0000 </r>
       </set>
       <set comment="band 8">
        <r>  0.0421  0.0314  0.0314  0.0028  0.0000  0.0000  0.0000  0.0000  0.0000 </r>
        <r>  0.0024  0.1221  0.1221  0.0363  0.0000  0.0000  0.0000  0.0000  0.0000 </r>
       </set>
      </set>
      <set comment="kpoint 92">
       <set comment="band 1">
        <r>  0.0896  0.0351  0.0351  0.0112  0.0000  0.0000  0.0000  0.0000  0.0000 </r>
        <r>  0.3866  0.0034  0.0034  0.0004  0.0000  0.0000  0.0000  0.0000  0.0000 </r>
       </set>
       <set comment="band 2">
        <r>  0.2120  0.0328  0.0328  0.0274  0.0000  0.0000  0.0000  0.0000  0.0000 </r>
        <r>  0.0181  0.0616  0.0616  0.0473  0.0000  0.0000  0.0000  0.0000  0.0000 </r>
       </set>
       <set comment="band 3">
        <r>  0.0817  0.0461  0.0461  0.0489  0.0000  0.0000  0.0000  0.0000  0.0000 </r>
        <r>  0.0350  0.1157  0.1157  0.0168  0.0000  0.0000  0.0000  0.0000  0.0000 </r>
       </set>
       <set comment="band 4">
        <r>  0.0060  0.0575  0.0575  0.0786  0.0000  0.0000  0.0000  0.0000  0.0000 </r>
        <r>  0.0003  0.0621  0.0621  0.1838  0.0000  0.0000  0.0000  0.0000  0.0000 </r>
       </set>
       <set comment="band 5">
        <r>  0.0429  0.0151  0.0151  0.0063  0.0000  0.0000  0.0000  0.0000  0.0000 </r>
        <r>  0.0013  0.0099  0.0099  0.1654  0.0000  0.0000  0.0000  0.0000  0.0000 </r>
       </set>
       <set comment="band 6">
        <r>  0.0807  0.0649  0.0649  0.0483  0.0000  0.0000  0.0000  0.0000  0.0000 </r>
        <r>  0.1006  0.0211  0.0211  0.0015  0.0000  0.0000  0.0000  0.0000  0.0000 </r>
       </set>
       <set comment="band 7">
        <r>  0.1384  0.0243  0.0243  0.0524  0.0000  0.0000  0.0000  0.0000  0.0000 </r>
        <r>  0.0012  0.1400  0.1400  0.0686  0.0000  0.0000  0.0000  0.0000  0.0000 </r>
       </set>
       <set comment="band 8">
        <r>  0.0014  0.0208  0.0208  0.0166  0.0000  0.0000  0.0000  0.0000  0.0000 </r>
        <r>  0.0033  0.1038  0.1038  0.0041  0.0000  0.0000  0.0000  0.0000  0.0000 </r>
       </set>
      </set>
      <set comment="kpoint 93">
       <set comment="band 1">
        <r>  0.0781  0.0385  0.0385  0.0098  0.0000  0.0000  0.0000  0.0000  0.0000 </r>
        <r>  0.3944  0.0034  0.0034  0.0003  0.0000  0.0000  0.0000  0.0000  0.0000 </r>
       </set>
       <set comment="band 2">
        <r>  0.2308  0.0304  0.0304  0.0237  0.0000  0.0000  0.0000  0.0000  0.0000 </r>
        <r>  0.0183  0.0641  0.0641  0.0439  0.0000  0.0000  0.0000  0.0000  0.0000 </r>
       </set>
       <set comment="band 3">
        <r>  0.0794  0.0439  0.0439  0.0561  0.0000  0.0000  0.0000  0.0000  0.0000 </r>
        <r>  0.0307  0.1098  0.1098  0.0212  0.0000  0.0000  0.0000  0.0000  0.0000 </r>
       </set>
       <set comment="band 4">
        <r>  0.0069  0.0604  0.0604  0.0754  0.0000  0.0000  0.0000  0.0000  0.0000 </r>
        <r>  0.0004  0.0603  0.0603  0.1736  0.0000  0.0000  0.0000  0.0000  0.0000 </r>
       </set>
       <set comment="band 5">
        <r>  0.0350  0.0119  0.0119  0.0062  0.0000  0.0000  0.0000  0.0000  0.0000 </r>
        <r>  0.0007  0.0079  0.0079  0.1851  0.0000  0.0000  0.0000  0.0000  0.0000 </r>
       </set>
       <set comment="band 6">
        <r>  0.0784  0.0654  0.0654  0.0490  0.0000  0.0000  0.0000  0.0000  0.0000 </r>
        <r>  0.0958  0.0232  0.0232  0.0010  0.0000  0.0000  0.0000  0.0000  0.0000 </r>
       </set>
       <set comment="band 7">
        <r>  0.1471  0.0231  0.0231  0.0358  0.0000  0.0000  0.0000  0.0000  0.0000 </r>
        <r>  0.0000  0.1382  0.1381  0.0602  0.0000  0.0000  0.0000  0.0000  0.0000 </r>
       </set>
       <set comment="band 8">
        <r>  0.0035  0.0201  0.0199  0.0041  0.0000  0.0000  0.0000  0.0000  0.0000 </r>
        <r>  0.0000  0.1019  0.1018  0.0002  0.0000  0.0000  0.0000  0.0000  0.0000 </r>
       </set>
      </set>
      <set comment="kpoint 94">
       <set comment="band 1">
        <r>  0.0654  0.0421  0.0421  0.0082  0.0000  0.0000  0.0000  0.0000  0.0000 </r>
        <r>  0.4033  0.0032  0.0032  0.0002  0.0000  0.0000  0.0000  0.0000  0.0000 </r>
       </set>
       <set comment="band 2">
        <r>  0.2558  0.0270  0.0270  0.0191  0.0000  0.0000  0.0000  0.0000  0.0000 </r>
        <r>  0.0183  0.0674  0.0674  0.0390  0.0000  0.0000  0.0000  0.0000  0.0000 </r>
       </set>
       <set comment="band 3">
        <r>  0.0717  0.0423  0.0423  0.0645  0.0000  0.0000  0.0000  0.0000  0.0000 </r>
        <r>  0.0249  0.1042  0.1042  0.0270  0.0000  0.0000  0.0000  0.0000  0.0000 </r>
       </set>
       <set comment="band 4">
        <r>  0.0074  0.0631  0.0631  0.0723  0.0000  0.0000  0.0000  0.0000  0.0000 </r>
        <r>  0.0004  0.0582  0.0582  0.1647  0.0000  0.0000  0.0000  0.0000  0.0000 </r>
       </set>
       <set comment="band 5">
        <r>  0.0276  0.0092  0.0092  0.0057  0.0000  0.0000  0.0000  0.0000  0.0000 </r>
        <r>  0.0003  0.0062  0.0062  0.2038  0.0000  0.0000  0.0000  0.0000  0.0000 </r>
       </set>
       <set comment="band 6">
        <r>  0.0763  0.0663  0.0663  0.0487  0.0000  0.0000  0.0000  0.0000  0.0000 </r>
        <r>  0.0914  0.0255  0.0255  0.0008  0.0000  0.0000  0.0000  0.0000  0.0000 </r>
       </set>
       <set comment="band 7">
        <r>  0.1513  0.0202  0.0202  0.0340  0.0000  0.0000  0.0000  0.0000  0.0000 </r>
        <r>  0.0003  0.1326  0.1326  0.0477  0.0000  0.0000  0.0000  0.0000  0.0000 </r>
       </set>
       <set comment="band 8">
        <r>  0.0087  0.0311  0.0312  0.0040  0.0000  0.0000  0.0000  0.0000  0.0000 </r>
        <r>  0.0067  0.0833  0.0833  0.0003  0.0000  0.0000  0.0000  0.0000  0.0000 </r>
       </set>
      </set>
      <set comment="kpoint 95">
       <set comment="band 1">
        <r>  0.0517  0.0459  0.0459  0.0065  0.0000  0.0000  0.0000  0.0000  0.0000 </r>
        <r>  0.4135  0.0028  0.0028  0.0001  0.0000  0.0000  0.0000  0.0000  0.0000 </r>
       </set>
       <set comment="band 2">
        <r>  0.2879  0.0223  0.0223  0.0135  0.0000  0.0000  0.0000  0.0000  0.0000 </r>
        <r>  0.0177  0.0718  0.0718  0.0320  0.0000  0.0000  0.0000  0.0000  0.0000 </r>
       </set>
       <set comment="band 3">
        <r>  0.0577  0.0415  0.0415  0.0742  0.0000  0.0000  0.0000  0.0000  0.0000 </r>
        <r>  0.0180  0.0989  0.0989  0.0344  0.0000  0.0000  0.0000  0.0000  0.0000 </r>
       </set>
       <set comment="band 4">
        <r>  0.0074  0.0658  0.0658  0.0690  0.0000  0.0000  0.0000  0.0000  0.0000 </r>
        <r>  0.0004  0.0557  0.0557  0.1573  0.0000  0.0000  0.0000  0.0000  0.0000 </r>
       </set>
       <set comment="band 5">
        <r>  0.0206  0.0071  0.0071  0.0047  0.0000  0.0000  0.0000  0.0000  0.0000 </r>
        <r>  0.0001  0.0046  0.0046  0.2213  0.0000  0.0000  0.0000  0.0000  0.0000 </r>
       </set>
       <set comment="band 6">
        <r>  0.0746  0.0673  0.0673  0.0471  0.0000  0.0000  0.0000  0.0000  0.0000 </r>
        <r>  0.0872  0.0282  0.0282  0.0006  0.0000  0.0000  0.0000  0.0000  0.0000 </r>
       </set>
       <set comment="band 7">
        <r>  0.1563  0.0175  0.0175  0.0357  0.0000  0.0000  0.0000  0.0000  0.0000 </r>
        <r>  0.0009  0.1280  0.1280  0.0356  0.0000  0.0000  0.0000  0.0000  0.0000 </r>
       </set>
       <set comment="band 8">
        <r>  0.0116  0.0417  0.0417  0.0243  0.0000  0.0000  0.0000  0.0000  0.0000 </r>
        <r>  0.0178  0.0630  0.0630  0.0005  0.0000  0.0000  0.0000  0.0000  0.0000 </r>
       </set>
      </set>
      <set comment="kpoint 96">
       <set comment="band 1">
        <r>  0.0374  0.0497  0.0497  0.0047  0.0000  0.0000  0.0000  0.0000  0.0000 </r>
        <r>  0.4246  0.0023  0.0023  0.0001  0.0000  0.0000  0.0000  0.0000  0.0000 </r>
       </set>
       <set comment="band 2">
        <r>  0.3252  0.0165  0.0165  0.0078  0.0000  0.0000  0.0000  0.0000  0.0000 </r>
        <r>  0.0158  0.0772  0.0772  0.0232  0.0000  0.0000  0.0000  0.0000  0.0000 </r>
       </set>
       <set comment="band 3">
        <r>  0.0388  0.0413  0.0413  0.0846  0.0000  0.0000  0.0000  0.0000  0.0000 </r>
        <r>  0.0110  0.0941  0.0941  0.0429  0.0000  0.0000  0.0000  0.0000  0.0000 </r>
       </set>
       <set comment="band 4">
        <r>  0.0068  0.0689  0.0689  0.0654  0.0000  0.0000  0.0000  0.0000  0.0000 </r>
        <r>  0.0004  0.0526  0.0526  0.1520  0.0000  0.0000  0.0000  0.0000  0.0000 </r>
       </set>
       <set comment="band 5">
        <r>  0.0141  0.0056  0.0056  0.0035  0.0000  0.0000  0.0000  0.0000  0.0000 </r>
        <r>  0.0001  0.0031  0.0031  0.2370  0.0000  0.0000  0.0000  0.0000  0.0000 </r>
       </set>
       <set comment="band 6">
        <r>  0.0738  0.0686  0.0686  0.0442  0.0000  0.0000  0.0000  0.0000  0.0000 </r>
        <r>  0.0832  0.0313  0.0313  0.0004  0.0000  0.0000  0.0000  0.0000  0.0000 </r>
       </set>
       <set comment="band 7">
        <r>  0.1613  0.0157  0.0157  0.0380  0.0000  0.0000  0.0000  0.0000  0.0000 </r>
        <r>  0.0020  0.1242  0.1242  0.0243  0.0000  0.0000  0.0000  0.0000  0.0000 </r>
       </set>
       <set comment="band 8">
        <r>  0.0133  0.0469  0.0469  0.0443  0.0000  0.0000  0.0000  0.0000  0.0000 </r>
        <r>  0.0262  0.0499  0.0499  0.0005  0.0000  0.0000  0.0000  0.0000  0.0000 </r>
       </set>
      </set>
      <set comment="kpoint 97">
       <set comment="band 1">
        <r>  0.0235  0.0534  0.0534  0.0029  0.0000  0.0000  0.0000  0.0000  0.0000 </r>
        <r>  0.4358  0.0015  0.0015  0.0000  0.0000  0.0000  0.0000  0.0000  0.0000 </r>
       </set>
       <set comment="band 2">
        <r>  0.3622  0.0103  0.0103  0.0032  0.0000  0.0000  0.0000  0.0000  0.0000 </r>
        <r>  0.0119  0.0829  0.0829  0.0139  0.0000  0.0000  0.0000  0.0000  0.0000 </r>
       </set>
       <set comment="band 3">
        <r>  0.0198  0.0405  0.0405  0.0953  0.0000  0.0000  0.0000  0.0000  0.0000 </r>
        <r>  0.0054  0.0909  0.0909  0.0501  0.0000  0.0000  0.0000  0.0000  0.0000 </r>
       </set>
       <set comment="band 4">
        <r>  0.0056  0.0728  0.0728  0.0604  0.0000  0.0000  0.0000  0.0000  0.0000 </r>
        <r>  0.0003  0.0484  0.0484  0.1496  0.0000  0.0000  0.0000  0.0000  0.0000 </r>
       </set>
       <set comment="band 5">
        <r>  0.0084  0.0044  0.0044  0.0023  0.0000  0.0000  0.0000  0.0000  0.0000 </r>
        <r>  0.0000  0.0019  0.0019  0.2504  0.0000  0.0000  0.0000  0.0000  0.0000 </r>
       </set>
       <set comment="band 6">
        <r>  0.0747  0.0702  0.0702  0.0392  0.0000  0.0000  0.0000  0.0000  0.0000 </r>
        <r>  0.0795  0.0356  0.0356  0.0004  0.0000  0.0000  0.0000  0.0000  0.0000 </r>
       </set>
       <set comment="band 7">
        <r>  0.1654  0.0156  0.0156  0.0392  0.0000  0.0000  0.0000  0.0000  0.0000 </r>
        <r>  0.0040  0.1209  0.1209  0.0143  0.0000  0.0000  0.0000  0.0000  0.0000 </r>
       </set>
       <set comment="band 8">
        <r>  0.0136  0.0475  0.0475  0.0618  0.0000  0.0000  0.0000  0.0000  0.0000 </r>
        <r>  0.0313  0.0411  0.0411  0.0005  0.0000  0.0000  0.0000  0.0000  0.0000 </r>
       </set>
      </set>
      <set comment="kpoint 98">
       <set comment="band 1">
        <r>  0.0114  0.0566  0.0566  0.0014  0.0000  0.0000  0.0000  0.0000  0.0000 </r>
        <r>  0.4458  0.0008  0.0008  0.0000  0.0000  0.0000  0.0000  0.0000  0.0000 </r>
       </set>
       <set comment="band 2">
        <r>  0.3914  0.0049  0.0049  0.0007  0.0000  0.0000  0.0000  0.0000  0.0000 </r>
        <r>  0.0066  0.0878  0.0878  0.0062  0.0000  0.0000  0.0000  0.0000  0.0000 </r>
       </set>
       <set comment="band 3">
        <r>  0.0066  0.0366  0.0366  0.1071  0.0000  0.0000  0.0000  0.0000  0.0000 </r>
        <r>  0.0020  0.0920  0.0920  0.0514  0.0000  0.0000  0.0000  0.0000  0.0000 </r>
       </set>
       <set comment="band 4">
        <r>  0.0037  0.0794  0.0794  0.0521  0.0000  0.0000  0.0000  0.0000  0.0000 </r>
        <r>  0.0002  0.0414  0.0414  0.1529  0.0000  0.0000  0.0000  0.0000  0.0000 </r>
       </set>
       <set comment="band 5">
        <r>  0.0039  0.0037  0.0037  0.0011  0.0000  0.0000  0.0000  0.0000  0.0000 </r>
        <r>  0.0000  0.0009  0.0009  0.2608  0.0000  0.0000  0.0000  0.0000  0.0000 </r>
       </set>
       <set comment="band 6">
        <r>  0.0798  0.0721  0.0721  0.0307  0.0000  0.0000  0.0000  0.0000  0.0000 </r>
        <r>  0.0760  0.0421  0.0421  0.0003  0.0000  0.0000  0.0000  0.0000  0.0000 </r>
       </set>
       <set comment="band 7">
        <r>  0.1670  0.0191  0.0191  0.0368  0.0000  0.0000  0.0000  0.0000  0.0000 </r>
        <r>  0.0089  0.1169  0.1168  0.0064  0.0000  0.0000  0.0000  0.0000  0.0000 </r>
       </set>
       <set comment="band 8">
        <r>  0.0113  0.0430  0.0430  0.0817  0.0000  0.0000  0.0000  0.0000  0.0000 </r>
        <r>  0.0319  0.0342  0.0342  0.0004  0.0000  0.0000  0.0000  0.0000  0.0000 </r>
       </set>
      </set>
      <set comment="kpoint 99">
       <set comment="band 1">
        <r>  0.0030  0.0587  0.0587  0.0004  0.0000  0.0000  0.0000  0.0000  0.0000 </r>
        <r>  0.4530  0.0002  0.0002  0.0000  0.0000  0.0000  0.0000  0.0000  0.0000 </r>
       </set>
       <set comment="band 2">
        <r>  0.4090  0.0012  0.0012  0.0000  0.0000  0.0000  0.0000  0.0000  0.0000 </r>
        <r>  0.0019  0.0909  0.0909  0.0015  0.0000  0.0000  0.0000  0.0000  0.0000 </r>
       </set>
       <set comment="band 3">
        <r>  0.0008  0.0238  0.0238  0.1278  0.0000  0.0000  0.0000  0.0000  0.0000 </r>
        <r>  0.0004  0.1039  0.1039  0.0364  0.0000  0.0000  0.0000  0.0000  0.0000 </r>
       </set>
       <set comment="band 4">
        <r>  0.0015  0.0939  0.0939  0.0329  0.0000  0.0000  0.0000  0.0000  0.0000 </r>
        <r>  0.0000  0.0260  0.0260  0.1708  0.0000  0.0000  0.0000  0.0000  0.0000 </r>
       </set>
       <set comment="band 5">
        <r>  0.0010  0.0033  0.0033  0.0003  0.0000  0.0000  0.0000  0.0000  0.0000 </r>
        <r>  0.0000  0.0002  0.0002  0.2674  0.0000  0.0000  0.0000  0.0000  0.0000 </r>
       </set>
       <set comment="band 6">
        <r>  0.0980  0.0725  0.0725  0.0156  0.0000  0.0000  0.0000  0.0000  0.0000 </r>
        <r>  0.0707  0.0560  0.0560  0.0002  0.0000  0.0000  0.0000  0.0000  0.0000 </r>
       </set>
       <set comment="band 7">
        <r>  0.1587  0.0355  0.0355  0.0233  0.0000  0.0000  0.0000  0.0000  0.0000 </r>
        <r>  0.0255  0.1058  0.1058  0.0014  0.0000  0.0000  0.0000  0.0000  0.0000 </r>
       </set>
       <set comment="band 8">
        <r>  0.0042  0.0266  0.0266  0.1156  0.0000  0.0000  0.0000  0.0000  0.0000 </r>
        <r>  0.0217  0.0290  0.0290  0.0003  0.0000  0.0000  0.0000  0.0000  0.0000 </r>
       </set>
      </set>
      <set comment="kpoint 100">
       <set comment="band 1">
        <r>  0.0000  0.0595  0.0595  0.0000  0.0000  0.0000  0.0000  0.0000  0.0000 </r>
        <r>  0.4556  0.0000  0.0000  0.0000  0.0000  0.0000  0.0000  0.0000  0.0000 </r>
       </set>
       <set comment="band 2">
        <r>  0.4148  0.0000  0.0000  0.0000  0.0000  0.0000  0.0000  0.0000  0.0000 </r>
        <r>  0.0000  0.0920  0.0920  0.0000  0.0000  0.0000  0.0000  0.0000  0.0000 </r>
       </set>
       <set comment="band 3">
        <r>  0.0000  0.0000  0.0000  0.1610  0.0000  0.0000  0.0000  0.0000  0.0000 </r>
        <r>  0.0000  0.1287  0.1287  0.0000  0.0000  0.0000  0.0000  0.0000  0.0000 </r>
       </set>
       <set comment="band 4">
        <r>  0.0000  0.1183  0.1183  0.0000  0.0000  0.0000  0.0000  0.0000  0.0000 </r>
        <r>  0.0000  0.0000  0.0000  0.2081  0.0000  0.0000  0.0000  0.0000  0.0000 </r>
       </set>
       <set comment="band 5">
        <r>  0.0000  0.0032  0.0032  0.0000  0.0000  0.0000  0.0000  0.0000  0.0000 </r>
        <r>  0.0000  0.0000  0.0000  0.2696  0.0000  0.0000  0.0000  0.0000  0.0000 </r>
       </set>
       <set comment="band 6">
        <r>  0.2619  0.0000  0.0000  0.0000  0.0000  0.0000  0.0000  0.0000  0.0000 </r>
        <r>  0.0000  0.1595  0.1595  0.0000  0.0000  0.0000  0.0000  0.0000  0.0000 </r>
       </set>
       <set comment="band 7">
        <r>  0.0000  0.1346  0.1346  0.0000  0.0000  0.0000  0.0000  0.0000  0.0000 </r>
        <r>  0.1182  0.0000  0.0000  0.0000  0.0000  0.0000  0.0000  0.0000  0.0000 </r>
       </set>
       <set comment="band 8">
        <r>  0.0000  0.0000  0.0000  0.1561  0.0000  0.0000  0.0000  0.0000  0.0000 </r>
        <r>  0.0000  0.0305  0.0305  0.0000  0.0000  0.0000  0.0000  0.0000  0.0000 </r>
       </set>
      </set>
      <set comment="kpoint 101">
       <set comment="band 1">
        <r>  0.0000  0.0595  0.0595  0.0000  0.0000  0.0000  0.0000  0.0000  0.0000 </r>
        <r>  0.4556  0.0000  0.0000  0.0000  0.0000  0.0000  0.0000  0.0000  0.0000 </r>
       </set>
       <set comment="band 2">
        <r>  0.4148  0.0000  0.0000  0.0000  0.0000  0.0000  0.0000  0.0000  0.0000 </r>
        <r>  0.0000  0.0920  0.0920  0.0000  0.0000  0.0000  0.0000  0.0000  0.0000 </r>
       </set>
       <set comment="band 3">
        <r>  0.0000  0.0000  0.0000  0.1610  0.0000  0.0000  0.0000  0.0000  0.0000 </r>
        <r>  0.0000  0.1287  0.1287  0.0000  0.0000  0.0000  0.0000  0.0000  0.0000 </r>
       </set>
       <set comment="band 4">
        <r>  0.0000  0.1183  0.1183  0.0000  0.0000  0.0000  0.0000  0.0000  0.0000 </r>
        <r>  0.0000  0.0000  0.0000  0.2081  0.0000  0.0000  0.0000  0.0000  0.0000 </r>
       </set>
       <set comment="band 5">
        <r>  0.0000  0.0032  0.0032  0.0000  0.0000  0.0000  0.0000  0.0000  0.0000 </r>
        <r>  0.0000  0.0000  0.0000  0.2696  0.0000  0.0000  0.0000  0.0000  0.0000 </r>
       </set>
       <set comment="band 6">
        <r>  0.2619  0.0000  0.0000  0.0000  0.0000  0.0000  0.0000  0.0000  0.0000 </r>
        <r>  0.0000  0.1595  0.1595  0.0000  0.0000  0.0000  0.0000  0.0000  0.0000 </r>
       </set>
       <set comment="band 7">
        <r>  0.0000  0.1346  0.1346  0.0000  0.0000  0.0000  0.0000  0.0000  0.0000 </r>
        <r>  0.1182  0.0000  0.0000  0.0000  0.0000  0.0000  0.0000  0.0000  0.0000 </r>
       </set>
       <set comment="band 8">
        <r>  0.0000  0.0000  0.0000  0.1561  0.0000  0.0000  0.0000  0.0000  0.0000 </r>
        <r>  0.0000  0.0305  0.0305  0.0000  0.0000  0.0000  0.0000  0.0000  0.0000 </r>
       </set>
      </set>
      <set comment="kpoint 102">
       <set comment="band 1">
        <r>  0.0000  0.0658  0.0533  0.0000  0.0000  0.0000  0.0000  0.0000  0.0000 </r>
        <r>  0.4554  0.0000  0.0000  0.0000  0.0000  0.0000  0.0000  0.0000  0.0000 </r>
       </set>
       <set comment="band 2">
        <r>  0.4133  0.0000  0.0000  0.0002  0.0000  0.0000  0.0000  0.0000  0.0000 </r>
        <r>  0.0000  0.1078  0.0762  0.0000  0.0000  0.0000  0.0000  0.0000  0.0000 </r>
       </set>
       <set comment="band 3">
        <r>  0.0012  0.0000  0.0000  0.1611  0.0000  0.0000  0.0000  0.0000  0.0000 </r>
        <r>  0.0000  0.1095  0.1481  0.0000  0.0000  0.0000  0.0000  0.0000  0.0000 </r>
       </set>
       <set comment="band 4">
        <r>  0.0000  0.1106  0.1258  0.0000  0.0000  0.0000  0.0000  0.0000  0.0000 </r>
        <r>  0.0001  0.0000  0.0000  0.2084  0.0000  0.0000  0.0000  0.0000  0.0000 </r>
       </set>
       <set comment="band 5">
        <r>  0.0000  0.0089  0.0003  0.0000  0.0000  0.0000  0.0000  0.0000  0.0000 </r>
        <r>  0.0019  0.0000  0.0000  0.2648  0.0000  0.0000  0.0000  0.0000  0.0000 </r>
       </set>
       <set comment="band 6">
        <r>  0.1934  0.0000  0.0000  0.0428  0.0000  0.0000  0.0000  0.0000  0.0000 </r>
        <r>  0.0000  0.0622  0.1721  0.0000  0.0000  0.0000  0.0000  0.0000  0.0000 </r>
       </set>
       <set comment="band 7">
        <r>  0.0000  0.1256  0.1409  0.0000  0.0000  0.0000  0.0000  0.0000  0.0000 </r>
        <r>  0.1162  0.0000  0.0000  0.0050  0.0000  0.0000  0.0000  0.0000  0.0000 </r>
       </set>
       <set comment="band 8">
        <r>  0.0688  0.0000  0.0000  0.1127  0.0000  0.0000  0.0000  0.0000  0.0000 </r>
        <r>  0.0000  0.1423  0.0046  0.0000  0.0000  0.0000  0.0000  0.0000  0.0000 </r>
       </set>
      </set>
      <set comment="kpoint 103">
       <set comment="band 1">
        <r>  0.0000  0.0722  0.0473  0.0000  0.0000  0.0000  0.0000  0.0000  0.0000 </r>
        <r>  0.4547  0.0000  0.0000  0.0000  0.0000  0.0000  0.0000  0.0000  0.0000 </r>
       </set>
       <set comment="band 2">
        <r>  0.4091  0.0000  0.0000  0.0007  0.0000  0.0000  0.0000  0.0000  0.0000 </r>
        <r>  0.0000  0.1226  0.0616  0.0000  0.0000  0.0000  0.0000  0.0000  0.0000 </r>
       </set>
       <set comment="band 3">
        <r>  0.0045  0.0000  0.0000  0.1614  0.0000  0.0000  0.0000  0.0000  0.0000 </r>
        <r>  0.0000  0.0914  0.1666  0.0000  0.0000  0.0000  0.0000  0.0000  0.0000 </r>
       </set>
       <set comment="band 4">
        <r>  0.0000  0.1028  0.1332  0.0000  0.0000  0.0000  0.0000  0.0000  0.0000 </r>
        <r>  0.0005  0.0000  0.0000  0.2095  0.0000  0.0000  0.0000  0.0000  0.0000 </r>
       </set>
       <set comment="band 5">
        <r>  0.0000  0.0165  0.0003  0.0000  0.0000  0.0000  0.0000  0.0000  0.0000 </r>
        <r>  0.0070  0.0000  0.0000  0.2519  0.0000  0.0000  0.0000  0.0000  0.0000 </r>
       </set>
       <set comment="band 6">
        <r>  0.1731  0.0000  0.0000  0.0567  0.0000  0.0000  0.0000  0.0000  0.0000 </r>
        <r>  0.0000  0.0438  0.1512  0.0000  0.0000  0.0000  0.0000  0.0000  0.0000 </r>
       </set>
       <set comment="band 7">
        <r>  0.0000  0.1148  0.1445  0.0000  0.0000  0.0000  0.0000  0.0000  0.0000 </r>
        <r>  0.1108  0.0000  0.0000  0.0186  0.0000  0.0000  0.0000  0.0000  0.0000 </r>
       </set>
       <set comment="band 8">
        <r>  0.0901  0.0000  0.0000  0.0967  0.0000  0.0000  0.0000  0.0000  0.0000 </r>
        <r>  0.0000  0.1765  0.0133  0.0000  0.0000  0.0000  0.0000  0.0000  0.0000 </r>
       </set>
      </set>
      <set comment="kpoint 104">
       <set comment="band 1">
        <r>  0.0000  0.0785  0.0415  0.0000  0.0000  0.0000  0.0000  0.0000  0.0000 </r>
        <r>  0.4537  0.0000  0.0000  0.0000  0.0000  0.0000  0.0000  0.0000  0.0000 </r>
       </set>
       <set comment="band 2">
        <r>  0.4031  0.0000  0.0000  0.0015  0.0000  0.0000  0.0000  0.0000  0.0000 </r>
        <r>  0.0000  0.1357  0.0488  0.0000  0.0000  0.0000  0.0000  0.0000  0.0000 </r>
       </set>
       <set comment="band 3">
        <r>  0.0091  0.0000  0.0000  0.1620  0.0000  0.0000  0.0000  0.0000  0.0000 </r>
        <r>  0.0000  0.0754  0.1836  0.0000  0.0000  0.0000  0.0000  0.0000  0.0000 </r>
       </set>
       <set comment="band 4">
        <r>  0.0000  0.0950  0.1404  0.0000  0.0000  0.0000  0.0000  0.0000  0.0000 </r>
        <r>  0.0011  0.0000  0.0000  0.2112  0.0000  0.0000  0.0000  0.0000  0.0000 </r>
       </set>
       <set comment="band 5">
        <r>  0.0000  0.0246  0.0023  0.0000  0.0000  0.0000  0.0000  0.0000  0.0000 </r>
        <r>  0.0140  0.0000  0.0000  0.2340  0.0000  0.0000  0.0000  0.0000  0.0000 </r>
       </set>
       <set comment="band 6">
        <r>  0.1694  0.0000  0.0000  0.0603  0.0000  0.0000  0.0000  0.0000  0.0000 </r>
        <r>  0.0000  0.0376  0.1353  0.0000  0.0000  0.0000  0.0000  0.0000  0.0000 </r>
       </set>
       <set comment="band 7">
        <r>  0.0000  0.1036  0.1463  0.0000  0.0000  0.0000  0.0000  0.0000  0.0000 </r>
        <r>  0.1033  0.0000  0.0000  0.0376  0.0000  0.0000  0.0000  0.0000  0.0000 </r>
       </set>
       <set comment="band 8">
        <r>  0.0954  0.0000  0.0000  0.0898  0.0000  0.0000  0.0000  0.0000  0.0000 </r>
        <r>  0.0000  0.2001  0.0177  0.0000  0.0000  0.0000  0.0000  0.0000  0.0000 </r>
       </set>
      </set>
      <set comment="kpoint 105">
       <set comment="band 1">
        <r>  0.0000  0.0846  0.0361  0.0000  0.0000  0.0000  0.0000  0.0000  0.0000 </r>
        <r>  0.4523  0.0000  0.0000  0.0000  0.0000  0.0000  0.0000  0.0000  0.0000 </r>
       </set>
       <set comment="band 2">
        <r>  0.3961  0.0000  0.0000  0.0022  0.0000  0.0000  0.0000  0.0000  0.0000 </r>
        <r>  0.0000  0.1467  0.0381  0.0000  0.0000  0.0000  0.0000  0.0000  0.0000 </r>
       </set>
       <set comment="band 3">
        <r>  0.0141  0.0000  0.0000  0.1632  0.0000  0.0000  0.0000  0.0000  0.0000 </r>
        <r>  0.0000  0.0616  0.1988  0.0000  0.0000  0.0000  0.0000  0.0000  0.0000 </r>
       </set>
       <set comment="band 4">
        <r>  0.0000  0.0872  0.1473  0.0000  0.0000  0.0000  0.0000  0.0000  0.0000 </r>
        <r>  0.0019  0.0000  0.0000  0.2137  0.0000  0.0000  0.0000  0.0000  0.0000 </r>
       </set>
       <set comment="band 5">
        <r>  0.0000  0.0325  0.0053  0.0000  0.0000  0.0000  0.0000  0.0000  0.0000 </r>
        <r>  0.0217  0.0000  0.0000  0.2139  0.0000  0.0000  0.0000  0.0000  0.0000 </r>
       </set>
       <set comment="band 6">
        <r>  0.1707  0.0000  0.0000  0.0605  0.0000  0.0000  0.0000  0.0000  0.0000 </r>
        <r>  0.0000  0.0347  0.1218  0.0000  0.0000  0.0000  0.0000  0.0000  0.0000 </r>
       </set>
       <set comment="band 7">
        <r>  0.0000  0.0927  0.1472  0.0000  0.0000  0.0000  0.0000  0.0000  0.0000 </r>
        <r>  0.0948  0.0000  0.0000  0.0591  0.0000  0.0000  0.0000  0.0000  0.0000 </r>
       </set>
       <set comment="band 8">
        <r>  0.0963  0.0000  0.0000  0.0851  0.0000  0.0000  0.0000  0.0000  0.0000 </r>
        <r>  0.0000  0.2222  0.0203  0.0000  0.0000  0.0000  0.0000  0.0000  0.0000 </r>
       </set>
      </set>
      <set comment="kpoint 106">
       <set comment="band 1">
        <r>  0.0000  0.0905  0.0310  0.0000  0.0000  0.0000  0.0000  0.0000  0.0000 </r>
        <r>  0.4507  0.0000  0.0000  0.0001  0.0000  0.0000  0.0000  0.0000  0.0000 </r>
       </set>
       <set comment="band 2">
        <r>  0.3889  0.0000  0.0000  0.0028  0.0000  0.0000  0.0000  0.0000  0.0000 </r>
        <r>  0.0000  0.1555  0.0295  0.0000  0.0000  0.0000  0.0000  0.0000  0.0000 </r>
       </set>
       <set comment="band 3">
        <r>  0.0187  0.0000  0.0000  0.1651  0.0000  0.0000  0.0000  0.0000  0.0000 </r>
        <r>  0.0000  0.0501  0.2122  0.0000  0.0000  0.0000  0.0000  0.0000  0.0000 </r>
       </set>
       <set comment="band 4">
        <r>  0.0000  0.0795  0.1539  0.0000  0.0000  0.0000  0.0000  0.0000  0.0000 </r>
        <r>  0.0027  0.0000  0.0000  0.2169  0.0000  0.0000  0.0000  0.0000  0.0000 </r>
       </set>
       <set comment="band 5">
        <r>  0.0000  0.0396  0.0084  0.0000  0.0000  0.0000  0.0000  0.0000  0.0000 </r>
        <r>  0.0293  0.0000  0.0000  0.1937  0.0000  0.0000  0.0000  0.0000  0.0000 </r>
       </set>
       <set comment="band 6">
        <r>  0.1744  0.0000  0.0000  0.0589  0.0000  0.0000  0.0000  0.0000  0.0000 </r>
        <r>  0.0000  0.0331  0.1097  0.0000  0.0000  0.0000  0.0000  0.0000  0.0000 </r>
       </set>
       <set comment="band 7">
        <r>  0.0000  0.0826  0.1482  0.0000  0.0000  0.0000  0.0000  0.0000  0.0000 </r>
        <r>  0.0861  0.0000  0.0000  0.0812  0.0000  0.0000  0.0000  0.0000  0.0000 </r>
       </set>
       <set comment="band 8">
        <r>  0.0955  0.0000  0.0000  0.0806  0.0000  0.0000  0.0000  0.0000  0.0000 </r>
        <r>  0.0000  0.2450  0.0221  0.0000  0.0000  0.0000  0.0000  0.0000  0.0000 </r>
       </set>
      </set>
      <set comment="kpoint 107">
       <set comment="band 1">
        <r>  0.0000  0.0962  0.0263  0.0000  0.0000  0.0000  0.0000  0.0000  0.0000 </r>
        <r>  0.4489  0.0000  0.0000  0.0001  0.0000  0.0000  0.0000  0.0000  0.0000 </r>
       </set>
       <set comment="band 2">
        <r>  0.3821  0.0000  0.0000  0.0032  0.0000  0.0000  0.0000  0.0000  0.0000 </r>
        <r>  0.0000  0.1625  0.0227  0.0000  0.0000  0.0000  0.0000  0.0000  0.0000 </r>
       </set>
       <set comment="band 3">
        <r>  0.0224  0.0000  0.0000  0.1676  0.0000  0.0000  0.0000  0.0000  0.0000 </r>
        <r>  0.0000  0.0407  0.2242  0.0000  0.0000  0.0000  0.0000  0.0000  0.0000 </r>
       </set>
       <set comment="band 4">
        <r>  0.0000  0.0719  0.1603  0.0000  0.0000  0.0000  0.0000  0.0000  0.0000 </r>
        <r>  0.0036  0.0000  0.0000  0.2209  0.0000  0.0000  0.0000  0.0000  0.0000 </r>
       </set>
       <set comment="band 5">
        <r>  0.0000  0.0460  0.0113  0.0000  0.0000  0.0000  0.0000  0.0000  0.0000 </r>
        <r>  0.0366  0.0000  0.0000  0.1740  0.0000  0.0000  0.0000  0.0000  0.0000 </r>
       </set>
       <set comment="band 6">
        <r>  0.1793  0.0000  0.0000  0.0562  0.0000  0.0000  0.0000  0.0000  0.0000 </r>
        <r>  0.0000  0.0321  0.0983  0.0000  0.0000  0.0000  0.0000  0.0000  0.0000 </r>
       </set>
       <set comment="band 7">
        <r>  0.0000  0.0734  0.1496  0.0000  0.0000  0.0000  0.0000  0.0000  0.0000 </r>
        <r>  0.0776  0.0000  0.0000  0.1031  0.0000  0.0000  0.0000  0.0000  0.0000 </r>
       </set>
       <set comment="band 8">
        <r>  0.0939  0.0000  0.0000  0.0763  0.0000  0.0000  0.0000  0.0000  0.0000 </r>
        <r>  0.0000  0.2687  0.0237  0.0000  0.0000  0.0000  0.0000  0.0000  0.0000 </r>
       </set>
      </set>
      <set comment="kpoint 108">
       <set comment="band 1">
        <r>  0.0000  0.1015  0.0221  0.0000  0.0000  0.0000  0.0000  0.0000  0.0000 </r>
        <r>  0.4469  0.0000  0.0000  0.0001  0.0000  0.0000  0.0000  0.0000  0.0000 </r>
       </set>
       <set comment="band 2">
        <r>  0.3759  0.0000  0.0000  0.0033  0.0000  0.0000  0.0000  0.0000  0.0000 </r>
        <r>  0.0000  0.1679  0.0173  0.0000  0.0000  0.0000  0.0000  0.0000  0.0000 </r>
       </set>
       <set comment="band 3">
        <r>  0.0249  0.0000  0.0000  0.1709  0.0000  0.0000  0.0000  0.0000  0.0000 </r>
        <r>  0.0000  0.0329  0.2350  0.0000  0.0000  0.0000  0.0000  0.0000  0.0000 </r>
       </set>
       <set comment="band 4">
        <r>  0.0000  0.0644  0.1665  0.0000  0.0000  0.0000  0.0000  0.0000  0.0000 </r>
        <r>  0.0045  0.0000  0.0000  0.2257  0.0000  0.0000  0.0000  0.0000  0.0000 </r>
       </set>
       <set comment="band 5">
        <r>  0.0000  0.0518  0.0136  0.0000  0.0000  0.0000  0.0000  0.0000  0.0000 </r>
        <r>  0.0433  0.0000  0.0000  0.1553  0.0000  0.0000  0.0000  0.0000  0.0000 </r>
       </set>
       <set comment="band 6">
        <r>  0.1852  0.0000  0.0000  0.0526  0.0000  0.0000  0.0000  0.0000  0.0000 </r>
        <r>  0.0000  0.0316  0.0875  0.0000  0.0000  0.0000  0.0000  0.0000  0.0000 </r>
       </set>
       <set comment="band 7">
        <r>  0.0000  0.0648  0.1518  0.0000  0.0000  0.0000  0.0000  0.0000  0.0000 </r>
        <r>  0.0693  0.0000  0.0000  0.1245  0.0000  0.0000  0.0000  0.0000  0.0000 </r>
       </set>
       <set comment="band 8">
        <r>  0.0921  0.0000  0.0000  0.0714  0.0000  0.0000  0.0000  0.0000  0.0000 </r>
        <r>  0.0000  0.2942  0.0249  0.0000  0.0000  0.0000  0.0000  0.0000  0.0000 </r>
       </set>
      </set>
      <set comment="kpoint 109">
       <set comment="band 1">
        <r>  0.0000  0.1064  0.0182  0.0000  0.0000  0.0000  0.0000  0.0000  0.0000 </r>
        <r>  0.4448  0.0000  0.0000  0.0001  0.0000  0.0000  0.0000  0.0000  0.0000 </r>
       </set>
       <set comment="band 2">
        <r>  0.3706  0.0000  0.0000  0.0033  0.0000  0.0000  0.0000  0.0000  0.0000 </r>
        <r>  0.0000  0.1720  0.0132  0.0000  0.0000  0.0000  0.0000  0.0000  0.0000 </r>
       </set>
       <set comment="band 3">
        <r>  0.0261  0.0000  0.0000  0.1749  0.0000  0.0000  0.0000  0.0000  0.0000 </r>
        <r>  0.0000  0.0265  0.2450  0.0000  0.0000  0.0000  0.0000  0.0000  0.0000 </r>
       </set>
       <set comment="band 4">
        <r>  0.0000  0.0571  0.1725  0.0000  0.0000  0.0000  0.0000  0.0000  0.0000 </r>
        <r>  0.0052  0.0000  0.0000  0.2314  0.0000  0.0000  0.0000  0.0000  0.0000 </r>
       </set>
       <set comment="band 5">
        <r>  0.0000  0.0571  0.0152  0.0000  0.0000  0.0000  0.0000  0.0000  0.0000 </r>
        <r>  0.0496  0.0000  0.0000  0.1375  0.0000  0.0000  0.0000  0.0000  0.0000 </r>
       </set>
       <set comment="band 6">
        <r>  0.1916  0.0000  0.0000  0.0483  0.0000  0.0000  0.0000  0.0000  0.0000 </r>
        <r>  0.0000  0.0314  0.0771  0.0000  0.0000  0.0000  0.0000  0.0000  0.0000 </r>
       </set>
       <set comment="band 7">
        <r>  0.0000  0.0568  0.1549  0.0000  0.0000  0.0000  0.0000  0.0000  0.0000 </r>
        <r>  0.0613  0.0000  0.0000  0.1454  0.0000  0.0000  0.0000  0.0000  0.0000 </r>
       </set>
       <set comment="band 8">
        <r>  0.0902  0.0000  0.0000  0.0663  0.0000  0.0000  0.0000  0.0000  0.0000 </r>
        <r>  0.0000  0.3209  0.0259  0.0000  0.0000  0.0000  0.0000  0.0000  0.0000 </r>
       </set>
      </set>
      <set comment="kpoint 110">
       <set comment="band 1">
        <r>  0.0000  0.1110  0.0148  0.0000  0.0000  0.0000  0.0000  0.0000  0.0000 </r>
        <r>  0.4428  0.0000  0.0000  0.0001  0.0000  0.0000  0.0000  0.0000  0.0000 </r>
       </set>
       <set comment="band 2">
        <r>  0.3660  0.0000  0.0000  0.0031  0.0000  0.0000  0.0000  0.0000  0.0000 </r>
        <r>  0.0000  0.1752  0.0099  0.0000  0.0000  0.0000  0.0000  0.0000  0.0000 </r>
       </set>
       <set comment="band 3">
        <r>  0.0260  0.0000  0.0000  0.1796  0.0000  0.0000  0.0000  0.0000  0.0000 </r>
        <r>  0.0000  0.0213  0.2543  0.0000  0.0000  0.0000  0.0000  0.0000  0.0000 </r>
       </set>
       <set comment="band 4">
        <r>  0.0000  0.0500  0.1783  0.0000  0.0000  0.0000  0.0000  0.0000  0.0000 </r>
        <r>  0.0058  0.0000  0.0000  0.2379  0.0000  0.0000  0.0000  0.0000  0.0000 </r>
       </set>
       <set comment="band 5">
        <r>  0.0000  0.0621  0.0161  0.0000  0.0000  0.0000  0.0000  0.0000  0.0000 </r>
        <r>  0.0554  0.0000  0.0000  0.1204  0.0000  0.0000  0.0000  0.0000  0.0000 </r>
       </set>
       <set comment="band 6">
        <r>  0.1985  0.0000  0.0000  0.0435  0.0000  0.0000  0.0000  0.0000  0.0000 </r>
        <r>  0.0000  0.0314  0.0670  0.0000  0.0000  0.0000  0.0000  0.0000  0.0000 </r>
       </set>
       <set comment="band 7">
        <r>  0.0000  0.0493  0.1589  0.0000  0.0000  0.0000  0.0000  0.0000  0.0000 </r>
        <r>  0.0535  0.0000  0.0000  0.1659  0.0000  0.0000  0.0000  0.0000  0.0000 </r>
       </set>
       <set comment="band 8">
        <r>  0.0877  0.0000  0.0000  0.0608  0.0000  0.0000  0.0000  0.0000  0.0000 </r>
        <r>  0.0000  0.3476  0.0270  0.0000  0.0000  0.0000  0.0000  0.0000  0.0000 </r>
       </set>
      </set>
      <set comment="kpoint 111">
       <set comment="band 1">
        <r>  0.0000  0.1151  0.0118  0.0000  0.0000  0.0000  0.0000  0.0000  0.0000 </r>
        <r>  0.4407  0.0000  0.0000  0.0001  0.0000  0.0000  0.0000  0.0000  0.0000 </r>
       </set>
       <set comment="band 2">
        <r>  0.3621  0.0000  0.0000  0.0028  0.0000  0.0000  0.0000  0.0000  0.0000 </r>
        <r>  0.0000  0.1776  0.0074  0.0000  0.0000  0.0000  0.0000  0.0000  0.0000 </r>
       </set>
       <set comment="band 3">
        <r>  0.0248  0.0000  0.0000  0.1847  0.0000  0.0000  0.0000  0.0000  0.0000 </r>
        <r>  0.0000  0.0168  0.2632  0.0000  0.0000  0.0000  0.0000  0.0000  0.0000 </r>
       </set>
       <set comment="band 4">
        <r>  0.0000  0.0430  0.1841  0.0000  0.0000  0.0000  0.0000  0.0000  0.0000 </r>
        <r>  0.0061  0.0000  0.0000  0.2453  0.0000  0.0000  0.0000  0.0000  0.0000 </r>
       </set>
       <set comment="band 5">
        <r>  0.0000  0.0669  0.0163  0.0000  0.0000  0.0000  0.0000  0.0000  0.0000 </r>
        <r>  0.0608  0.0000  0.0000  0.1039  0.0000  0.0000  0.0000  0.0000  0.0000 </r>
       </set>
       <set comment="band 6">
        <r>  0.2057  0.0000  0.0000  0.0383  0.0000  0.0000  0.0000  0.0000  0.0000 </r>
        <r>  0.0000  0.0316  0.0572  0.0000  0.0000  0.0000  0.0000  0.0000  0.0000 </r>
       </set>
       <set comment="band 7">
        <r>  0.0000  0.0421  0.1638  0.0000  0.0000  0.0000  0.0000  0.0000  0.0000 </r>
        <r>  0.0460  0.0000  0.0000  0.1860  0.0000  0.0000  0.0000  0.0000  0.0000 </r>
       </set>
       <set comment="band 8">
        <r>  0.0863  0.0000  0.0000  0.0563  0.0000  0.0000  0.0000  0.0000  0.0000 </r>
        <r>  0.0000  0.3747  0.0285  0.0000  0.0000  0.0000  0.0000  0.0000  0.0000 </r>
       </set>
      </set>
      <set comment="kpoint 112">
       <set comment="band 1">
        <r>  0.0000  0.1188  0.0092  0.0000  0.0000  0.0000  0.0000  0.0000  0.0000 </r>
        <r>  0.4388  0.0000  0.0000  0.0001  0.0000  0.0000  0.0000  0.0000  0.0000 </r>
       </set>
       <set comment="band 2">
        <r>  0.3590  0.0000  0.0000  0.0024  0.0000  0.0000  0.0000  0.0000  0.0000 </r>
        <r>  0.0000  0.1794  0.0054  0.0000  0.0000  0.0000  0.0000  0.0000  0.0000 </r>
       </set>
       <set comment="band 3">
        <r>  0.0000  0.0362  0.1898  0.0000  0.0000  0.0000  0.0000  0.0000  0.0000 </r>
        <r>  0.0061  0.0000  0.0000  0.2536  0.0000  0.0000  0.0000  0.0000  0.0000 </r>
       </set>
       <set comment="band 4">
        <r>  0.0226  0.0000  0.0000  0.1902  0.0000  0.0000  0.0000  0.0000  0.0000 </r>
        <r>  0.0000  0.0131  0.2718  0.0000  0.0000  0.0000  0.0000  0.0000  0.0000 </r>
       </set>
       <set comment="band 5">
        <r>  0.0000  0.0716  0.0157  0.0000  0.0000  0.0000  0.0000  0.0000  0.0000 </r>
        <r>  0.0659  0.0000  0.0000  0.0878  0.0000  0.0000  0.0000  0.0000  0.0000 </r>
       </set>
       <set comment="band 6">
        <r>  0.2130  0.0000  0.0000  0.0327  0.0000  0.0000  0.0000  0.0000  0.0000 </r>
        <r>  0.0000  0.0319  0.0477  0.0000  0.0000  0.0000  0.0000  0.0000  0.0000 </r>
       </set>
       <set comment="band 7">
        <r>  0.0000  0.0351  0.1695  0.0000  0.0000  0.0000  0.0000  0.0000  0.0000 </r>
        <r>  0.0386  0.0000  0.0000  0.2058  0.0000  0.0000  0.0000  0.0000  0.0000 </r>
       </set>
       <set comment="band 8">
        <r>  0.0828  0.0000  0.0000  0.0648  0.0000  0.0000  0.0000  0.0000  0.0000 </r>
        <r>  0.0000  0.3808  0.0426  0.0000  0.0000  0.0000  0.0000  0.0000  0.0000 </r>
       </set>
      </set>
      <set comment="kpoint 113">
       <set comment="band 1">
        <r>  0.0000  0.1220  0.0069  0.0000  0.0000  0.0000  0.0000  0.0000  0.0000 </r>
        <r>  0.4370  0.0000  0.0000  0.0001  0.0000  0.0000  0.0000  0.0000  0.0000 </r>
       </set>
       <set comment="band 2">
        <r>  0.3563  0.0000  0.0000  0.0020  0.0000  0.0000  0.0000  0.0000  0.0000 </r>
        <r>  0.0000  0.1808  0.0039  0.0000  0.0000  0.0000  0.0000  0.0000  0.0000 </r>
       </set>
       <set comment="band 3">
        <r>  0.0000  0.0296  0.1954  0.0000  0.0000  0.0000  0.0000  0.0000  0.0000 </r>
        <r>  0.0058  0.0000  0.0000  0.2626  0.0000  0.0000  0.0000  0.0000  0.0000 </r>
       </set>
       <set comment="band 4">
        <r>  0.0196  0.0000  0.0000  0.1959  0.0000  0.0000  0.0000  0.0000  0.0000 </r>
        <r>  0.0000  0.0100  0.2800  0.0000  0.0000  0.0000  0.0000  0.0000  0.0000 </r>
       </set>
       <set comment="band 5">
        <r>  0.0000  0.0762  0.0144  0.0000  0.0000  0.0000  0.0000  0.0000  0.0000 </r>
        <r>  0.0706  0.0000  0.0000  0.0722  0.0000  0.0000  0.0000  0.0000  0.0000 </r>
       </set>
       <set comment="band 6">
        <r>  0.2204  0.0000  0.0000  0.0270  0.0000  0.0000  0.0000  0.0000  0.0000 </r>
        <r>  0.0000  0.0323  0.0385  0.0000  0.0000  0.0000  0.0000  0.0000  0.0000 </r>
       </set>
       <set comment="band 7">
        <r>  0.0000  0.0285  0.1760  0.0000  0.0000  0.0000  0.0000  0.0000  0.0000 </r>
        <r>  0.0315  0.0000  0.0000  0.2251  0.0000  0.0000  0.0000  0.0000  0.0000 </r>
       </set>
       <set comment="band 8">
        <r>  0.0801  0.0000  0.0000  0.0621  0.0000  0.0000  0.0000  0.0000  0.0000 </r>
        <r>  0.0000  0.3983  0.0472  0.0000  0.0000  0.0000  0.0000  0.0000  0.0000 </r>
       </set>
      </set>
      <set comment="kpoint 114">
       <set comment="band 1">
        <r>  0.0000  0.1248  0.0050  0.0000  0.0000  0.0000  0.0000  0.0000  0.0000 </r>
        <r>  0.4354  0.0000  0.0000  0.0001  0.0000  0.0000  0.0000  0.0000  0.0000 </r>
       </set>
       <set comment="band 2">
        <r>  0.3543  0.0000  0.0000  0.0015  0.0000  0.0000  0.0000  0.0000  0.0000 </r>
        <r>  0.0000  0.1819  0.0027  0.0000  0.0000  0.0000  0.0000  0.0000  0.0000 </r>
       </set>
       <set comment="band 3">
        <r>  0.0000  0.0232  0.2010  0.0000  0.0000  0.0000  0.0000  0.0000  0.0000 </r>
        <r>  0.0052  0.0000  0.0000  0.2723  0.0000  0.0000  0.0000  0.0000  0.0000 </r>
       </set>
       <set comment="band 4">
        <r>  0.0161  0.0000  0.0000  0.2017  0.0000  0.0000  0.0000  0.0000  0.0000 </r>
        <r>  0.0000  0.0074  0.2879  0.0000  0.0000  0.0000  0.0000  0.0000  0.0000 </r>
       </set>
       <set comment="band 5">
        <r>  0.0000  0.0808  0.0125  0.0000  0.0000  0.0000  0.0000  0.0000  0.0000 </r>
        <r>  0.0751  0.0000  0.0000  0.0570  0.0000  0.0000  0.0000  0.0000  0.0000 </r>
       </set>
       <set comment="band 6">
        <r>  0.2276  0.0000  0.0000  0.0212  0.0000  0.0000  0.0000  0.0000  0.0000 </r>
        <r>  0.0000  0.0327  0.0298  0.0000  0.0000  0.0000  0.0000  0.0000  0.0000 </r>
       </set>
       <set comment="band 7">
        <r>  0.0000  0.0220  0.1829  0.0000  0.0000  0.0000  0.0000  0.0000  0.0000 </r>
        <r>  0.0245  0.0000  0.0000  0.2439  0.0000  0.0000  0.0000  0.0000  0.0000 </r>
       </set>
       <set comment="band 8">
        <r>  0.0095  0.0000  0.0000  0.2214  0.0000  0.0000  0.0000  0.0000  0.0000 </r>
        <r>  0.0000  0.0328  0.2859  0.0000  0.0000  0.0000  0.0000  0.0000  0.0000 </r>
       </set>
      </set>
      <set comment="kpoint 115">
       <set comment="band 1">
        <r>  0.0000  0.1272  0.0034  0.0000  0.0000  0.0000  0.0000  0.0000  0.0000 </r>
        <r>  0.4340  0.0000  0.0000  0.0001  0.0000  0.0000  0.0000  0.0000  0.0000 </r>
       </set>
       <set comment="band 2">
        <r>  0.3526  0.0000  0.0000  0.0011  0.0000  0.0000  0.0000  0.0000  0.0000 </r>
        <r>  0.0000  0.1827  0.0018  0.0000  0.0000  0.0000  0.0000  0.0000  0.0000 </r>
       </set>
       <set comment="band 3">
        <r>  0.0000  0.0172  0.2065  0.0000  0.0000  0.0000  0.0000  0.0000  0.0000 </r>
        <r>  0.0043  0.0000  0.0000  0.2822  0.0000  0.0000  0.0000  0.0000  0.0000 </r>
       </set>
       <set comment="band 4">
        <r>  0.0122  0.0000  0.0000  0.2073  0.0000  0.0000  0.0000  0.0000  0.0000 </r>
        <r>  0.0000  0.0051  0.2951  0.0000  0.0000  0.0000  0.0000  0.0000  0.0000 </r>
       </set>
       <set comment="band 5">
        <r>  0.0000  0.0852  0.0101  0.0000  0.0000  0.0000  0.0000  0.0000  0.0000 </r>
        <r>  0.0793  0.0000  0.0000  0.0425  0.0000  0.0000  0.0000  0.0000  0.0000 </r>
       </set>
       <set comment="band 6">
        <r>  0.2345  0.0000  0.0000  0.0157  0.0000  0.0000  0.0000  0.0000  0.0000 </r>
        <r>  0.0000  0.0332  0.0217  0.0000  0.0000  0.0000  0.0000  0.0000  0.0000 </r>
       </set>
       <set comment="band 7">
        <r>  0.0000  0.0161  0.1901  0.0000  0.0000  0.0000  0.0000  0.0000  0.0000 </r>
        <r>  0.0180  0.0000  0.0000  0.2616  0.0000  0.0000  0.0000  0.0000  0.0000 </r>
       </set>
       <set comment="band 8">
        <r>  0.0022  0.0000  0.0000  0.2271  0.0000  0.0000  0.0000  0.0000  0.0000 </r>
        <r>  0.0000  0.0024  0.3060  0.0000  0.0000  0.0000  0.0000  0.0000  0.0000 </r>
       </set>
      </set>
      <set comment="kpoint 116">
       <set comment="band 1">
        <r>  0.0000  0.1291  0.0022  0.0000  0.0000  0.0000  0.0000  0.0000  0.0000 </r>
        <r>  0.4328  0.0000  0.0000  0.0000  0.0000  0.0000  0.0000  0.0000  0.0000 </r>
       </set>
       <set comment="band 2">
        <r>  0.3513  0.0000  0.0000  0.0007  0.0000  0.0000  0.0000  0.0000  0.0000 </r>
        <r>  0.0000  0.1833  0.0011  0.0000  0.0000  0.0000  0.0000  0.0000  0.0000 </r>
       </set>
       <set comment="band 3">
        <r>  0.0000  0.0117  0.2117  0.0000  0.0000  0.0000  0.0000  0.0000  0.0000 </r>
        <r>  0.0032  0.0000  0.0000  0.2920  0.0000  0.0000  0.0000  0.0000  0.0000 </r>
       </set>
       <set comment="band 4">
        <r>  0.0085  0.0000  0.0000  0.2125  0.0000  0.0000  0.0000  0.0000  0.0000 </r>
        <r>  0.0000  0.0033  0.3017  0.0000  0.0000  0.0000  0.0000  0.0000  0.0000 </r>
       </set>
       <set comment="band 5">
        <r>  0.0000  0.0895  0.0074  0.0000  0.0000  0.0000  0.0000  0.0000  0.0000 </r>
        <r>  0.0830  0.0000  0.0000  0.0291  0.0000  0.0000  0.0000  0.0000  0.0000 </r>
       </set>
       <set comment="band 6">
        <r>  0.2406  0.0000  0.0000  0.0106  0.0000  0.0000  0.0000  0.0000  0.0000 </r>
        <r>  0.0000  0.0337  0.0145  0.0000  0.0000  0.0000  0.0000  0.0000  0.0000 </r>
       </set>
       <set comment="band 7">
        <r>  0.0000  0.0107  0.1973  0.0000  0.0000  0.0000  0.0000  0.0000  0.0000 </r>
        <r>  0.0121  0.0001  0.0000  0.2775  0.0000  0.0000  0.0000  0.0000  0.0000 </r>
       </set>
       <set comment="band 8">
        <r>  0.0003  0.0000  0.0000  0.2158  0.0000  0.0000  0.0000  0.0000  0.0000 </r>
        <r>  0.0000  0.0055  0.3047  0.0000  0.0000  0.0000  0.0000  0.0000  0.0000 </r>
       </set>
      </set>
      <set comment="kpoint 117">
       <set comment="band 1">
        <r>  0.0000  0.1306  0.0012  0.0000  0.0000  0.0000  0.0000  0.0000  0.0000 </r>
        <r>  0.4318  0.0000  0.0000  0.0000  0.0000  0.0000  0.0000  0.0000  0.0000 </r>
       </set>
       <set comment="band 2">
        <r>  0.3503  0.0000  0.0000  0.0004  0.0000  0.0000  0.0000  0.0000  0.0000 </r>
        <r>  0.0000  0.1837  0.0006  0.0000  0.0000  0.0000  0.0000  0.0000  0.0000 </r>
       </set>
       <set comment="band 3">
        <r>  0.0000  0.0069  0.2163  0.0000  0.0000  0.0000  0.0000  0.0000  0.0000 </r>
        <r>  0.0020  0.0000  0.0000  0.3010  0.0000  0.0000  0.0000  0.0000  0.0000 </r>
       </set>
       <set comment="band 4">
        <r>  0.0051  0.0000  0.0000  0.2169  0.0000  0.0000  0.0000  0.0000  0.0000 </r>
        <r>  0.0000  0.0019  0.3072  0.0000  0.0000  0.0000  0.0000  0.0000  0.0000 </r>
       </set>
       <set comment="band 5">
        <r>  0.0000  0.0932  0.0046  0.0000  0.0000  0.0000  0.0000  0.0000  0.0000 </r>
        <r>  0.0863  0.0000  0.0000  0.0174  0.0000  0.0000  0.0000  0.0000  0.0000 </r>
       </set>
       <set comment="band 6">
        <r>  0.2459  0.0000  0.0000  0.0062  0.0000  0.0000  0.0000  0.0000  0.0000 </r>
        <r>  0.0000  0.0342  0.0084  0.0000  0.0000  0.0000  0.0000  0.0000  0.0000 </r>
       </set>
       <set comment="band 7">
        <r>  0.0000  0.0062  0.2033  0.0000  0.0000  0.0000  0.0000  0.0000  0.0000 </r>
        <r>  0.0071  0.0002  0.0000  0.2909  0.0000  0.0000  0.0000  0.0000  0.0000 </r>
       </set>
       <set comment="band 8">
        <r>  0.0001  0.0000  0.0000  0.2151  0.0000  0.0000  0.0000  0.0000  0.0000 </r>
        <r>  0.0000  0.0016  0.3077  0.0000  0.0000  0.0000  0.0000  0.0000  0.0000 </r>
       </set>
      </set>
      <set comment="kpoint 118">
       <set comment="band 1">
        <r>  0.0000  0.1316  0.0005  0.0000  0.0000  0.0000  0.0000  0.0000  0.0000 </r>
        <r>  0.4311  0.0000  0.0000  0.0000  0.0000  0.0000  0.0000  0.0000  0.0000 </r>
       </set>
       <set comment="band 2">
        <r>  0.3497  0.0000  0.0000  0.0002  0.0000  0.0000  0.0000  0.0000  0.0000 </r>
        <r>  0.0000  0.1840  0.0003  0.0000  0.0000  0.0000  0.0000  0.0000  0.0000 </r>
       </set>
       <set comment="band 3">
        <r>  0.0000  0.0032  0.2200  0.0000  0.0000  0.0000  0.0000  0.0000  0.0000 </r>
        <r>  0.0010  0.0000  0.0000  0.3083  0.0000  0.0000  0.0000  0.0000  0.0000 </r>
       </set>
       <set comment="band 4">
        <r>  0.0024  0.0000  0.0000  0.2203  0.0000  0.0000  0.0000  0.0000  0.0000 </r>
        <r>  0.0000  0.0008  0.3113  0.0000  0.0000  0.0000  0.0000  0.0000  0.0000 </r>
       </set>
       <set comment="band 5">
        <r>  0.0000  0.0962  0.0022  0.0000  0.0000  0.0000  0.0000  0.0000  0.0000 </r>
        <r>  0.0888  0.0000  0.0000  0.0081  0.0000  0.0000  0.0000  0.0000  0.0000 </r>
       </set>
       <set comment="band 6">
        <r>  0.2499  0.0000  0.0000  0.0029  0.0000  0.0000  0.0000  0.0000  0.0000 </r>
        <r>  0.0000  0.0345  0.0039  0.0000  0.0000  0.0000  0.0000  0.0000  0.0000 </r>
       </set>
       <set comment="band 7">
        <r>  0.0000  0.0029  0.2082  0.0000  0.0000  0.0000  0.0000  0.0000  0.0000 </r>
        <r>  0.0032  0.0000  0.0000  0.3013  0.0000  0.0000  0.0000  0.0000  0.0000 </r>
       </set>
       <set comment="band 8">
        <r>  0.0004  0.0000  0.0000  0.2143  0.0000  0.0000  0.0000  0.0000  0.0000 </r>
        <r>  0.0000  0.0002  0.3082  0.0000  0.0000  0.0000  0.0000  0.0000  0.0000 </r>
       </set>
      </set>
      <set comment="kpoint 119">
       <set comment="band 1">
        <r>  0.0000  0.1322  0.0001  0.0000  0.0000  0.0000  0.0000  0.0000  0.0000 </r>
        <r>  0.4307  0.0000  0.0000  0.0000  0.0000  0.0000  0.0000  0.0000  0.0000 </r>
       </set>
       <set comment="band 2">
        <r>  0.3493  0.0000  0.0000  0.0000  0.0000  0.0000  0.0000  0.0000  0.0000 </r>
        <r>  0.0000  0.1841  0.0001  0.0000  0.0000  0.0000  0.0000  0.0000  0.0000 </r>
       </set>
       <set comment="band 3">
        <r>  0.0000  0.0008  0.2224  0.0000  0.0000  0.0000  0.0000  0.0000  0.0000 </r>
        <r>  0.0003  0.0000  0.0000  0.3132  0.0000  0.0000  0.0000  0.0000  0.0000 </r>
       </set>
       <set comment="band 4">
        <r>  0.0006  0.0000  0.0000  0.2225  0.0000  0.0000  0.0000  0.0000  0.0000 </r>
        <r>  0.0000  0.0002  0.3140  0.0000  0.0000  0.0000  0.0000  0.0000  0.0000 </r>
       </set>
       <set comment="band 5">
        <r>  0.0000  0.0981  0.0006  0.0000  0.0000  0.0000  0.0000  0.0000  0.0000 </r>
        <r>  0.0904  0.0000  0.0000  0.0021  0.0000  0.0000  0.0000  0.0000  0.0000 </r>
       </set>
       <set comment="band 6">
        <r>  0.2524  0.0000  0.0000  0.0007  0.0000  0.0000  0.0000  0.0000  0.0000 </r>
        <r>  0.0000  0.0348  0.0010  0.0000  0.0000  0.0000  0.0000  0.0000  0.0000 </r>
       </set>
       <set comment="band 7">
        <r>  0.0001  0.0008  0.2115  0.0001  0.0000  0.0000  0.0000  0.0000  0.0000 </r>
        <r>  0.0008  0.0007  0.0001  0.3079  0.0000  0.0000  0.0000  0.0000  0.0000 </r>
       </set>
       <set comment="band 8">
        <r>  0.0000  0.0000  0.0001  0.2127  0.0000  0.0000  0.0000  0.0000  0.0000 </r>
        <r>  0.0000  0.0004  0.3094  0.0001  0.0000  0.0000  0.0000  0.0000  0.0000 </r>
       </set>
      </set>
      <set comment="kpoint 120">
       <set comment="band 1">
        <r>  0.0000  0.1325  0.0000  0.0000  0.0000  0.0000  0.0000  0.0000  0.0000 </r>
        <r>  0.4305  0.0000  0.0000  0.0000  0.0000  0.0000  0.0000  0.0000  0.0000 </r>
       </set>
       <set comment="band 2">
        <r>  0.3492  0.0000  0.0000  0.0000  0.0000  0.0000  0.0000  0.0000  0.0000 </r>
        <r>  0.0000  0.1842  0.0000  0.0000  0.0000  0.0000  0.0000  0.0000  0.0000 </r>
       </set>
       <set comment="band 3">
        <r>  0.0000  0.0000  0.1116  0.1116  0.0000  0.0000  0.0000  0.0000  0.0000 </r>
        <r>  0.0000  0.0000  0.1574  0.1574  0.0000  0.0000  0.0000  0.0000  0.0000 </r>
       </set>
       <set comment="band 4">
        <r>  0.0000  0.0000  0.1116  0.1116  0.0000  0.0000  0.0000  0.0000  0.0000 </r>
        <r>  0.0000  0.0000  0.1574  0.1574  0.0000  0.0000  0.0000  0.0000  0.0000 </r>
       </set>
       <set comment="band 5">
        <r>  0.0000  0.0988  0.0000  0.0000  0.0000  0.0000  0.0000  0.0000  0.0000 </r>
        <r>  0.0909  0.0000  0.0000  0.0000  0.0000  0.0000  0.0000  0.0000  0.0000 </r>
       </set>
       <set comment="band 6">
        <r>  0.2532  0.0000  0.0000  0.0000  0.0000  0.0000  0.0000  0.0000  0.0000 </r>
        <r>  0.0000  0.0348  0.0000  0.0000  0.0000  0.0000  0.0000  0.0000  0.0000 </r>
       </set>
       <set comment="band 7">
        <r>  0.0000  0.0000  0.1869  0.0256  0.0000  0.0000  0.0000  0.0000  0.0000 </r>
        <r>  0.0000  0.0000  0.0374  0.2728  0.0000  0.0000  0.0000  0.0000  0.0000 </r>
       </set>
       <set comment="band 8">
        <r>  0.0000  0.0000  0.0255  0.1860  0.0000  0.0000  0.0000  0.0000  0.0000 </r>
        <r>  0.0000  0.0003  0.2724  0.0372  0.0000  0.0000  0.0000  0.0000  0.0000 </r>
       </set>
      </set>
      <set comment="kpoint 121">
       <set comment="band 1">
        <r>  0.2437  0.0000  0.0000  0.0000  0.0000  0.0000  0.0000  0.0000  0.0000 </r>
        <r>  0.2523  0.0000  0.0000  0.0000  0.0000  0.0000  0.0000  0.0000  0.0000 </r>
       </set>
       <set comment="band 2">
        <r>  0.0000  0.0215  0.0017  0.0339  0.0000  0.0000  0.0000  0.0000  0.0000 </r>
        <r>  0.0000  0.1771  0.0139  0.2798  0.0000  0.0000  0.0000  0.0000  0.0000 </r>
       </set>
       <set comment="band 3">
        <r>  0.0000  0.0166  0.0364  0.0041  0.0000  0.0000  0.0000  0.0000  0.0000 </r>
        <r>  0.0000  0.1368  0.3000  0.0341  0.0000  0.0000  0.0000  0.0000  0.0000 </r>
       </set>
       <set comment="band 4">
        <r>  0.0000  0.0190  0.0190  0.0190  0.0000  0.0000  0.0000  0.0000  0.0000 </r>
        <r>  0.0000  0.1570  0.1570  0.1570  0.0000  0.0000  0.0000  0.0000  0.0000 </r>
       </set>
       <set comment="band 5">
        <r>  0.1259  0.0000  0.0000  0.0000  0.0000  0.0000  0.0000  0.0000  0.0000 </r>
        <r>  0.4456  0.0000  0.0000  0.0000  0.0000  0.0000  0.0000  0.0000  0.0000 </r>
       </set>
       <set comment="band 6">
        <r>  0.0000  0.1651  0.1668  0.1668  0.0000  0.0000  0.0000  0.0000  0.0000 </r>
        <r>  0.0000  0.0033  0.0033  0.0033  0.0000  0.0000  0.0000  0.0000  0.0000 </r>
       </set>
       <set comment="band 7">
        <r>  0.0000  0.2973  0.0180  0.1834  0.0000  0.0000  0.0000  0.0000  0.0000 </r>
        <r>  0.0000  0.0059  0.0004  0.0037  0.0000  0.0000  0.0000  0.0000  0.0000 </r>
       </set>
       <set comment="band 8">
        <r>  0.0000  0.0363  0.3139  0.1485  0.0000  0.0000  0.0000  0.0000  0.0000 </r>
        <r>  0.0000  0.0007  0.0063  0.0030  0.0000  0.0000  0.0000  0.0000  0.0000 </r>
       </set>
      </set>
      <set comment="kpoint 122">
       <set comment="band 1">
        <r>  0.2433  0.0004  0.0000  0.0000  0.0000  0.0000  0.0000  0.0000  0.0000 </r>
        <r>  0.2524  0.0001  0.0000  0.0000  0.0000  0.0000  0.0000  0.0000  0.0000 </r>
       </set>
       <set comment="band 2">
        <r>  0.0022  0.0568  0.0000  0.0000  0.0000  0.0000  0.0000  0.0000  0.0000 </r>
        <r>  0.0059  0.4633  0.0000  0.0000  0.0000  0.0000  0.0000  0.0000  0.0000 </r>
       </set>
       <set comment="band 3">
        <r>  0.0000  0.0000  0.0302  0.0302  0.0000  0.0000  0.0000  0.0000  0.0000 </r>
        <r>  0.0000  0.0000  0.2340  0.2335  0.0000  0.0000  0.0000  0.0000  0.0000 </r>
       </set>
       <set comment="band 4">
        <r>  0.0000  0.0000  0.0302  0.0302  0.0000  0.0000  0.0000  0.0000  0.0000 </r>
        <r>  0.0000  0.0000  0.2335  0.2340  0.0000  0.0000  0.0000  0.0000  0.0000 </r>
       </set>
       <set comment="band 5">
        <r>  0.1220  0.0034  0.0000  0.0000  0.0000  0.0000  0.0000  0.0000  0.0000 </r>
        <r>  0.4379  0.0080  0.0000  0.0000  0.0000  0.0000  0.0000  0.0000  0.0000 </r>
       </set>
       <set comment="band 6">
        <r>  0.0076  0.4894  0.0000  0.0000  0.0000  0.0000  0.0000  0.0000  0.0000 </r>
        <r>  0.0006  0.0108  0.0000  0.0000  0.0000  0.0000  0.0000  0.0000  0.0000 </r>
       </set>
       <set comment="band 7">
        <r>  0.0000  0.0000  0.3039  0.1912  0.0000  0.0000  0.0000  0.0000  0.0000 </r>
        <r>  0.0000  0.0000  0.0090  0.0050  0.0000  0.0000  0.0000  0.0000  0.0000 </r>
       </set>
       <set comment="band 8">
        <r>  0.0000  0.0000  0.1912  0.3039  0.0000  0.0000  0.0000  0.0000  0.0000 </r>
        <r>  0.0000  0.0000  0.0050  0.0090  0.0000  0.0000  0.0000  0.0000  0.0000 </r>
       </set>
      </set>
      <set comment="kpoint 123">
       <set comment="band 1">
        <r>  0.2420  0.0014  0.0000  0.0000  0.0000  0.0000  0.0000  0.0000  0.0000 </r>
        <r>  0.2527  0.0006  0.0000  0.0000  0.0000  0.0000  0.0000  0.0000  0.0000 </r>
       </set>
       <set comment="band 2">
        <r>  0.0081  0.0561  0.0000  0.0000  0.0000  0.0000  0.0000  0.0000  0.0000 </r>
        <r>  0.0217  0.4430  0.0000  0.0000  0.0000  0.0000  0.0000  0.0000  0.0000 </r>
       </set>
       <set comment="band 3">
        <r>  0.0000  0.0000  0.0349  0.0349  0.0000  0.0000  0.0000  0.0000  0.0000 </r>
        <r>  0.0000  0.0000  0.2291  0.2290  0.0000  0.0000  0.0000  0.0000  0.0000 </r>
       </set>
       <set comment="band 4">
        <r>  0.0000  0.0000  0.0349  0.0349  0.0000  0.0000  0.0000  0.0000  0.0000 </r>
        <r>  0.0000  0.0000  0.2290  0.2291  0.0000  0.0000  0.0000  0.0000  0.0000 </r>
       </set>
       <set comment="band 5">
        <r>  0.1061  0.0205  0.0000  0.0000  0.0000  0.0000  0.0000  0.0000  0.0000 </r>
        <r>  0.4130  0.0278  0.0000  0.0000  0.0000  0.0000  0.0000  0.0000  0.0000 </r>
       </set>
       <set comment="band 6">
        <r>  0.0337  0.4555  0.0000  0.0000  0.0000  0.0000  0.0000  0.0000  0.0000 </r>
        <r>  0.0055  0.0153  0.0000  0.0000  0.0000  0.0000  0.0000  0.0000  0.0000 </r>
       </set>
       <set comment="band 7">
        <r>  0.0000  0.0000  0.2433  0.2414  0.0000  0.0000  0.0000  0.0000  0.0000 </r>
        <r>  0.0000  0.0000  0.0126  0.0125  0.0000  0.0000  0.0000  0.0000  0.0000 </r>
       </set>
       <set comment="band 8">
        <r>  0.0000  0.0000  0.2414  0.2433  0.0000  0.0000  0.0000  0.0000  0.0000 </r>
        <r>  0.0000  0.0000  0.0125  0.0126  0.0000  0.0000  0.0000  0.0000  0.0000 </r>
       </set>
      </set>
      <set comment="kpoint 124">
       <set comment="band 1">
        <r>  0.2399  0.0032  0.0000  0.0000  0.0000  0.0000  0.0000  0.0000  0.0000 </r>
        <r>  0.2531  0.0012  0.0000  0.0000  0.0000  0.0000  0.0000  0.0000  0.0000 </r>
       </set>
       <set comment="band 2">
        <r>  0.0168  0.0554  0.0000  0.0000  0.0000  0.0000  0.0000  0.0000  0.0000 </r>
        <r>  0.0431  0.4151  0.0000  0.0000  0.0000  0.0000  0.0000  0.0000  0.0000 </r>
       </set>
       <set comment="band 3">
        <r>  0.0000  0.0000  0.0417  0.0417  0.0000  0.0000  0.0000  0.0000  0.0000 </r>
        <r>  0.0000  0.0000  0.2223  0.2222  0.0000  0.0000  0.0000  0.0000  0.0000 </r>
       </set>
       <set comment="band 4">
        <r>  0.0000  0.0000  0.0417  0.0417  0.0000  0.0000  0.0000  0.0000  0.0000 </r>
        <r>  0.0000  0.0000  0.2222  0.2223  0.0000  0.0000  0.0000  0.0000  0.0000 </r>
       </set>
       <set comment="band 5">
        <r>  0.0483  0.1280  0.0000  0.0000  0.0000  0.0000  0.0000  0.0000  0.0000 </r>
        <r>  0.3240  0.0356  0.0000  0.0000  0.0000  0.0000  0.0000  0.0000  0.0000 </r>
       </set>
       <set comment="band 6">
        <r>  0.1070  0.3233  0.0000  0.0000  0.0000  0.0000  0.0000  0.0000  0.0000 </r>
        <r>  0.0650  0.0416  0.0000  0.0000  0.0000  0.0000  0.0000  0.0000  0.0000 </r>
       </set>
       <set comment="band 7">
        <r>  0.0000  0.0000  0.1685  0.3008  0.0000  0.0000  0.0000  0.0000  0.0000 </r>
        <r>  0.0000  0.0000  0.0127  0.0289  0.0000  0.0000  0.0000  0.0000  0.0000 </r>
       </set>
       <set comment="band 8">
        <r>  0.0000  0.0000  0.3008  0.1685  0.0000  0.0000  0.0000  0.0000  0.0000 </r>
        <r>  0.0000  0.0000  0.0289  0.0127  0.0000  0.0000  0.0000  0.0000  0.0000 </r>
       </set>
      </set>
      <set comment="kpoint 125">
       <set comment="band 1">
        <r>  0.2369  0.0056  0.0000  0.0000  0.0000  0.0000  0.0000  0.0000  0.0000 </r>
        <r>  0.2539  0.0022  0.0000  0.0000  0.0000  0.0000  0.0000  0.0000  0.0000 </r>
       </set>
       <set comment="band 2">
        <r>  0.0272  0.0550  0.0000  0.0000  0.0000  0.0000  0.0000  0.0000  0.0000 </r>
        <r>  0.0660  0.3844  0.0000  0.0000  0.0000  0.0000  0.0000  0.0000  0.0000 </r>
       </set>
       <set comment="band 3">
        <r>  0.0000  0.0000  0.0495  0.0495  0.0000  0.0000  0.0000  0.0000  0.0000 </r>
        <r>  0.0000  0.0000  0.2144  0.2144  0.0000  0.0000  0.0000  0.0000  0.0000 </r>
       </set>
       <set comment="band 4">
        <r>  0.0000  0.0000  0.0495  0.0495  0.0000  0.0000  0.0000  0.0000  0.0000 </r>
        <r>  0.0000  0.0000  0.2144  0.2144  0.0000  0.0000  0.0000  0.0000  0.0000 </r>
       </set>
       <set comment="band 5">
        <r>  0.0026  0.3646  0.0000  0.0000  0.0000  0.0000  0.0000  0.0000  0.0000 </r>
        <r>  0.1010  0.0051  0.0000  0.0000  0.0000  0.0000  0.0000  0.0000  0.0000 </r>
       </set>
       <set comment="band 6">
        <r>  0.1710  0.0572  0.0000  0.0000  0.0000  0.0000  0.0000  0.0000  0.0000 </r>
        <r>  0.2503  0.1095  0.0000  0.0000  0.0000  0.0000  0.0000  0.0000  0.0000 </r>
       </set>
       <set comment="band 7">
        <r>  0.0000  0.0000  0.2891  0.1618  0.0000  0.0000  0.0000  0.0000  0.0000 </r>
        <r>  0.0000  0.0000  0.0201  0.0412  0.0000  0.0000  0.0000  0.0000  0.0000 </r>
       </set>
       <set comment="band 8">
        <r>  0.0000  0.0000  0.1618  0.2891  0.0000  0.0000  0.0000  0.0000  0.0000 </r>
        <r>  0.0000  0.0000  0.0412  0.0201  0.0000  0.0000  0.0000  0.0000  0.0000 </r>
       </set>
      </set>
      <set comment="kpoint 126">
       <set comment="band 1">
        <r>  0.2330  0.0087  0.0000  0.0000  0.0000  0.0000  0.0000  0.0000  0.0000 </r>
        <r>  0.2550  0.0034  0.0000  0.0000  0.0000  0.0000  0.0000  0.0000  0.0000 </r>
       </set>
       <set comment="band 2">
        <r>  0.0387  0.0550  0.0000  0.0000  0.0000  0.0000  0.0000  0.0000  0.0000 </r>
        <r>  0.0876  0.3543  0.0000  0.0000  0.0000  0.0000  0.0000  0.0000  0.0000 </r>
       </set>
       <set comment="band 3">
        <r>  0.0000  0.0000  0.0577  0.0577  0.0000  0.0000  0.0000  0.0000  0.0000 </r>
        <r>  0.0000  0.0000  0.2064  0.2063  0.0000  0.0000  0.0000  0.0000  0.0000 </r>
       </set>
       <set comment="band 4">
        <r>  0.0000  0.0000  0.0577  0.0577  0.0000  0.0000  0.0000  0.0000  0.0000 </r>
        <r>  0.0000  0.0000  0.2063  0.2064  0.0000  0.0000  0.0000  0.0000  0.0000 </r>
       </set>
       <set comment="band 5">
        <r>  0.0274  0.3790  0.0000  0.0000  0.0000  0.0000  0.0000  0.0000  0.0000 </r>
        <r>  0.0482  0.0007  0.0000  0.0000  0.0000  0.0000  0.0000  0.0000  0.0000 </r>
       </set>
       <set comment="band 6">
        <r>  0.1644  0.0109  0.0000  0.0000  0.0000  0.0000  0.0000  0.0000  0.0000 </r>
        <r>  0.2552  0.1465  0.0000  0.0000  0.0000  0.0000  0.0000  0.0000  0.0000 </r>
       </set>
       <set comment="band 7">
        <r>  0.0000  0.0000  0.1988  0.2322  0.0000  0.0000  0.0000  0.0000  0.0000 </r>
        <r>  0.0000  0.0000  0.0438  0.0386  0.0000  0.0000  0.0000  0.0000  0.0000 </r>
       </set>
       <set comment="band 8">
        <r>  0.0000  0.0000  0.2322  0.1988  0.0000  0.0000  0.0000  0.0000  0.0000 </r>
        <r>  0.0000  0.0000  0.0386  0.0438  0.0000  0.0000  0.0000  0.0000  0.0000 </r>
       </set>
      </set>
      <set comment="kpoint 127">
       <set comment="band 1">
        <r>  0.2281  0.0125  0.0000  0.0000  0.0000  0.0000  0.0000  0.0000  0.0000 </r>
        <r>  0.2565  0.0049  0.0000  0.0000  0.0000  0.0000  0.0000  0.0000  0.0000 </r>
       </set>
       <set comment="band 2">
        <r>  0.0510  0.0554  0.0000  0.0000  0.0000  0.0000  0.0000  0.0000  0.0000 </r>
        <r>  0.1067  0.3261  0.0000  0.0000  0.0000  0.0000  0.0000  0.0000  0.0000 </r>
       </set>
       <set comment="band 3">
        <r>  0.0000  0.0000  0.0657  0.0657  0.0000  0.0000  0.0000  0.0000  0.0000 </r>
        <r>  0.0000  0.0000  0.1986  0.1986  0.0000  0.0000  0.0000  0.0000  0.0000 </r>
       </set>
       <set comment="band 4">
        <r>  0.0000  0.0000  0.0657  0.0657  0.0000  0.0000  0.0000  0.0000  0.0000 </r>
        <r>  0.0000  0.0000  0.1986  0.1986  0.0000  0.0000  0.0000  0.0000  0.0000 </r>
       </set>
       <set comment="band 5">
        <r>  0.0466  0.3534  0.0000  0.0000  0.0000  0.0000  0.0000  0.0000  0.0000 </r>
        <r>  0.0381  0.0003  0.0000  0.0000  0.0000  0.0000  0.0000  0.0000  0.0000 </r>
       </set>
       <set comment="band 6">
        <r>  0.1593  0.0037  0.0000  0.0000  0.0000  0.0000  0.0000  0.0000  0.0000 </r>
        <r>  0.2038  0.1626  0.0000  0.0000  0.0000  0.0000  0.0000  0.0000  0.0000 </r>
       </set>
       <set comment="band 7">
        <r>  0.0000  0.0000  0.0176  0.3931  0.0000  0.0000  0.0000  0.0000  0.0000 </r>
        <r>  0.0000  0.0000  0.0988  0.0050  0.0000  0.0000  0.0000  0.0000  0.0000 </r>
       </set>
       <set comment="band 8">
        <r>  0.0000  0.0000  0.3931  0.0176  0.0000  0.0000  0.0000  0.0000  0.0000 </r>
        <r>  0.0000  0.0000  0.0050  0.0988  0.0000  0.0000  0.0000  0.0000  0.0000 </r>
       </set>
      </set>
      <set comment="kpoint 128">
       <set comment="band 1">
        <r>  0.2224  0.0170  0.0000  0.0000  0.0000  0.0000  0.0000  0.0000  0.0000 </r>
        <r>  0.2584  0.0066  0.0000  0.0000  0.0000  0.0000  0.0000  0.0000  0.0000 </r>
       </set>
       <set comment="band 2">
        <r>  0.0643  0.0562  0.0000  0.0000  0.0000  0.0000  0.0000  0.0000  0.0000 </r>
        <r>  0.1224  0.3006  0.0000  0.0000  0.0000  0.0000  0.0000  0.0000  0.0000 </r>
       </set>
       <set comment="band 3">
        <r>  0.0000  0.0000  0.0730  0.0730  0.0000  0.0000  0.0000  0.0000  0.0000 </r>
        <r>  0.0000  0.0000  0.1916  0.1916  0.0000  0.0000  0.0000  0.0000  0.0000 </r>
       </set>
       <set comment="band 4">
        <r>  0.0000  0.0000  0.0730  0.0730  0.0000  0.0000  0.0000  0.0000  0.0000 </r>
        <r>  0.0000  0.0000  0.1916  0.1916  0.0000  0.0000  0.0000  0.0000  0.0000 </r>
       </set>
       <set comment="band 5">
        <r>  0.0581  0.3217  0.0000  0.0000  0.0000  0.0000  0.0000  0.0000  0.0000 </r>
        <r>  0.0371  0.0003  0.0000  0.0000  0.0000  0.0000  0.0000  0.0000  0.0000 </r>
       </set>
       <set comment="band 6">
        <r>  0.1544  0.0026  0.0000  0.0000  0.0000  0.0000  0.0000  0.0000  0.0000 </r>
        <r>  0.1382  0.1518  0.0000  0.0000  0.0000  0.0000  0.0000  0.0000  0.0000 </r>
       </set>
       <set comment="band 7">
        <r>  0.0000  0.0000  0.1567  0.2338  0.0000  0.0000  0.0000  0.0000  0.0000 </r>
        <r>  0.0000  0.0000  0.0715  0.0531  0.0000  0.0000  0.0000  0.0000  0.0000 </r>
       </set>
       <set comment="band 8">
        <r>  0.0000  0.0000  0.2338  0.1567  0.0000  0.0000  0.0000  0.0000  0.0000 </r>
        <r>  0.0000  0.0000  0.0531  0.0715  0.0000  0.0000  0.0000  0.0000  0.0000 </r>
       </set>
      </set>
      <set comment="kpoint 129">
       <set comment="band 1">
        <r>  0.2155  0.0221  0.0000  0.0000  0.0000  0.0000  0.0000  0.0000  0.0000 </r>
        <r>  0.2609  0.0085  0.0000  0.0000  0.0000  0.0000  0.0000  0.0000  0.0000 </r>
       </set>
       <set comment="band 2">
        <r>  0.0785  0.0572  0.0000  0.0000  0.0000  0.0000  0.0000  0.0000  0.0000 </r>
        <r>  0.1346  0.2776  0.0000  0.0000  0.0000  0.0000  0.0000  0.0000  0.0000 </r>
       </set>
       <set comment="band 3">
        <r>  0.0000  0.0000  0.0797  0.0797  0.0000  0.0000  0.0000  0.0000  0.0000 </r>
        <r>  0.0000  0.0000  0.1853  0.1853  0.0000  0.0000  0.0000  0.0000  0.0000 </r>
       </set>
       <set comment="band 4">
        <r>  0.0000  0.0000  0.0797  0.0797  0.0000  0.0000  0.0000  0.0000  0.0000 </r>
        <r>  0.0000  0.0000  0.1853  0.1853  0.0000  0.0000  0.0000  0.0000  0.0000 </r>
       </set>
       <set comment="band 5">
        <r>  0.0626  0.2885  0.0000  0.0000  0.0000  0.0000  0.0000  0.0000  0.0000 </r>
        <r>  0.0396  0.0004  0.0000  0.0000  0.0000  0.0000  0.0000  0.0000  0.0000 </r>
       </set>
       <set comment="band 6">
        <r>  0.1525  0.0033  0.0000  0.0000  0.0000  0.0000  0.0000  0.0000  0.0000 </r>
        <r>  0.0843  0.1249  0.0000  0.0000  0.0000  0.0000  0.0000  0.0000  0.0000 </r>
       </set>
       <set comment="band 7">
        <r>  0.0000  0.0000  0.0839  0.2868  0.0000  0.0000  0.0000  0.0000  0.0000 </r>
        <r>  0.0000  0.0000  0.0979  0.0468  0.0000  0.0000  0.0000  0.0000  0.0000 </r>
       </set>
       <set comment="band 8">
        <r>  0.0000  0.0000  0.2868  0.0839  0.0000  0.0000  0.0000  0.0000  0.0000 </r>
        <r>  0.0000  0.0000  0.0468  0.0979  0.0000  0.0000  0.0000  0.0000  0.0000 </r>
       </set>
      </set>
      <set comment="kpoint 130">
       <set comment="band 1">
        <r>  0.2076  0.0279  0.0000  0.0000  0.0000  0.0000  0.0000  0.0000  0.0000 </r>
        <r>  0.2641  0.0105  0.0000  0.0000  0.0000  0.0000  0.0000  0.0000  0.0000 </r>
       </set>
       <set comment="band 2">
        <r>  0.0939  0.0582  0.0000  0.0000  0.0000  0.0000  0.0000  0.0000  0.0000 </r>
        <r>  0.1432  0.2570  0.0000  0.0000  0.0000  0.0000  0.0000  0.0000  0.0000 </r>
       </set>
       <set comment="band 3">
        <r>  0.0000  0.0000  0.0857  0.0857  0.0000  0.0000  0.0000  0.0000  0.0000 </r>
        <r>  0.0000  0.0000  0.1798  0.1798  0.0000  0.0000  0.0000  0.0000  0.0000 </r>
       </set>
       <set comment="band 4">
        <r>  0.0000  0.0000  0.0857  0.0857  0.0000  0.0000  0.0000  0.0000  0.0000 </r>
        <r>  0.0000  0.0000  0.1798  0.1798  0.0000  0.0000  0.0000  0.0000  0.0000 </r>
       </set>
       <set comment="band 5">
        <r>  0.0609  0.2555  0.0000  0.0000  0.0000  0.0000  0.0000  0.0000  0.0000 </r>
        <r>  0.0439  0.0006  0.0000  0.0000  0.0000  0.0000  0.0000  0.0000  0.0000 </r>
       </set>
       <set comment="band 6">
        <r>  0.1575  0.0052  0.0000  0.0000  0.0000  0.0000  0.0000  0.0000  0.0000 </r>
        <r>  0.0504  0.0988  0.0000  0.0000  0.0000  0.0000  0.0000  0.0000  0.0000 </r>
       </set>
       <set comment="band 7">
        <r>  0.0000  0.0000  0.2258  0.1255  0.0000  0.0000  0.0000  0.0000  0.0000 </r>
        <r>  0.0000  0.0000  0.0506  0.1133  0.0000  0.0000  0.0000  0.0000  0.0000 </r>
       </set>
       <set comment="band 8">
        <r>  0.0000  0.0000  0.1256  0.2257  0.0000  0.0000  0.0000  0.0000  0.0000 </r>
        <r>  0.0000  0.0000  0.1133  0.0505  0.0000  0.0000  0.0000  0.0000  0.0000 </r>
       </set>
      </set>
      <set comment="kpoint 131">
       <set comment="band 1">
        <r>  0.1983  0.0343  0.0000  0.0000  0.0000  0.0000  0.0000  0.0000  0.0000 </r>
        <r>  0.2682  0.0127  0.0000  0.0000  0.0000  0.0000  0.0000  0.0000  0.0000 </r>
       </set>
       <set comment="band 2">
        <r>  0.1106  0.0588  0.0000  0.0000  0.0000  0.0000  0.0000  0.0000  0.0000 </r>
        <r>  0.1481  0.2386  0.0000  0.0000  0.0000  0.0000  0.0000  0.0000  0.0000 </r>
       </set>
       <set comment="band 3">
        <r>  0.0000  0.0000  0.0909  0.0909  0.0000  0.0000  0.0000  0.0000  0.0000 </r>
        <r>  0.0000  0.0000  0.1750  0.1751  0.0000  0.0000  0.0000  0.0000  0.0000 </r>
       </set>
       <set comment="band 4">
        <r>  0.0000  0.0000  0.0909  0.0909  0.0000  0.0000  0.0000  0.0000  0.0000 </r>
        <r>  0.0000  0.0000  0.1751  0.1750  0.0000  0.0000  0.0000  0.0000  0.0000 </r>
       </set>
       <set comment="band 5">
        <r>  0.0548  0.2242  0.0000  0.0000  0.0000  0.0000  0.0000  0.0000  0.0000 </r>
        <r>  0.0493  0.0007  0.0000  0.0000  0.0000  0.0000  0.0000  0.0000  0.0000 </r>
       </set>
       <set comment="band 6">
        <r>  0.1686  0.0073  0.0000  0.0000  0.0000  0.0000  0.0000  0.0000  0.0000 </r>
        <r>  0.0306  0.0792  0.0000  0.0000  0.0000  0.0000  0.0000  0.0000  0.0000 </r>
       </set>
       <set comment="band 7">
        <r>  0.0000  0.0000  0.0691  0.2634  0.0000  0.0000  0.0000  0.0000  0.0000 </r>
        <r>  0.0000  0.0000  0.1630  0.0194  0.0000  0.0000  0.0000  0.0000  0.0000 </r>
       </set>
       <set comment="band 8">
        <r>  0.0000  0.0000  0.2634  0.0691  0.0000  0.0000  0.0000  0.0000  0.0000 </r>
        <r>  0.0000  0.0000  0.0194  0.1630  0.0000  0.0000  0.0000  0.0000  0.0000 </r>
       </set>
      </set>
      <set comment="kpoint 132">
       <set comment="band 1">
        <r>  0.1876  0.0414  0.0000  0.0000  0.0000  0.0000  0.0000  0.0000  0.0000 </r>
        <r>  0.2735  0.0148  0.0000  0.0000  0.0000  0.0000  0.0000  0.0000  0.0000 </r>
       </set>
       <set comment="band 2">
        <r>  0.1286  0.0589  0.0000  0.0000  0.0000  0.0000  0.0000  0.0000  0.0000 </r>
        <r>  0.1494  0.2222  0.0000  0.0000  0.0000  0.0000  0.0000  0.0000  0.0000 </r>
       </set>
       <set comment="band 3">
        <r>  0.0000  0.0000  0.0955  0.0955  0.0000  0.0000  0.0000  0.0000  0.0000 </r>
        <r>  0.0000  0.0000  0.1710  0.1710  0.0000  0.0000  0.0000  0.0000  0.0000 </r>
       </set>
       <set comment="band 4">
        <r>  0.0000  0.0000  0.0955  0.0955  0.0000  0.0000  0.0000  0.0000  0.0000 </r>
        <r>  0.0000  0.0000  0.1710  0.1710  0.0000  0.0000  0.0000  0.0000  0.0000 </r>
       </set>
       <set comment="band 5">
        <r>  0.0460  0.1956  0.0000  0.0000  0.0000  0.0000  0.0000  0.0000  0.0000 </r>
        <r>  0.0553  0.0006  0.0000  0.0000  0.0000  0.0000  0.0000  0.0000  0.0000 </r>
       </set>
       <set comment="band 6">
        <r>  0.1830  0.0089  0.0000  0.0000  0.0000  0.0000  0.0000  0.0000  0.0000 </r>
        <r>  0.0190  0.0652  0.0000  0.0000  0.0000  0.0000  0.0000  0.0000  0.0000 </r>
       </set>
       <set comment="band 7">
        <r>  0.0000  0.0000  0.2499  0.0643  0.0000  0.0000  0.0000  0.0000  0.0000 </r>
        <r>  0.0000  0.0000  0.0196  0.1806  0.0000  0.0000  0.0000  0.0000  0.0000 </r>
       </set>
       <set comment="band 8">
        <r>  0.0000  0.0000  0.0643  0.2496  0.0000  0.0000  0.0000  0.0000  0.0000 </r>
        <r>  0.0000  0.0000  0.1805  0.0196  0.0000  0.0000  0.0000  0.0000  0.0000 </r>
       </set>
      </set>
      <set comment="kpoint 133">
       <set comment="band 1">
        <r>  0.1751  0.0493  0.0000  0.0000  0.0000  0.0000  0.0000  0.0000  0.0000 </r>
        <r>  0.2804  0.0169  0.0000  0.0000  0.0000  0.0000  0.0000  0.0000  0.0000 </r>
       </set>
       <set comment="band 2">
        <r>  0.1481  0.0579  0.0000  0.0000  0.0000  0.0000  0.0000  0.0000  0.0000 </r>
        <r>  0.1469  0.2077  0.0000  0.0000  0.0000  0.0000  0.0000  0.0000  0.0000 </r>
       </set>
       <set comment="band 3">
        <r>  0.0000  0.0000  0.0994  0.0994  0.0000  0.0000  0.0000  0.0000  0.0000 </r>
        <r>  0.0000  0.0000  0.1676  0.1676  0.0000  0.0000  0.0000  0.0000  0.0000 </r>
       </set>
       <set comment="band 4">
        <r>  0.0000  0.0000  0.0994  0.0994  0.0000  0.0000  0.0000  0.0000  0.0000 </r>
        <r>  0.0000  0.0000  0.1676  0.1676  0.0000  0.0000  0.0000  0.0000  0.0000 </r>
       </set>
       <set comment="band 5">
        <r>  0.0364  0.1708  0.0000  0.0000  0.0000  0.0000  0.0000  0.0000  0.0000 </r>
        <r>  0.0617  0.0005  0.0000  0.0000  0.0000  0.0000  0.0000  0.0000  0.0000 </r>
       </set>
       <set comment="band 6">
        <r>  0.1980  0.0094  0.0000  0.0000  0.0000  0.0000  0.0000  0.0000  0.0000 </r>
        <r>  0.0118  0.0554  0.0000  0.0000  0.0000  0.0000  0.0000  0.0000  0.0000 </r>
       </set>
       <set comment="band 7">
        <r>  0.0000  0.0000  0.1601  0.1362  0.0000  0.0000  0.0000  0.0000  0.0000 </r>
        <r>  0.0000  0.0000  0.0660  0.1516  0.0000  0.0000  0.0000  0.0000  0.0000 </r>
       </set>
       <set comment="band 8">
        <r>  0.0000  0.0000  0.1363  0.1602  0.0000  0.0000  0.0000  0.0000  0.0000 </r>
        <r>  0.0000  0.0000  0.1514  0.0660  0.0000  0.0000  0.0000  0.0000  0.0000 </r>
       </set>
      </set>
      <set comment="kpoint 134">
       <set comment="band 1">
        <r>  0.1602  0.0581  0.0000  0.0000  0.0000  0.0000  0.0000  0.0000  0.0000 </r>
        <r>  0.2896  0.0186  0.0000  0.0000  0.0000  0.0000  0.0000  0.0000  0.0000 </r>
       </set>
       <set comment="band 2">
        <r>  0.1694  0.0555  0.0000  0.0000  0.0000  0.0000  0.0000  0.0000  0.0000 </r>
        <r>  0.1404  0.1953  0.0000  0.0000  0.0000  0.0000  0.0000  0.0000  0.0000 </r>
       </set>
       <set comment="band 3">
        <r>  0.0000  0.0000  0.1028  0.1028  0.0000  0.0000  0.0000  0.0000  0.0000 </r>
        <r>  0.0000  0.0000  0.1647  0.1647  0.0000  0.0000  0.0000  0.0000  0.0000 </r>
       </set>
       <set comment="band 4">
        <r>  0.0000  0.0000  0.1028  0.1028  0.0000  0.0000  0.0000  0.0000  0.0000 </r>
        <r>  0.0000  0.0000  0.1647  0.1647  0.0000  0.0000  0.0000  0.0000  0.0000 </r>
       </set>
       <set comment="band 5">
        <r>  0.0272  0.1501  0.0000  0.0000  0.0000  0.0000  0.0000  0.0000  0.0000 </r>
        <r>  0.0681  0.0004  0.0000  0.0000  0.0000  0.0000  0.0000  0.0000  0.0000 </r>
       </set>
       <set comment="band 6">
        <r>  0.2122  0.0088  0.0000  0.0000  0.0000  0.0000  0.0000  0.0000  0.0000 </r>
        <r>  0.0073  0.0485  0.0000  0.0000  0.0000  0.0000  0.0000  0.0000  0.0000 </r>
       </set>
       <set comment="band 7">
        <r>  0.0000  0.0000  0.1528  0.1262  0.0000  0.0000  0.0000  0.0000  0.0000 </r>
        <r>  0.0000  0.0000  0.1078  0.1271  0.0000  0.0000  0.0000  0.0000  0.0000 </r>
       </set>
       <set comment="band 8">
        <r>  0.0001  0.0000  0.1256  0.1526  0.0000  0.0000  0.0000  0.0000  0.0000 </r>
        <r>  0.0001  0.0003  0.1266  0.1069  0.0000  0.0000  0.0000  0.0000  0.0000 </r>
       </set>
      </set>
      <set comment="kpoint 135">
       <set comment="band 1">
        <r>  0.1423  0.0680  0.0000  0.0000  0.0000  0.0000  0.0000  0.0000  0.0000 </r>
        <r>  0.3020  0.0197  0.0000  0.0000  0.0000  0.0000  0.0000  0.0000  0.0000 </r>
       </set>
       <set comment="band 2">
        <r>  0.1930  0.0512  0.0000  0.0000  0.0000  0.0000  0.0000  0.0000  0.0000 </r>
        <r>  0.1293  0.1851  0.0000  0.0000  0.0000  0.0000  0.0000  0.0000  0.0000 </r>
       </set>
       <set comment="band 3">
        <r>  0.0000  0.0000  0.1055  0.1055  0.0000  0.0000  0.0000  0.0000  0.0000 </r>
        <r>  0.0000  0.0000  0.1624  0.1624  0.0000  0.0000  0.0000  0.0000  0.0000 </r>
       </set>
       <set comment="band 4">
        <r>  0.0000  0.0000  0.1055  0.1055  0.0000  0.0000  0.0000  0.0000  0.0000 </r>
        <r>  0.0000  0.0000  0.1624  0.1624  0.0000  0.0000  0.0000  0.0000  0.0000 </r>
       </set>
       <set comment="band 5">
        <r>  0.0190  0.1334  0.0000  0.0000  0.0000  0.0000  0.0000  0.0000  0.0000 </r>
        <r>  0.0742  0.0002  0.0000  0.0000  0.0000  0.0000  0.0000  0.0000  0.0000 </r>
       </set>
       <set comment="band 6">
        <r>  0.2247  0.0073  0.0000  0.0000  0.0000  0.0000  0.0000  0.0000  0.0000 </r>
        <r>  0.0044  0.0435  0.0000  0.0000  0.0000  0.0000  0.0000  0.0000  0.0000 </r>
       </set>
       <set comment="band 7">
        <r>  0.0000  0.0000  0.1348  0.1278  0.0000  0.0000  0.0000  0.0000  0.0000 </r>
        <r>  0.0000  0.0000  0.0940  0.1579  0.0000  0.0000  0.0000  0.0000  0.0000 </r>
       </set>
       <set comment="band 8">
        <r>  0.0001  0.0000  0.1279  0.1344  0.0000  0.0000  0.0000  0.0000  0.0000 </r>
        <r>  0.0001  0.0006  0.1577  0.0936  0.0000  0.0000  0.0000  0.0000  0.0000 </r>
       </set>
      </set>
      <set comment="kpoint 136">
       <set comment="band 1">
        <r>  0.1202  0.0794  0.0000  0.0000  0.0000  0.0000  0.0000  0.0000  0.0000 </r>
        <r>  0.3190  0.0196  0.0000  0.0000  0.0000  0.0000  0.0000  0.0000  0.0000 </r>
       </set>
       <set comment="band 2">
        <r>  0.2201  0.0446  0.0000  0.0000  0.0000  0.0000  0.0000  0.0000  0.0000 </r>
        <r>  0.1126  0.1778  0.0000  0.0000  0.0000  0.0000  0.0000  0.0000  0.0000 </r>
       </set>
       <set comment="band 3">
        <r>  0.0000  0.0000  0.1078  0.1077  0.0000  0.0000  0.0000  0.0000  0.0000 </r>
        <r>  0.0000  0.0000  0.1606  0.1606  0.0000  0.0000  0.0000  0.0000  0.0000 </r>
       </set>
       <set comment="band 4">
        <r>  0.0000  0.0000  0.1077  0.1078  0.0000  0.0000  0.0000  0.0000  0.0000 </r>
        <r>  0.0000  0.0000  0.1606  0.1606  0.0000  0.0000  0.0000  0.0000  0.0000 </r>
       </set>
       <set comment="band 5">
        <r>  0.0121  0.1203  0.0000  0.0000  0.0000  0.0000  0.0000  0.0000  0.0000 </r>
        <r>  0.0798  0.0001  0.0000  0.0000  0.0000  0.0000  0.0000  0.0000  0.0000 </r>
       </set>
       <set comment="band 6">
        <r>  0.2350  0.0053  0.0000  0.0000  0.0000  0.0000  0.0000  0.0000  0.0000 </r>
        <r>  0.0025  0.0400  0.0000  0.0000  0.0000  0.0000  0.0000  0.0000  0.0000 </r>
       </set>
       <set comment="band 7">
        <r>  0.0000  0.0000  0.1555  0.0917  0.0000  0.0000  0.0000  0.0000  0.0000 </r>
        <r>  0.0000  0.0000  0.0688  0.1997  0.0000  0.0000  0.0000  0.0000  0.0000 </r>
       </set>
       <set comment="band 8">
        <r>  0.0000  0.0000  0.0914  0.1553  0.0000  0.0000  0.0000  0.0000  0.0000 </r>
        <r>  0.0000  0.0000  0.1997  0.0688  0.0000  0.0000  0.0000  0.0000  0.0000 </r>
       </set>
      </set>
      <set comment="kpoint 137">
       <set comment="band 1">
        <r>  0.0921  0.0927  0.0000  0.0000  0.0000  0.0000  0.0000  0.0000  0.0000 </r>
        <r>  0.3427  0.0174  0.0000  0.0000  0.0000  0.0000  0.0000  0.0000  0.0000 </r>
       </set>
       <set comment="band 2">
        <r>  0.2520  0.0349  0.0000  0.0000  0.0000  0.0000  0.0000  0.0000  0.0000 </r>
        <r>  0.0888  0.1742  0.0000  0.0000  0.0000  0.0000  0.0000  0.0000  0.0000 </r>
       </set>
       <set comment="band 3">
        <r>  0.0000  0.0000  0.1095  0.1094  0.0000  0.0000  0.0000  0.0000  0.0000 </r>
        <r>  0.0000  0.0000  0.1592  0.1592  0.0000  0.0000  0.0000  0.0000  0.0000 </r>
       </set>
       <set comment="band 4">
        <r>  0.0000  0.0000  0.1094  0.1095  0.0000  0.0000  0.0000  0.0000  0.0000 </r>
        <r>  0.0000  0.0000  0.1592  0.1592  0.0000  0.0000  0.0000  0.0000  0.0000 </r>
       </set>
       <set comment="band 5">
        <r>  0.0068  0.1106  0.0000  0.0000  0.0000  0.0000  0.0000  0.0000  0.0000 </r>
        <r>  0.0845  0.0001  0.0000  0.0000  0.0000  0.0000  0.0000  0.0000  0.0000 </r>
       </set>
       <set comment="band 6">
        <r>  0.2430  0.0032  0.0000  0.0000  0.0000  0.0000  0.0000  0.0000  0.0000 </r>
        <r>  0.0013  0.0376  0.0000  0.0000  0.0000  0.0000  0.0000  0.0000  0.0000 </r>
       </set>
       <set comment="band 7">
        <r>  0.0000  0.0000  0.0752  0.1583  0.0000  0.0000  0.0000  0.0000  0.0000 </r>
        <r>  0.0000  0.0000  0.1851  0.0991  0.0000  0.0000  0.0000  0.0000  0.0000 </r>
       </set>
       <set comment="band 8">
        <r>  0.0002  0.0000  0.1571  0.0743  0.0000  0.0000  0.0000  0.0000  0.0000 </r>
        <r>  0.0001  0.0012  0.0980  0.1847  0.0000  0.0000  0.0000  0.0000  0.0000 </r>
       </set>
      </set>
      <set comment="kpoint 138">
       <set comment="band 1">
        <r>  0.0570  0.1084  0.0000  0.0000  0.0000  0.0000  0.0000  0.0000  0.0000 </r>
        <r>  0.3748  0.0123  0.0000  0.0000  0.0000  0.0000  0.0000  0.0000  0.0000 </r>
       </set>
       <set comment="band 2">
        <r>  0.2899  0.0219  0.0000  0.0000  0.0000  0.0000  0.0000  0.0000  0.0000 </r>
        <r>  0.0563  0.1752  0.0000  0.0000  0.0000  0.0000  0.0000  0.0000  0.0000 </r>
       </set>
       <set comment="band 3">
        <r>  0.0000  0.0000  0.1107  0.1107  0.0000  0.0000  0.0000  0.0000  0.0000 </r>
        <r>  0.0000  0.0000  0.1582  0.1582  0.0000  0.0000  0.0000  0.0000  0.0000 </r>
       </set>
       <set comment="band 4">
        <r>  0.0000  0.0000  0.1107  0.1107  0.0000  0.0000  0.0000  0.0000  0.0000 </r>
        <r>  0.0000  0.0000  0.1582  0.1582  0.0000  0.0000  0.0000  0.0000  0.0000 </r>
       </set>
       <set comment="band 5">
        <r>  0.0030  0.1040  0.0000  0.0000  0.0000  0.0000  0.0000  0.0000  0.0000 </r>
        <r>  0.0880  0.0000  0.0000  0.0000  0.0000  0.0000  0.0000  0.0000  0.0000 </r>
       </set>
       <set comment="band 6">
        <r>  0.2487  0.0015  0.0000  0.0000  0.0000  0.0000  0.0000  0.0000  0.0000 </r>
        <r>  0.0006  0.0360  0.0000  0.0000  0.0000  0.0000  0.0000  0.0000  0.0000 </r>
       </set>
       <set comment="band 7">
        <r>  0.0000  0.0000  0.1774  0.0450  0.0000  0.0000  0.0000  0.0000  0.0000 </r>
        <r>  0.0000  0.0000  0.0457  0.2518  0.0000  0.0000  0.0000  0.0000  0.0000 </r>
       </set>
       <set comment="band 8">
        <r>  0.0000  0.0000  0.0454  0.1775  0.0000  0.0000  0.0000  0.0000  0.0000 </r>
        <r>  0.0000  0.0002  0.2521  0.0458  0.0000  0.0000  0.0000  0.0000  0.0000 </r>
       </set>
      </set>
      <set comment="kpoint 139">
       <set comment="band 1">
        <r>  0.0192  0.1245  0.0000  0.0000  0.0000  0.0000  0.0000  0.0000  0.0000 </r>
        <r>  0.4115  0.0045  0.0000  0.0000  0.0000  0.0000  0.0000  0.0000  0.0000 </r>
       </set>
       <set comment="band 2">
        <r>  0.3294  0.0074  0.0000  0.0000  0.0000  0.0000  0.0000  0.0000  0.0000 </r>
        <r>  0.0193  0.1804  0.0000  0.0000  0.0000  0.0000  0.0000  0.0000  0.0000 </r>
       </set>
       <set comment="band 3">
        <r>  0.0000  0.0000  0.1114  0.1114  0.0000  0.0000  0.0000  0.0000  0.0000 </r>
        <r>  0.0000  0.0000  0.1576  0.1576  0.0000  0.0000  0.0000  0.0000  0.0000 </r>
       </set>
       <set comment="band 4">
        <r>  0.0000  0.0000  0.1114  0.1114  0.0000  0.0000  0.0000  0.0000  0.0000 </r>
        <r>  0.0000  0.0000  0.1576  0.1576  0.0000  0.0000  0.0000  0.0000  0.0000 </r>
       </set>
       <set comment="band 5">
        <r>  0.0008  0.1001  0.0000  0.0000  0.0000  0.0000  0.0000  0.0000  0.0000 </r>
        <r>  0.0902  0.0000  0.0000  0.0000  0.0000  0.0000  0.0000  0.0000  0.0000 </r>
       </set>
       <set comment="band 6">
        <r>  0.2521  0.0004  0.0000  0.0000  0.0000  0.0000  0.0000  0.0000  0.0000 </r>
        <r>  0.0001  0.0351  0.0000  0.0000  0.0000  0.0000  0.0000  0.0000  0.0000 </r>
       </set>
       <set comment="band 7">
        <r>  0.0000  0.0000  0.1982  0.0169  0.0000  0.0000  0.0000  0.0000  0.0000 </r>
        <r>  0.0000  0.0000  0.0135  0.2933  0.0000  0.0000  0.0000  0.0000  0.0000 </r>
       </set>
       <set comment="band 8">
        <r>  0.0013  0.0000  0.0160  0.1914  0.0000  0.0000  0.0000  0.0000  0.0000 </r>
        <r>  0.0001  0.0087  0.2866  0.0124  0.0000  0.0000  0.0000  0.0000  0.0000 </r>
       </set>
      </set>
      <set comment="kpoint 140">
       <set comment="band 1">
        <r>  0.0000  0.1325  0.0000  0.0000  0.0000  0.0000  0.0000  0.0000  0.0000 </r>
        <r>  0.4305  0.0000  0.0000  0.0000  0.0000  0.0000  0.0000  0.0000  0.0000 </r>
       </set>
       <set comment="band 2">
        <r>  0.3492  0.0000  0.0000  0.0000  0.0000  0.0000  0.0000  0.0000  0.0000 </r>
        <r>  0.0000  0.1842  0.0000  0.0000  0.0000  0.0000  0.0000  0.0000  0.0000 </r>
       </set>
       <set comment="band 3">
        <r>  0.0000  0.0000  0.1116  0.1116  0.0000  0.0000  0.0000  0.0000  0.0000 </r>
        <r>  0.0000  0.0000  0.1574  0.1574  0.0000  0.0000  0.0000  0.0000  0.0000 </r>
       </set>
       <set comment="band 4">
        <r>  0.0000  0.0000  0.1116  0.1116  0.0000  0.0000  0.0000  0.0000  0.0000 </r>
        <r>  0.0000  0.0000  0.1574  0.1574  0.0000  0.0000  0.0000  0.0000  0.0000 </r>
       </set>
       <set comment="band 5">
        <r>  0.0000  0.0988  0.0000  0.0000  0.0000  0.0000  0.0000  0.0000  0.0000 </r>
        <r>  0.0909  0.0000  0.0000  0.0000  0.0000  0.0000  0.0000  0.0000  0.0000 </r>
       </set>
       <set comment="band 6">
        <r>  0.2532  0.0000  0.0000  0.0000  0.0000  0.0000  0.0000  0.0000  0.0000 </r>
        <r>  0.0000  0.0348  0.0000  0.0000  0.0000  0.0000  0.0000  0.0000  0.0000 </r>
       </set>
       <set comment="band 7">
        <r>  0.0000  0.0000  0.0996  0.1129  0.0000  0.0000  0.0000  0.0000  0.0000 </r>
        <r>  0.0000  0.0000  0.1648  0.1454  0.0000  0.0000  0.0000  0.0000  0.0000 </r>
       </set>
       <set comment="band 8">
        <r>  0.0000  0.0000  0.1127  0.0996  0.0000  0.0000  0.0000  0.0000  0.0000 </r>
        <r>  0.0000  0.0000  0.1453  0.1646  0.0000  0.0000  0.0000  0.0000  0.0000 </r>
       </set>
      </set>
      <set comment="kpoint 141">
       <set comment="band 1">
        <r>  0.0000  0.1325  0.0000  0.0000  0.0000  0.0000  0.0000  0.0000  0.0000 </r>
        <r>  0.4305  0.0000  0.0000  0.0000  0.0000  0.0000  0.0000  0.0000  0.0000 </r>
       </set>
       <set comment="band 2">
        <r>  0.3492  0.0000  0.0000  0.0000  0.0000  0.0000  0.0000  0.0000  0.0000 </r>
        <r>  0.0000  0.1842  0.0000  0.0000  0.0000  0.0000  0.0000  0.0000  0.0000 </r>
       </set>
       <set comment="band 3">
        <r>  0.0000  0.0000  0.1116  0.1116  0.0000  0.0000  0.0000  0.0000  0.0000 </r>
        <r>  0.0000  0.0000  0.1574  0.1574  0.0000  0.0000  0.0000  0.0000  0.0000 </r>
       </set>
       <set comment="band 4">
        <r>  0.0000  0.0000  0.1116  0.1116  0.0000  0.0000  0.0000  0.0000  0.0000 </r>
        <r>  0.0000  0.0000  0.1574  0.1574  0.0000  0.0000  0.0000  0.0000  0.0000 </r>
       </set>
       <set comment="band 5">
        <r>  0.0000  0.0988  0.0000  0.0000  0.0000  0.0000  0.0000  0.0000  0.0000 </r>
        <r>  0.0909  0.0000  0.0000  0.0000  0.0000  0.0000  0.0000  0.0000  0.0000 </r>
       </set>
       <set comment="band 6">
        <r>  0.2532  0.0000  0.0000  0.0000  0.0000  0.0000  0.0000  0.0000  0.0000 </r>
        <r>  0.0000  0.0348  0.0000  0.0000  0.0000  0.0000  0.0000  0.0000  0.0000 </r>
       </set>
       <set comment="band 7">
        <r>  0.0000  0.0000  0.2011  0.0114  0.0000  0.0000  0.0000  0.0000  0.0000 </r>
        <r>  0.0000  0.0000  0.0167  0.2935  0.0000  0.0000  0.0000  0.0000  0.0000 </r>
       </set>
       <set comment="band 8">
        <r>  0.0010  0.0000  0.0101  0.1970  0.0000  0.0000  0.0000  0.0000  0.0000 </r>
        <r>  0.0000  0.0065  0.2882  0.0160  0.0000  0.0000  0.0000  0.0000  0.0000 </r>
       </set>
      </set>
      <set comment="kpoint 142">
       <set comment="band 1">
        <r>  0.0000  0.1323  0.0000  0.0000  0.0000  0.0000  0.0000  0.0000  0.0000 </r>
        <r>  0.4306  0.0000  0.0000  0.0000  0.0000  0.0000  0.0000  0.0000  0.0000 </r>
       </set>
       <set comment="band 2">
        <r>  0.3492  0.0000  0.0000  0.0000  0.0000  0.0000  0.0000  0.0000  0.0000 </r>
        <r>  0.0000  0.1841  0.0000  0.0000  0.0000  0.0000  0.0000  0.0000  0.0000 </r>
       </set>
       <set comment="band 3">
        <r>  0.0003  0.0004  0.1112  0.1112  0.0000  0.0000  0.0000  0.0000  0.0000 </r>
        <r>  0.0001  0.0001  0.1568  0.1568  0.0000  0.0000  0.0000  0.0000  0.0000 </r>
       </set>
       <set comment="band 4">
        <r>  0.0000  0.0000  0.1116  0.1116  0.0000  0.0000  0.0000  0.0000  0.0000 </r>
        <r>  0.0000  0.0000  0.1575  0.1575  0.0000  0.0000  0.0000  0.0000  0.0000 </r>
       </set>
       <set comment="band 5">
        <r>  0.0000  0.0985  0.0001  0.0001  0.0000  0.0000  0.0000  0.0000  0.0000 </r>
        <r>  0.0907  0.0000  0.0005  0.0005  0.0000  0.0000  0.0000  0.0000  0.0000 </r>
       </set>
       <set comment="band 6">
        <r>  0.2528  0.0000  0.0002  0.0002  0.0000  0.0000  0.0000  0.0000  0.0000 </r>
        <r>  0.0000  0.0348  0.0002  0.0002  0.0000  0.0000  0.0000  0.0000  0.0000 </r>
       </set>
       <set comment="band 7">
        <r>  0.0000  0.0000  0.1081  0.1042  0.0000  0.0000  0.0000  0.0000  0.0000 </r>
        <r>  0.0000  0.0001  0.1522  0.1574  0.0000  0.0000  0.0000  0.0000  0.0000 </r>
       </set>
       <set comment="band 8">
        <r>  0.0000  0.0004  0.1043  0.1079  0.0000  0.0000  0.0000  0.0000  0.0000 </r>
        <r>  0.0004  0.0001  0.1572  0.1522  0.0000  0.0000  0.0000  0.0000  0.0000 </r>
       </set>
      </set>
      <set comment="kpoint 143">
       <set comment="band 1">
        <r>  0.0000  0.1320  0.0001  0.0001  0.0000  0.0000  0.0000  0.0000  0.0000 </r>
        <r>  0.4309  0.0000  0.0000  0.0000  0.0000  0.0000  0.0000  0.0000  0.0000 </r>
       </set>
       <set comment="band 2">
        <r>  0.3494  0.0000  0.0000  0.0000  0.0000  0.0000  0.0000  0.0000  0.0000 </r>
        <r>  0.0000  0.1841  0.0001  0.0001  0.0000  0.0000  0.0000  0.0000  0.0000 </r>
       </set>
       <set comment="band 3">
        <r>  0.0012  0.0016  0.1101  0.1101  0.0000  0.0000  0.0000  0.0000  0.0000 </r>
        <r>  0.0005  0.0004  0.1548  0.1548  0.0000  0.0000  0.0000  0.0000  0.0000 </r>
       </set>
       <set comment="band 4">
        <r>  0.0000  0.0000  0.1115  0.1115  0.0000  0.0000  0.0000  0.0000  0.0000 </r>
        <r>  0.0000  0.0000  0.1575  0.1575  0.0000  0.0000  0.0000  0.0000  0.0000 </r>
       </set>
       <set comment="band 5">
        <r>  0.0001  0.0975  0.0005  0.0005  0.0000  0.0000  0.0000  0.0000  0.0000 </r>
        <r>  0.0899  0.0000  0.0020  0.0020  0.0000  0.0000  0.0000  0.0000  0.0000 </r>
       </set>
       <set comment="band 6">
        <r>  0.2515  0.0000  0.0007  0.0007  0.0000  0.0000  0.0000  0.0000  0.0000 </r>
        <r>  0.0000  0.0347  0.0010  0.0010  0.0000  0.0000  0.0000  0.0000  0.0000 </r>
       </set>
       <set comment="band 7">
        <r>  0.0002  0.0002  0.0838  0.1247  0.0000  0.0000  0.0000  0.0000  0.0000 </r>
        <r>  0.0002  0.0010  0.1830  0.1225  0.0000  0.0000  0.0000  0.0000  0.0000 </r>
       </set>
       <set comment="band 8">
        <r>  0.0000  0.0013  0.1274  0.0844  0.0000  0.0000  0.0000  0.0000  0.0000 </r>
        <r>  0.0015  0.0012  0.1226  0.1845  0.0000  0.0000  0.0000  0.0000  0.0000 </r>
       </set>
      </set>
      <set comment="kpoint 144">
       <set comment="band 1">
        <r>  0.0000  0.1315  0.0003  0.0003  0.0000  0.0000  0.0000  0.0000  0.0000 </r>
        <r>  0.4312  0.0000  0.0000  0.0000  0.0000  0.0000  0.0000  0.0000  0.0000 </r>
       </set>
       <set comment="band 2">
        <r>  0.3497  0.0000  0.0001  0.0001  0.0000  0.0000  0.0000  0.0000  0.0000 </r>
        <r>  0.0000  0.1839  0.0002  0.0002  0.0000  0.0000  0.0000  0.0000  0.0000 </r>
       </set>
       <set comment="band 3">
        <r>  0.0025  0.0035  0.1084  0.1084  0.0000  0.0000  0.0000  0.0000  0.0000 </r>
        <r>  0.0010  0.0009  0.1518  0.1518  0.0000  0.0000  0.0000  0.0000  0.0000 </r>
       </set>
       <set comment="band 4">
        <r>  0.0000  0.0000  0.1115  0.1115  0.0000  0.0000  0.0000  0.0000  0.0000 </r>
        <r>  0.0000  0.0000  0.1577  0.1577  0.0000  0.0000  0.0000  0.0000  0.0000 </r>
       </set>
       <set comment="band 5">
        <r>  0.0003  0.0959  0.0011  0.0011  0.0000  0.0000  0.0000  0.0000  0.0000 </r>
        <r>  0.0886  0.0001  0.0042  0.0042  0.0000  0.0000  0.0000  0.0000  0.0000 </r>
       </set>
       <set comment="band 6">
        <r>  0.2492  0.0000  0.0016  0.0016  0.0000  0.0000  0.0000  0.0000  0.0000 </r>
        <r>  0.0000  0.0345  0.0023  0.0023  0.0000  0.0000  0.0000  0.0000  0.0000 </r>
       </set>
       <set comment="band 7">
        <r>  0.0000  0.0000  0.1083  0.1027  0.0000  0.0000  0.0000  0.0000  0.0000 </r>
        <r>  0.0000  0.0001  0.1491  0.1567  0.0000  0.0000  0.0000  0.0000  0.0000 </r>
       </set>
       <set comment="band 8">
        <r>  0.0001  0.0034  0.1027  0.1067  0.0000  0.0000  0.0000  0.0000  0.0000 </r>
        <r>  0.0037  0.0002  0.1552  0.1483  0.0000  0.0000  0.0000  0.0000  0.0000 </r>
       </set>
      </set>
      <set comment="kpoint 145">
       <set comment="band 1">
        <r>  0.0000  0.1307  0.0005  0.0005  0.0000  0.0000  0.0000  0.0000  0.0000 </r>
        <r>  0.4317  0.0000  0.0000  0.0000  0.0000  0.0000  0.0000  0.0000  0.0000 </r>
       </set>
       <set comment="band 2">
        <r>  0.3502  0.0000  0.0002  0.0002  0.0000  0.0000  0.0000  0.0000  0.0000 </r>
        <r>  0.0000  0.1837  0.0003  0.0003  0.0000  0.0000  0.0000  0.0000  0.0000 </r>
       </set>
       <set comment="band 3">
        <r>  0.0042  0.0059  0.1063  0.1063  0.0000  0.0000  0.0000  0.0000  0.0000 </r>
        <r>  0.0016  0.0016  0.1480  0.1480  0.0000  0.0000  0.0000  0.0000  0.0000 </r>
       </set>
       <set comment="band 4">
        <r>  0.0000  0.0000  0.1113  0.1113  0.0000  0.0000  0.0000  0.0000  0.0000 </r>
        <r>  0.0000  0.0000  0.1578  0.1578  0.0000  0.0000  0.0000  0.0000  0.0000 </r>
       </set>
       <set comment="band 5">
        <r>  0.0010  0.0940  0.0017  0.0017  0.0000  0.0000  0.0000  0.0000  0.0000 </r>
        <r>  0.0869  0.0002  0.0069  0.0069  0.0000  0.0000  0.0000  0.0000  0.0000 </r>
       </set>
       <set comment="band 6">
        <r>  0.2460  0.0001  0.0028  0.0028  0.0000  0.0000  0.0000  0.0000  0.0000 </r>
        <r>  0.0001  0.0342  0.0041  0.0041  0.0000  0.0000  0.0000  0.0000  0.0000 </r>
       </set>
       <set comment="band 7">
        <r>  0.0001  0.0000  0.1175  0.0927  0.0000  0.0000  0.0000  0.0000  0.0000 </r>
        <r>  0.0000  0.0007  0.1327  0.1689  0.0000  0.0000  0.0000  0.0000  0.0000 </r>
       </set>
       <set comment="band 8">
        <r>  0.0001  0.0060  0.0917  0.1141  0.0000  0.0000  0.0000  0.0000  0.0000 </r>
        <r>  0.0066  0.0025  0.1643  0.1309  0.0000  0.0000  0.0000  0.0000  0.0000 </r>
       </set>
      </set>
      <set comment="kpoint 146">
       <set comment="band 1">
        <r>  0.0001  0.1298  0.0009  0.0009  0.0000  0.0000  0.0000  0.0000  0.0000 </r>
        <r>  0.4323  0.0000  0.0000  0.0000  0.0000  0.0000  0.0000  0.0000  0.0000 </r>
       </set>
       <set comment="band 2">
        <r>  0.3508  0.0000  0.0003  0.0003  0.0000  0.0000  0.0000  0.0000  0.0000 </r>
        <r>  0.0000  0.1834  0.0004  0.0004  0.0000  0.0000  0.0000  0.0000  0.0000 </r>
       </set>
       <set comment="band 3">
        <r>  0.0060  0.0088  0.1038  0.1038  0.0000  0.0000  0.0000  0.0000  0.0000 </r>
        <r>  0.0022  0.0025  0.1436  0.1436  0.0000  0.0000  0.0000  0.0000  0.0000 </r>
       </set>
       <set comment="band 4">
        <r>  0.0000  0.0000  0.1112  0.1112  0.0000  0.0000  0.0000  0.0000  0.0000 </r>
        <r>  0.0000  0.0000  0.1581  0.1581  0.0000  0.0000  0.0000  0.0000  0.0000 </r>
       </set>
       <set comment="band 5">
        <r>  0.0023  0.0917  0.0022  0.0022  0.0000  0.0000  0.0000  0.0000  0.0000 </r>
        <r>  0.0849  0.0003  0.0097  0.0097  0.0000  0.0000  0.0000  0.0000  0.0000 </r>
       </set>
       <set comment="band 6">
        <r>  0.2417  0.0002  0.0044  0.0044  0.0000  0.0000  0.0000  0.0000  0.0000 </r>
        <r>  0.0002  0.0337  0.0065  0.0065  0.0000  0.0000  0.0000  0.0000  0.0000 </r>
       </set>
       <set comment="band 7">
        <r>  0.0000  0.0000  0.1025  0.1077  0.0000  0.0000  0.0000  0.0000  0.0000 </r>
        <r>  0.0000  0.0002  0.1531  0.1463  0.0000  0.0000  0.0000  0.0000  0.0000 </r>
       </set>
       <set comment="band 8">
        <r>  0.0000  0.0092  0.1041  0.1002  0.0000  0.0000  0.0000  0.0000  0.0000 </r>
        <r>  0.0102  0.0029  0.1422  0.1478  0.0000  0.0000  0.0000  0.0000  0.0000 </r>
       </set>
      </set>
      <set comment="kpoint 147">
       <set comment="band 1">
        <r>  0.0002  0.1285  0.0012  0.0012  0.0000  0.0000  0.0000  0.0000  0.0000 </r>
        <r>  0.4330  0.0000  0.0000  0.0000  0.0000  0.0000  0.0000  0.0000  0.0000 </r>
       </set>
       <set comment="band 2">
        <r>  0.3515  0.0001  0.0004  0.0004  0.0000  0.0000  0.0000  0.0000  0.0000 </r>
        <r>  0.0000  0.1830  0.0007  0.0007  0.0000  0.0000  0.0000  0.0000  0.0000 </r>
       </set>
       <set comment="band 3">
        <r>  0.0078  0.0119  0.1012  0.1012  0.0000  0.0000  0.0000  0.0000  0.0000 </r>
        <r>  0.0027  0.0036  0.1390  0.1390  0.0000  0.0000  0.0000  0.0000  0.0000 </r>
       </set>
       <set comment="band 4">
        <r>  0.0000  0.0000  0.1110  0.1110  0.0000  0.0000  0.0000  0.0000  0.0000 </r>
        <r>  0.0000  0.0000  0.1583  0.1583  0.0000  0.0000  0.0000  0.0000  0.0000 </r>
       </set>
       <set comment="band 5">
        <r>  0.0043  0.0893  0.0025  0.0025  0.0000  0.0000  0.0000  0.0000  0.0000 </r>
        <r>  0.0827  0.0007  0.0124  0.0124  0.0000  0.0000  0.0000  0.0000  0.0000 </r>
       </set>
       <set comment="band 6">
        <r>  0.2364  0.0003  0.0061  0.0061  0.0000  0.0000  0.0000  0.0000  0.0000 </r>
        <r>  0.0003  0.0332  0.0094  0.0094  0.0000  0.0000  0.0000  0.0000  0.0000 </r>
       </set>
       <set comment="band 7">
        <r>  0.0000  0.0000  0.1064  0.1024  0.0000  0.0000  0.0000  0.0000  0.0000 </r>
        <r>  0.0000  0.0000  0.1448  0.1498  0.0000  0.0000  0.0000  0.0000  0.0000 </r>
       </set>
       <set comment="band 8">
        <r>  0.0001  0.0135  0.0978  0.0998  0.0000  0.0000  0.0000  0.0000  0.0000 </r>
        <r>  0.0145  0.0063  0.1412  0.1376  0.0000  0.0000  0.0000  0.0000  0.0000 </r>
       </set>
      </set>
      <set comment="kpoint 148">
       <set comment="band 1">
        <r>  0.0004  0.1270  0.0017  0.0017  0.0000  0.0000  0.0000  0.0000  0.0000 </r>
        <r>  0.4338  0.0000  0.0000  0.0000  0.0000  0.0000  0.0000  0.0000  0.0000 </r>
       </set>
       <set comment="band 2">
        <r>  0.3524  0.0001  0.0005  0.0005  0.0000  0.0000  0.0000  0.0000  0.0000 </r>
        <r>  0.0000  0.1825  0.0009  0.0009  0.0000  0.0000  0.0000  0.0000  0.0000 </r>
       </set>
       <set comment="band 3">
        <r>  0.0095  0.0153  0.0984  0.0984  0.0000  0.0000  0.0000  0.0000  0.0000 </r>
        <r>  0.0030  0.0048  0.1342  0.1342  0.0000  0.0000  0.0000  0.0000  0.0000 </r>
       </set>
       <set comment="band 4">
        <r>  0.0000  0.0000  0.1107  0.1107  0.0000  0.0000  0.0000  0.0000  0.0000 </r>
        <r>  0.0000  0.0000  0.1587  0.1587  0.0000  0.0000  0.0000  0.0000  0.0000 </r>
       </set>
       <set comment="band 5">
        <r>  0.0071  0.0868  0.0027  0.0027  0.0000  0.0000  0.0000  0.0000  0.0000 </r>
        <r>  0.0804  0.0011  0.0148  0.0148  0.0000  0.0000  0.0000  0.0000  0.0000 </r>
       </set>
       <set comment="band 6">
        <r>  0.2300  0.0005  0.0080  0.0080  0.0000  0.0000  0.0000  0.0000  0.0000 </r>
        <r>  0.0005  0.0326  0.0130  0.0130  0.0000  0.0000  0.0000  0.0000  0.0000 </r>
       </set>
       <set comment="band 7">
        <r>  0.0000  0.0000  0.1035  0.1045  0.0000  0.0000  0.0000  0.0000  0.0000 </r>
        <r>  0.0000  0.0001  0.1449  0.1447  0.0000  0.0000  0.0000  0.0000  0.0000 </r>
       </set>
       <set comment="band 8">
        <r>  0.0000  0.0172  0.0986  0.0993  0.0000  0.0000  0.0000  0.0000  0.0000 </r>
        <r>  0.0188  0.0062  0.1368  0.1353  0.0000  0.0000  0.0000  0.0000  0.0000 </r>
       </set>
      </set>
      <set comment="kpoint 149">
       <set comment="band 1">
        <r>  0.0006  0.1253  0.0022  0.0022  0.0000  0.0000  0.0000  0.0000  0.0000 </r>
        <r>  0.4347  0.0000  0.0000  0.0000  0.0000  0.0000  0.0000  0.0000  0.0000 </r>
       </set>
       <set comment="band 2">
        <r>  0.3535  0.0002  0.0006  0.0006  0.0000  0.0000  0.0000  0.0000  0.0000 </r>
        <r>  0.0001  0.1819  0.0013  0.0013  0.0000  0.0000  0.0000  0.0000  0.0000 </r>
       </set>
       <set comment="band 3">
        <r>  0.0109  0.0187  0.0957  0.0957  0.0000  0.0000  0.0000  0.0000  0.0000 </r>
        <r>  0.0032  0.0063  0.1296  0.1296  0.0000  0.0000  0.0000  0.0000  0.0000 </r>
       </set>
       <set comment="band 4">
        <r>  0.0000  0.0000  0.1104  0.1104  0.0000  0.0000  0.0000  0.0000  0.0000 </r>
        <r>  0.0000  0.0000  0.1590  0.1590  0.0000  0.0000  0.0000  0.0000  0.0000 </r>
       </set>
       <set comment="band 5">
        <r>  0.0106  0.0842  0.0026  0.0026  0.0000  0.0000  0.0000  0.0000  0.0000 </r>
        <r>  0.0779  0.0016  0.0167  0.0167  0.0000  0.0000  0.0000  0.0000  0.0000 </r>
       </set>
       <set comment="band 6">
        <r>  0.2228  0.0008  0.0100  0.0100  0.0000  0.0000  0.0000  0.0000  0.0000 </r>
        <r>  0.0007  0.0318  0.0171  0.0171  0.0000  0.0000  0.0000  0.0000  0.0000 </r>
       </set>
       <set comment="band 7">
        <r>  0.0001  0.0000  0.1074  0.1000  0.0000  0.0000  0.0000  0.0000  0.0000 </r>
        <r>  0.0000  0.0003  0.1376  0.1460  0.0000  0.0000  0.0000  0.0000  0.0000 </r>
       </set>
       <set comment="band 8">
        <r>  0.0001  0.0225  0.0924  0.0957  0.0000  0.0000  0.0000  0.0000  0.0000 </r>
        <r>  0.0239  0.0144  0.1297  0.1260  0.0000  0.0000  0.0000  0.0000  0.0000 </r>
       </set>
      </set>
      <set comment="kpoint 150">
       <set comment="band 1">
        <r>  0.0010  0.1232  0.0029  0.0029  0.0000  0.0000  0.0000  0.0000  0.0000 </r>
        <r>  0.4357  0.0000  0.0000  0.0000  0.0000  0.0000  0.0000  0.0000  0.0000 </r>
       </set>
       <set comment="band 2">
        <r>  0.3547  0.0004  0.0008  0.0008  0.0000  0.0000  0.0000  0.0000  0.0000 </r>
        <r>  0.0001  0.1810  0.0018  0.0018  0.0000  0.0000  0.0000  0.0000  0.0000 </r>
       </set>
       <set comment="band 3">
        <r>  0.0120  0.0223  0.0931  0.0931  0.0000  0.0000  0.0000  0.0000  0.0000 </r>
        <r>  0.0032  0.0080  0.1250  0.1250  0.0000  0.0000  0.0000  0.0000  0.0000 </r>
       </set>
       <set comment="band 4">
        <r>  0.0000  0.0000  0.1101  0.1101  0.0000  0.0000  0.0000  0.0000  0.0000 </r>
        <r>  0.0000  0.0000  0.1595  0.1595  0.0000  0.0000  0.0000  0.0000  0.0000 </r>
       </set>
       <set comment="band 5">
        <r>  0.0149  0.0818  0.0024  0.0024  0.0000  0.0000  0.0000  0.0000  0.0000 </r>
        <r>  0.0754  0.0023  0.0183  0.0183  0.0000  0.0000  0.0000  0.0000  0.0000 </r>
       </set>
       <set comment="band 6">
        <r>  0.2149  0.0010  0.0119  0.0119  0.0000  0.0000  0.0000  0.0000  0.0000 </r>
        <r>  0.0009  0.0310  0.0217  0.0217  0.0000  0.0000  0.0000  0.0000  0.0000 </r>
       </set>
       <set comment="band 7">
        <r>  0.0000  0.0000  0.1031  0.1037  0.0000  0.0000  0.0000  0.0000  0.0000 </r>
        <r>  0.0000  0.0002  0.1398  0.1392  0.0000  0.0000  0.0000  0.0000  0.0000 </r>
       </set>
       <set comment="band 8">
        <r>  0.0000  0.0278  0.0938  0.0943  0.0000  0.0000  0.0000  0.0000  0.0000 </r>
        <r>  0.0295  0.0123  0.1237  0.1234  0.0000  0.0000  0.0000  0.0000  0.0000 </r>
       </set>
      </set>
      <set comment="kpoint 151">
       <set comment="band 1">
        <r>  0.0016  0.1208  0.0036  0.0036  0.0000  0.0000  0.0000  0.0000  0.0000 </r>
        <r>  0.4366  0.0001  0.0000  0.0000  0.0000  0.0000  0.0000  0.0000  0.0000 </r>
       </set>
       <set comment="band 2">
        <r>  0.3560  0.0006  0.0009  0.0009  0.0000  0.0000  0.0000  0.0000  0.0000 </r>
        <r>  0.0002  0.1799  0.0023  0.0023  0.0000  0.0000  0.0000  0.0000  0.0000 </r>
       </set>
       <set comment="band 3">
        <r>  0.0126  0.0259  0.0905  0.0905  0.0000  0.0000  0.0000  0.0000  0.0000 </r>
        <r>  0.0030  0.0100  0.1205  0.1205  0.0000  0.0000  0.0000  0.0000  0.0000 </r>
       </set>
       <set comment="band 4">
        <r>  0.0000  0.0000  0.1098  0.1098  0.0000  0.0000  0.0000  0.0000  0.0000 </r>
        <r>  0.0000  0.0000  0.1600  0.1600  0.0000  0.0000  0.0000  0.0000  0.0000 </r>
       </set>
       <set comment="band 5">
        <r>  0.0197  0.0794  0.0020  0.0020  0.0000  0.0000  0.0000  0.0000  0.0000 </r>
        <r>  0.0728  0.0031  0.0194  0.0194  0.0000  0.0000  0.0000  0.0000  0.0000 </r>
       </set>
       <set comment="band 6">
        <r>  0.2065  0.0013  0.0138  0.0138  0.0000  0.0000  0.0000  0.0000  0.0000 </r>
        <r>  0.0011  0.0301  0.0268  0.0268  0.0000  0.0000  0.0000  0.0000  0.0000 </r>
       </set>
       <set comment="band 7">
        <r>  0.0000  0.0000  0.1021  0.1034  0.0000  0.0000  0.0000  0.0000  0.0000 </r>
        <r>  0.0000  0.0001  0.1373  0.1351  0.0000  0.0000  0.0000  0.0000  0.0000 </r>
       </set>
       <set comment="band 8">
        <r>  0.0003  0.0337  0.0911  0.0893  0.0000  0.0000  0.0000  0.0000  0.0000 </r>
        <r>  0.0350  0.0213  0.1143  0.1162  0.0000  0.0000  0.0000  0.0000  0.0000 </r>
       </set>
      </set>
      <set comment="kpoint 152">
       <set comment="band 1">
        <r>  0.0024  0.1181  0.0044  0.0044  0.0000  0.0000  0.0000  0.0000  0.0000 </r>
        <r>  0.4375  0.0001  0.0000  0.0000  0.0000  0.0000  0.0000  0.0000  0.0000 </r>
       </set>
       <set comment="band 2">
        <r>  0.3575  0.0009  0.0010  0.0010  0.0000  0.0000  0.0000  0.0000  0.0000 </r>
        <r>  0.0004  0.1785  0.0030  0.0030  0.0000  0.0000  0.0000  0.0000  0.0000 </r>
       </set>
       <set comment="band 3">
        <r>  0.0127  0.0296  0.0879  0.0879  0.0000  0.0000  0.0000  0.0000  0.0000 </r>
        <r>  0.0026  0.0123  0.1162  0.1162  0.0000  0.0000  0.0000  0.0000  0.0000 </r>
       </set>
       <set comment="band 4">
        <r>  0.0000  0.0000  0.1094  0.1094  0.0000  0.0000  0.0000  0.0000  0.0000 </r>
        <r>  0.0000  0.0000  0.1605  0.1605  0.0000  0.0000  0.0000  0.0000  0.0000 </r>
       </set>
       <set comment="band 5">
        <r>  0.0247  0.0771  0.0016  0.0016  0.0000  0.0000  0.0000  0.0000  0.0000 </r>
        <r>  0.0703  0.0039  0.0202  0.0202  0.0000  0.0000  0.0000  0.0000  0.0000 </r>
       </set>
       <set comment="band 6">
        <r>  0.1979  0.0015  0.0155  0.0155  0.0000  0.0000  0.0000  0.0000  0.0000 </r>
        <r>  0.0012  0.0292  0.0324  0.0324  0.0000  0.0000  0.0000  0.0000  0.0000 </r>
       </set>
       <set comment="band 7">
        <r>  0.0000  0.0000  0.1050  0.1000  0.0000  0.0000  0.0000  0.0000  0.0000 </r>
        <r>  0.0000  0.0000  0.1306  0.1360  0.0000  0.0000  0.0000  0.0000  0.0000 </r>
       </set>
       <set comment="band 8">
        <r>  0.0017  0.0391  0.0794  0.0839  0.0000  0.0000  0.0000  0.0000  0.0000 </r>
        <r>  0.0395  0.0439  0.1059  0.0999  0.0000  0.0000  0.0000  0.0000  0.0000 </r>
       </set>
      </set>
      <set comment="kpoint 153">
       <set comment="band 1">
        <r>  0.0034  0.1150  0.0053  0.0053  0.0000  0.0000  0.0000  0.0000  0.0000 </r>
        <r>  0.4384  0.0001  0.0000  0.0000  0.0000  0.0000  0.0000  0.0000  0.0000 </r>
       </set>
       <set comment="band 2">
        <r>  0.3591  0.0013  0.0011  0.0011  0.0000  0.0000  0.0000  0.0000  0.0000 </r>
        <r>  0.0006  0.1766  0.0039  0.0039  0.0000  0.0000  0.0000  0.0000  0.0000 </r>
       </set>
       <set comment="band 3">
        <r>  0.0123  0.0334  0.0855  0.0855  0.0000  0.0000  0.0000  0.0000  0.0000 </r>
        <r>  0.0021  0.0151  0.1120  0.1120  0.0000  0.0000  0.0000  0.0000  0.0000 </r>
       </set>
       <set comment="band 4">
        <r>  0.0000  0.0000  0.1090  0.1090  0.0000  0.0000  0.0000  0.0000  0.0000 </r>
        <r>  0.0000  0.0000  0.1611  0.1611  0.0000  0.0000  0.0000  0.0000  0.0000 </r>
       </set>
       <set comment="band 5">
        <r>  0.0299  0.0750  0.0012  0.0012  0.0000  0.0000  0.0000  0.0000  0.0000 </r>
        <r>  0.0679  0.0048  0.0207  0.0207  0.0000  0.0000  0.0000  0.0000  0.0000 </r>
       </set>
       <set comment="band 6">
        <r>  0.1892  0.0017  0.0169  0.0169  0.0000  0.0000  0.0000  0.0000  0.0000 </r>
        <r>  0.0012  0.0283  0.0383  0.0383  0.0000  0.0000  0.0000  0.0000  0.0000 </r>
       </set>
       <set comment="band 7">
        <r>  0.0000  0.0000  0.1044  0.1012  0.0000  0.0000  0.0000  0.0000  0.0000 </r>
        <r>  0.0000  0.0001  0.1287  0.1316  0.0000  0.0000  0.0000  0.0000  0.0000 </r>
       </set>
       <set comment="band 8">
        <r>  0.0012  0.0465  0.0825  0.0817  0.0000  0.0000  0.0000  0.0000  0.0000 </r>
        <r>  0.0461  0.0383  0.0975  0.0974  0.0000  0.0000  0.0000  0.0000  0.0000 </r>
       </set>
      </set>
      <set comment="kpoint 154">
       <set comment="band 1">
        <r>  0.0048  0.1116  0.0063  0.0063  0.0000  0.0000  0.0000  0.0000  0.0000 </r>
        <r>  0.4391  0.0002  0.0000  0.0000  0.0000  0.0000  0.0000  0.0000  0.0000 </r>
       </set>
       <set comment="band 2">
        <r>  0.3606  0.0020  0.0011  0.0011  0.0000  0.0000  0.0000  0.0000  0.0000 </r>
        <r>  0.0009  0.1743  0.0050  0.0050  0.0000  0.0000  0.0000  0.0000  0.0000 </r>
       </set>
       <set comment="band 3">
        <r>  0.0113  0.0372  0.0832  0.0832  0.0000  0.0000  0.0000  0.0000  0.0000 </r>
        <r>  0.0016  0.0184  0.1079  0.1079  0.0000  0.0000  0.0000  0.0000  0.0000 </r>
       </set>
       <set comment="band 4">
        <r>  0.0000  0.0000  0.1085  0.1085  0.0000  0.0000  0.0000  0.0000  0.0000 </r>
        <r>  0.0000  0.0000  0.1618  0.1618  0.0000  0.0000  0.0000  0.0000  0.0000 </r>
       </set>
       <set comment="band 5">
        <r>  0.0351  0.0731  0.0008  0.0008  0.0000  0.0000  0.0000  0.0000  0.0000 </r>
        <r>  0.0656  0.0057  0.0210  0.0210  0.0000  0.0000  0.0000  0.0000  0.0000 </r>
       </set>
       <set comment="band 6">
        <r>  0.1807  0.0018  0.0180  0.0180  0.0000  0.0000  0.0000  0.0000  0.0000 </r>
        <r>  0.0012  0.0274  0.0445  0.0445  0.0000  0.0000  0.0000  0.0000  0.0000 </r>
       </set>
       <set comment="band 7">
        <r>  0.0000  0.0000  0.1021  0.1014  0.0000  0.0000  0.0000  0.0000  0.0000 </r>
        <r>  0.0000  0.0000  0.1262  0.1266  0.0000  0.0000  0.0000  0.0000  0.0000 </r>
       </set>
       <set comment="band 8">
        <r>  0.0025  0.0531  0.0775  0.0770  0.0000  0.0000  0.0000  0.0000  0.0000 </r>
        <r>  0.0510  0.0529  0.0871  0.0873  0.0000  0.0000  0.0000  0.0000  0.0000 </r>
       </set>
      </set>
      <set comment="kpoint 155">
       <set comment="band 1">
        <r>  0.0066  0.1077  0.0075  0.0075  0.0000  0.0000  0.0000  0.0000  0.0000 </r>
        <r>  0.4396  0.0002  0.0000  0.0000  0.0000  0.0000  0.0000  0.0000  0.0000 </r>
       </set>
       <set comment="band 2">
        <r>  0.3621  0.0029  0.0011  0.0011  0.0000  0.0000  0.0000  0.0000  0.0000 </r>
        <r>  0.0013  0.1713  0.0063  0.0063  0.0000  0.0000  0.0000  0.0000  0.0000 </r>
       </set>
       <set comment="band 3">
        <r>  0.0097  0.0410  0.0810  0.0810  0.0000  0.0000  0.0000  0.0000  0.0000 </r>
        <r>  0.0011  0.0224  0.1038  0.1038  0.0000  0.0000  0.0000  0.0000  0.0000 </r>
       </set>
       <set comment="band 4">
        <r>  0.0000  0.0000  0.1080  0.1080  0.0000  0.0000  0.0000  0.0000  0.0000 </r>
        <r>  0.0000  0.0000  0.1625  0.1625  0.0000  0.0000  0.0000  0.0000  0.0000 </r>
       </set>
       <set comment="band 5">
        <r>  0.0400  0.0713  0.0005  0.0005  0.0000  0.0000  0.0000  0.0000  0.0000 </r>
        <r>  0.0634  0.0066  0.0211  0.0211  0.0000  0.0000  0.0000  0.0000  0.0000 </r>
       </set>
       <set comment="band 6">
        <r>  0.1725  0.0018  0.0187  0.0187  0.0000  0.0000  0.0000  0.0000  0.0000 </r>
        <r>  0.0010  0.0266  0.0511  0.0511  0.0000  0.0000  0.0000  0.0000  0.0000 </r>
       </set>
       <set comment="band 7">
        <r>  0.0000  0.0000  0.0998  0.1025  0.0000  0.0000  0.0000  0.0000  0.0000 </r>
        <r>  0.0000  0.0001  0.1244  0.1216  0.0000  0.0000  0.0000  0.0000  0.0000 </r>
       </set>
       <set comment="band 8">
        <r>  0.0054  0.0601  0.0695  0.0695  0.0000  0.0000  0.0000  0.0000  0.0000 </r>
        <r>  0.0546  0.0765  0.0740  0.0744  0.0000  0.0000  0.0000  0.0000  0.0000 </r>
       </set>
      </set>
      <set comment="kpoint 156">
       <set comment="band 1">
        <r>  0.0089  0.1033  0.0087  0.0087  0.0000  0.0000  0.0000  0.0000  0.0000 </r>
        <r>  0.4397  0.0003  0.0000  0.0000  0.0000  0.0000  0.0000  0.0000  0.0000 </r>
       </set>
       <set comment="band 2">
        <r>  0.3633  0.0042  0.0011  0.0011  0.0000  0.0000  0.0000  0.0000  0.0000 </r>
        <r>  0.0019  0.1675  0.0080  0.0080  0.0000  0.0000  0.0000  0.0000  0.0000 </r>
       </set>
       <set comment="band 3">
        <r>  0.0077  0.0447  0.0788  0.0788  0.0000  0.0000  0.0000  0.0000  0.0000 </r>
        <r>  0.0006  0.0272  0.0995  0.0995  0.0000  0.0000  0.0000  0.0000  0.0000 </r>
       </set>
       <set comment="band 4">
        <r>  0.0000  0.0000  0.1074  0.1074  0.0000  0.0000  0.0000  0.0000  0.0000 </r>
        <r>  0.0000  0.0000  0.1632  0.1632  0.0000  0.0000  0.0000  0.0000  0.0000 </r>
       </set>
       <set comment="band 5">
        <r>  0.0447  0.0697  0.0002  0.0002  0.0000  0.0000  0.0000  0.0000  0.0000 </r>
        <r>  0.0612  0.0076  0.0211  0.0211  0.0000  0.0000  0.0000  0.0000  0.0000 </r>
       </set>
       <set comment="band 6">
        <r>  0.1647  0.0017  0.0191  0.0191  0.0000  0.0000  0.0000  0.0000  0.0000 </r>
        <r>  0.0008  0.0257  0.0580  0.0580  0.0000  0.0000  0.0000  0.0000  0.0000 </r>
       </set>
       <set comment="band 7">
        <r>  0.0000  0.0000  0.1018  0.1008  0.0000  0.0000  0.0000  0.0000  0.0000 </r>
        <r>  0.0000  0.0000  0.1196  0.1202  0.0000  0.0000  0.0000  0.0000  0.0000 </r>
       </set>
       <set comment="band 8">
        <r>  0.0075  0.0659  0.0655  0.0657  0.0000  0.0000  0.0000  0.0000  0.0000 </r>
        <r>  0.0581  0.0917  0.0646  0.0645  0.0000  0.0000  0.0000  0.0000  0.0000 </r>
       </set>
      </set>
      <set comment="kpoint 157">
       <set comment="band 1">
        <r>  0.0118  0.0986  0.0100  0.0100  0.0000  0.0000  0.0000  0.0000  0.0000 </r>
        <r>  0.4393  0.0004  0.0001  0.0001  0.0000  0.0000  0.0000  0.0000  0.0000 </r>
       </set>
       <set comment="band 2">
        <r>  0.3640  0.0059  0.0010  0.0010  0.0000  0.0000  0.0000  0.0000  0.0000 </r>
        <r>  0.0027  0.1628  0.0101  0.0101  0.0000  0.0000  0.0000  0.0000  0.0000 </r>
       </set>
       <set comment="band 3">
        <r>  0.0055  0.0482  0.0768  0.0768  0.0000  0.0000  0.0000  0.0000  0.0000 </r>
        <r>  0.0002  0.0331  0.0951  0.0951  0.0000  0.0000  0.0000  0.0000  0.0000 </r>
       </set>
       <set comment="band 4">
        <r>  0.0000  0.0000  0.1068  0.1068  0.0000  0.0000  0.0000  0.0000  0.0000 </r>
        <r>  0.0000  0.0000  0.1641  0.1641  0.0000  0.0000  0.0000  0.0000  0.0000 </r>
       </set>
       <set comment="band 5">
        <r>  0.0491  0.0683  0.0001  0.0001  0.0000  0.0000  0.0000  0.0000  0.0000 </r>
        <r>  0.0592  0.0085  0.0210  0.0210  0.0000  0.0000  0.0000  0.0000  0.0000 </r>
       </set>
       <set comment="band 6">
        <r>  0.1573  0.0014  0.0190  0.0190  0.0000  0.0000  0.0000  0.0000  0.0000 </r>
        <r>  0.0005  0.0249  0.0653  0.0653  0.0000  0.0000  0.0000  0.0000  0.0000 </r>
       </set>
       <set comment="band 7">
        <r>  0.0000  0.0000  0.1021  0.0995  0.0000  0.0000  0.0000  0.0000  0.0000 </r>
        <r>  0.0000  0.0000  0.1156  0.1175  0.0000  0.0000  0.0000  0.0000  0.0000 </r>
       </set>
       <set comment="band 8">
        <r>  0.0136  0.0711  0.0559  0.0561  0.0000  0.0000  0.0000  0.0000  0.0000 </r>
        <r>  0.0581  0.1272  0.0503  0.0500  0.0000  0.0000  0.0000  0.0000  0.0000 </r>
       </set>
      </set>
      <set comment="kpoint 158">
       <set comment="band 1">
        <r>  0.0154  0.0934  0.0115  0.0115  0.0000  0.0000  0.0000  0.0000  0.0000 </r>
        <r>  0.4384  0.0005  0.0002  0.0002  0.0000  0.0000  0.0000  0.0000  0.0000 </r>
       </set>
       <set comment="band 2">
        <r>  0.3639  0.0082  0.0009  0.0009  0.0000  0.0000  0.0000  0.0000  0.0000 </r>
        <r>  0.0038  0.1570  0.0126  0.0126  0.0000  0.0000  0.0000  0.0000  0.0000 </r>
       </set>
       <set comment="band 3">
        <r>  0.0032  0.0514  0.0748  0.0748  0.0000  0.0000  0.0000  0.0000  0.0000 </r>
        <r>  0.0000  0.0400  0.0905  0.0905  0.0000  0.0000  0.0000  0.0000  0.0000 </r>
       </set>
       <set comment="band 4">
        <r>  0.0000  0.0000  0.1062  0.1062  0.0000  0.0000  0.0000  0.0000  0.0000 </r>
        <r>  0.0000  0.0000  0.1649  0.1649  0.0000  0.0000  0.0000  0.0000  0.0000 </r>
       </set>
       <set comment="band 5">
        <r>  0.0531  0.0671  0.0000  0.0000  0.0000  0.0000  0.0000  0.0000  0.0000 </r>
        <r>  0.0573  0.0093  0.0209  0.0209  0.0000  0.0000  0.0000  0.0000  0.0000 </r>
       </set>
       <set comment="band 6">
        <r>  0.1505  0.0011  0.0185  0.0185  0.0000  0.0000  0.0000  0.0000  0.0000 </r>
        <r>  0.0002  0.0241  0.0730  0.0730  0.0000  0.0000  0.0000  0.0000  0.0000 </r>
       </set>
       <set comment="band 7">
        <r>  0.0000  0.0000  0.1018  0.1014  0.0000  0.0000  0.0000  0.0000  0.0000 </r>
        <r>  0.0000  0.0000  0.1133  0.1135  0.0000  0.0000  0.0000  0.0000  0.0000 </r>
       </set>
       <set comment="band 8">
        <r>  0.0196  0.0756  0.0491  0.0495  0.0000  0.0000  0.0000  0.0000  0.0000 </r>
        <r>  0.0582  0.1542  0.0390  0.0389  0.0000  0.0000  0.0000  0.0000  0.0000 </r>
       </set>
      </set>
      <set comment="kpoint 159">
       <set comment="band 1">
        <r>  0.0197  0.0878  0.0130  0.0130  0.0000  0.0000  0.0000  0.0000  0.0000 </r>
        <r>  0.4366  0.0006  0.0003  0.0003  0.0000  0.0000  0.0000  0.0000  0.0000 </r>
       </set>
       <set comment="band 2">
        <r>  0.3625  0.0113  0.0008  0.0008  0.0000  0.0000  0.0000  0.0000  0.0000 </r>
        <r>  0.0054  0.1500  0.0157  0.0157  0.0000  0.0000  0.0000  0.0000  0.0000 </r>
       </set>
       <set comment="band 3">
        <r>  0.0013  0.0542  0.0728  0.0728  0.0000  0.0000  0.0000  0.0000  0.0000 </r>
        <r>  0.0000  0.0482  0.0854  0.0854  0.0000  0.0000  0.0000  0.0000  0.0000 </r>
       </set>
       <set comment="band 4">
        <r>  0.0000  0.0000  0.1055  0.1055  0.0000  0.0000  0.0000  0.0000  0.0000 </r>
        <r>  0.0000  0.0000  0.1659  0.1659  0.0000  0.0000  0.0000  0.0000  0.0000 </r>
       </set>
       <set comment="band 5">
        <r>  0.0567  0.0660  0.0000  0.0000  0.0000  0.0000  0.0000  0.0000  0.0000 </r>
        <r>  0.0555  0.0102  0.0208  0.0208  0.0000  0.0000  0.0000  0.0000  0.0000 </r>
       </set>
       <set comment="band 6">
        <r>  0.1441  0.0007  0.0175  0.0175  0.0000  0.0000  0.0000  0.0000  0.0000 </r>
        <r>  0.0000  0.0233  0.0811  0.0811  0.0000  0.0000  0.0000  0.0000  0.0000 </r>
       </set>
       <set comment="band 7">
        <r>  0.0000  0.0000  0.1017  0.1018  0.0000  0.0000  0.0000  0.0000  0.0000 </r>
        <r>  0.0000  0.0000  0.1101  0.1101  0.0000  0.0000  0.0000  0.0000  0.0000 </r>
       </set>
       <set comment="band 8">
        <r>  0.0282  0.0781  0.0407  0.0406  0.0000  0.0000  0.0000  0.0000  0.0000 </r>
        <r>  0.0551  0.1901  0.0272  0.0272  0.0000  0.0000  0.0000  0.0000  0.0000 </r>
       </set>
      </set>
      <set comment="kpoint 160">
       <set comment="band 1">
        <r>  0.0247  0.0818  0.0146  0.0146  0.0000  0.0000  0.0000  0.0000  0.0000 </r>
        <r>  0.4340  0.0007  0.0006  0.0006  0.0000  0.0000  0.0000  0.0000  0.0000 </r>
       </set>
       <set comment="band 2">
        <r>  0.3593  0.0152  0.0006  0.0006  0.0000  0.0000  0.0000  0.0000  0.0000 </r>
        <r>  0.0075  0.1417  0.0193  0.0193  0.0000  0.0000  0.0000  0.0000  0.0000 </r>
       </set>
       <set comment="band 3">
        <r>  0.0001  0.0564  0.0710  0.0710  0.0000  0.0000  0.0000  0.0000  0.0000 </r>
        <r>  0.0002  0.0578  0.0800  0.0800  0.0000  0.0000  0.0000  0.0000  0.0000 </r>
       </set>
       <set comment="band 4">
        <r>  0.0000  0.0000  0.1048  0.1048  0.0000  0.0000  0.0000  0.0000  0.0000 </r>
        <r>  0.0000  0.0000  0.1669  0.1669  0.0000  0.0000  0.0000  0.0000  0.0000 </r>
       </set>
       <set comment="band 5">
        <r>  0.0600  0.0650  0.0002  0.0002  0.0000  0.0000  0.0000  0.0000  0.0000 </r>
        <r>  0.0538  0.0111  0.0207  0.0207  0.0000  0.0000  0.0000  0.0000  0.0000 </r>
       </set>
       <set comment="band 6">
        <r>  0.1381  0.0003  0.0160  0.0160  0.0000  0.0000  0.0000  0.0000  0.0000 </r>
        <r>  0.0001  0.0224  0.0897  0.0897  0.0000  0.0000  0.0000  0.0000  0.0000 </r>
       </set>
       <set comment="band 7">
        <r>  0.0000  0.0000  0.1021  0.1023  0.0000  0.0000  0.0000  0.0000  0.0000 </r>
        <r>  0.0000  0.0000  0.1070  0.1068  0.0000  0.0000  0.0000  0.0000  0.0000 </r>
       </set>
       <set comment="band 8">
        <r>  0.0370  0.0798  0.0341  0.0341  0.0000  0.0000  0.0000  0.0000  0.0000 </r>
        <r>  0.0518  0.2186  0.0182  0.0183  0.0000  0.0000  0.0000  0.0000  0.0000 </r>
       </set>
      </set>
      <set comment="kpoint 161">
       <set comment="band 1">
        <r>  0.0247  0.0146  0.0818  0.0146  0.0000  0.0000  0.0000  0.0000  0.0000 </r>
        <r>  0.4340  0.0006  0.0007  0.0006  0.0000  0.0000  0.0000  0.0000  0.0000 </r>
       </set>
       <set comment="band 2">
        <r>  0.3593  0.0006  0.0152  0.0006  0.0000  0.0000  0.0000  0.0000  0.0000 </r>
        <r>  0.0075  0.0193  0.1417  0.0193  0.0000  0.0000  0.0000  0.0000  0.0000 </r>
       </set>
       <set comment="band 3">
        <r>  0.0001  0.0710  0.0564  0.0710  0.0000  0.0000  0.0000  0.0000  0.0000 </r>
        <r>  0.0002  0.0800  0.0578  0.0800  0.0000  0.0000  0.0000  0.0000  0.0000 </r>
       </set>
       <set comment="band 4">
        <r>  0.0000  0.1048  0.0000  0.1048  0.0000  0.0000  0.0000  0.0000  0.0000 </r>
        <r>  0.0000  0.1669  0.0000  0.1669  0.0000  0.0000  0.0000  0.0000  0.0000 </r>
       </set>
       <set comment="band 5">
        <r>  0.0600  0.0002  0.0650  0.0002  0.0000  0.0000  0.0000  0.0000  0.0000 </r>
        <r>  0.0538  0.0207  0.0111  0.0207  0.0000  0.0000  0.0000  0.0000  0.0000 </r>
       </set>
       <set comment="band 6">
        <r>  0.1381  0.0160  0.0003  0.0160  0.0000  0.0000  0.0000  0.0000  0.0000 </r>
        <r>  0.0001  0.0897  0.0224  0.0897  0.0000  0.0000  0.0000  0.0000  0.0000 </r>
       </set>
       <set comment="band 7">
        <r>  0.0000  0.1021  0.0000  0.1022  0.0000  0.0000  0.0000  0.0000  0.0000 </r>
        <r>  0.0000  0.1069  0.0000  0.1068  0.0000  0.0000  0.0000  0.0000  0.0000 </r>
       </set>
       <set comment="band 8">
        <r>  0.0369  0.0342  0.0803  0.0342  0.0000  0.0000  0.0000  0.0000  0.0000 </r>
        <r>  0.0521  0.0182  0.2180  0.0183  0.0000  0.0000  0.0000  0.0000  0.0000 </r>
       </set>
      </set>
      <set comment="kpoint 162">
       <set comment="band 1">
        <r>  0.0443  0.0194  0.0627  0.0194  0.0000  0.0000  0.0000  0.0000  0.0000 </r>
        <r>  0.4203  0.0016  0.0010  0.0016  0.0000  0.0000  0.0000  0.0000  0.0000 </r>
       </set>
       <set comment="band 2">
        <r>  0.3351  0.0002  0.0326  0.0002  0.0000  0.0000  0.0000  0.0000  0.0000 </r>
        <r>  0.0185  0.0326  0.1103  0.0326  0.0000  0.0000  0.0000  0.0000  0.0000 </r>
       </set>
       <set comment="band 3">
        <r>  0.0055  0.0658  0.0579  0.0658  0.0000  0.0000  0.0000  0.0000  0.0000 </r>
        <r>  0.0017  0.0619  0.0934  0.0619  0.0000  0.0000  0.0000  0.0000  0.0000 </r>
       </set>
       <set comment="band 4">
        <r>  0.0000  0.1024  0.0000  0.1024  0.0000  0.0000  0.0000  0.0000  0.0000 </r>
        <r>  0.0000  0.1703  0.0000  0.1703  0.0000  0.0000  0.0000  0.0000  0.0000 </r>
       </set>
       <set comment="band 5">
        <r>  0.0680  0.0011  0.0630  0.0011  0.0000  0.0000  0.0000  0.0000  0.0000 </r>
        <r>  0.0491  0.0204  0.0137  0.0204  0.0000  0.0000  0.0000  0.0000  0.0000 </r>
       </set>
       <set comment="band 6">
        <r>  0.1214  0.0091  0.0005  0.0091  0.0000  0.0000  0.0000  0.0000  0.0000 </r>
        <r>  0.0041  0.1174  0.0187  0.1174  0.0000  0.0000  0.0000  0.0000  0.0000 </r>
       </set>
       <set comment="band 7">
        <r>  0.0000  0.1041  0.0000  0.1043  0.0000  0.0000  0.0000  0.0000  0.0000 </r>
        <r>  0.0000  0.0974  0.0000  0.0973  0.0000  0.0000  0.0000  0.0000  0.0000 </r>
       </set>
       <set comment="band 8">
        <r>  0.0720  0.0150  0.0739  0.0149  0.0000  0.0000  0.0000  0.0000  0.0000 </r>
        <r>  0.0325  0.0013  0.3040  0.0013  0.0000  0.0000  0.0000  0.0000  0.0000 </r>
       </set>
      </set>
      <set comment="kpoint 163">
       <set comment="band 1">
        <r>  0.0690  0.0235  0.0442  0.0235  0.0000  0.0000  0.0000  0.0000  0.0000 </r>
        <r>  0.3981  0.0034  0.0011  0.0034  0.0000  0.0000  0.0000  0.0000  0.0000 </r>
       </set>
       <set comment="band 2">
        <r>  0.2898  0.0001  0.0555  0.0001  0.0000  0.0000  0.0000  0.0000  0.0000 </r>
        <r>  0.0374  0.0464  0.0773  0.0464  0.0000  0.0000  0.0000  0.0000  0.0000 </r>
       </set>
       <set comment="band 3">
        <r>  0.0250  0.0618  0.0525  0.0618  0.0000  0.0000  0.0000  0.0000  0.0000 </r>
        <r>  0.0029  0.0442  0.1316  0.0442  0.0000  0.0000  0.0000  0.0000  0.0000 </r>
       </set>
       <set comment="band 4">
        <r>  0.0000  0.0995  0.0000  0.0995  0.0000  0.0000  0.0000  0.0000  0.0000 </r>
        <r>  0.0000  0.1744  0.0000  0.1744  0.0000  0.0000  0.0000  0.0000  0.0000 </r>
       </set>
       <set comment="band 5">
        <r>  0.0737  0.0028  0.0618  0.0028  0.0000  0.0000  0.0000  0.0000  0.0000 </r>
        <r>  0.0448  0.0204  0.0164  0.0204  0.0000  0.0000  0.0000  0.0000  0.0000 </r>
       </set>
       <set comment="band 6">
        <r>  0.1016  0.0017  0.0085  0.0017  0.0000  0.0000  0.0000  0.0000  0.0000 </r>
        <r>  0.0215  0.1404  0.0116  0.1404  0.0000  0.0000  0.0000  0.0000  0.0000 </r>
       </set>
       <set comment="band 7">
        <r>  0.0000  0.1076  0.0000  0.1077  0.0000  0.0000  0.0000  0.0000  0.0000 </r>
        <r>  0.0000  0.0882  0.0000  0.0881  0.0000  0.0000  0.0000  0.0000  0.0000 </r>
       </set>
       <set comment="band 8">
        <r>  0.1046  0.0053  0.0617  0.0053  0.0000  0.0000  0.0000  0.0000  0.0000 </r>
        <r>  0.0149  0.0021  0.3404  0.0022  0.0000  0.0000  0.0000  0.0000  0.0000 </r>
       </set>
      </set>
      <set comment="kpoint 164">
       <set comment="band 1">
        <r>  0.0948  0.0262  0.0291  0.0262  0.0000  0.0000  0.0000  0.0000  0.0000 </r>
        <r>  0.3714  0.0053  0.0011  0.0053  0.0000  0.0000  0.0000  0.0000  0.0000 </r>
       </set>
       <set comment="band 2">
        <r>  0.2384  0.0002  0.0764  0.0002  0.0000  0.0000  0.0000  0.0000  0.0000 </r>
        <r>  0.0609  0.0569  0.0521  0.0569  0.0000  0.0000  0.0000  0.0000  0.0000 </r>
       </set>
       <set comment="band 3">
        <r>  0.0476  0.0596  0.0451  0.0596  0.0000  0.0000  0.0000  0.0000  0.0000 </r>
        <r>  0.0032  0.0308  0.1629  0.0308  0.0000  0.0000  0.0000  0.0000  0.0000 </r>
       </set>
       <set comment="band 4">
        <r>  0.0000  0.0962  0.0000  0.0962  0.0000  0.0000  0.0000  0.0000  0.0000 </r>
        <r>  0.0000  0.1790  0.0000  0.1790  0.0000  0.0000  0.0000  0.0000  0.0000 </r>
       </set>
       <set comment="band 5">
        <r>  0.0779  0.0050  0.0613  0.0050  0.0000  0.0000  0.0000  0.0000  0.0000 </r>
        <r>  0.0409  0.0205  0.0194  0.0205  0.0000  0.0000  0.0000  0.0000  0.0000 </r>
       </set>
       <set comment="band 6">
        <r>  0.0748  0.0004  0.0312  0.0004  0.0000  0.0000  0.0000  0.0000  0.0000 </r>
        <r>  0.0556  0.1417  0.0030  0.1417  0.0000  0.0000  0.0000  0.0000  0.0000 </r>
       </set>
       <set comment="band 7">
        <r>  0.0000  0.1127  0.0000  0.1127  0.0000  0.0000  0.0000  0.0000  0.0000 </r>
        <r>  0.0000  0.0791  0.0000  0.0791  0.0000  0.0000  0.0000  0.0000  0.0000 </r>
       </set>
       <set comment="band 8">
        <r>  0.1303  0.0016  0.0487  0.0016  0.0000  0.0000  0.0000  0.0000  0.0000 </r>
        <r>  0.0041  0.0120  0.3405  0.0120  0.0000  0.0000  0.0000  0.0000  0.0000 </r>
       </set>
      </set>
      <set comment="kpoint 165">
       <set comment="band 1">
        <r>  0.1186  0.0270  0.0183  0.0270  0.0000  0.0000  0.0000  0.0000  0.0000 </r>
        <r>  0.3454  0.0068  0.0009  0.0068  0.0000  0.0000  0.0000  0.0000  0.0000 </r>
       </set>
       <set comment="band 2">
        <r>  0.1937  0.0005  0.0909  0.0005  0.0000  0.0000  0.0000  0.0000  0.0000 </r>
        <r>  0.0835  0.0644  0.0359  0.0644  0.0000  0.0000  0.0000  0.0000  0.0000 </r>
       </set>
       <set comment="band 3">
        <r>  0.0639  0.0593  0.0390  0.0593  0.0000  0.0000  0.0000  0.0000  0.0000 </r>
        <r>  0.0029  0.0221  0.1864  0.0221  0.0000  0.0000  0.0000  0.0000  0.0000 </r>
       </set>
       <set comment="band 4">
        <r>  0.0000  0.0924  0.0000  0.0924  0.0000  0.0000  0.0000  0.0000  0.0000 </r>
        <r>  0.0000  0.1842  0.0000  0.1842  0.0000  0.0000  0.0000  0.0000  0.0000 </r>
       </set>
       <set comment="band 5">
        <r>  0.0812  0.0079  0.0613  0.0079  0.0000  0.0000  0.0000  0.0000  0.0000 </r>
        <r>  0.0371  0.0208  0.0231  0.0208  0.0000  0.0000  0.0000  0.0000  0.0000 </r>
       </set>
       <set comment="band 6">
        <r>  0.0486  0.0046  0.0623  0.0046  0.0000  0.0000  0.0000  0.0000  0.0000 </r>
        <r>  0.0916  0.1221  0.0001  0.1221  0.0000  0.0000  0.0000  0.0000  0.0000 </r>
       </set>
       <set comment="band 7">
        <r>  0.0000  0.1196  0.0000  0.1196  0.0000  0.0000  0.0000  0.0000  0.0000 </r>
        <r>  0.0000  0.0701  0.0000  0.0701  0.0000  0.0000  0.0000  0.0000  0.0000 </r>
       </set>
       <set comment="band 8">
        <r>  0.1485  0.0004  0.0376  0.0004  0.0000  0.0000  0.0000  0.0000  0.0000 </r>
        <r>  0.0001  0.0247  0.3198  0.0247  0.0000  0.0000  0.0000  0.0000  0.0000 </r>
       </set>
      </set>
      <set comment="kpoint 166">
       <set comment="band 1">
        <r>  0.1392  0.0264  0.0113  0.0264  0.0000  0.0000  0.0000  0.0000  0.0000 </r>
        <r>  0.3232  0.0077  0.0007  0.0077  0.0000  0.0000  0.0000  0.0000  0.0000 </r>
       </set>
       <set comment="band 2">
        <r>  0.1587  0.0011  0.0993  0.0011  0.0000  0.0000  0.0000  0.0000  0.0000 </r>
        <r>  0.1015  0.0703  0.0259  0.0703  0.0000  0.0000  0.0000  0.0000  0.0000 </r>
       </set>
       <set comment="band 3">
        <r>  0.0721  0.0602  0.0349  0.0602  0.0000  0.0000  0.0000  0.0000  0.0000 </r>
        <r>  0.0025  0.0165  0.2049  0.0165  0.0000  0.0000  0.0000  0.0000  0.0000 </r>
       </set>
       <set comment="band 4">
        <r>  0.0000  0.0880  0.0000  0.0880  0.0000  0.0000  0.0000  0.0000  0.0000 </r>
        <r>  0.0000  0.1900  0.0000  0.1900  0.0000  0.0000  0.0000  0.0000  0.0000 </r>
       </set>
       <set comment="band 5">
        <r>  0.0844  0.0114  0.0617  0.0114  0.0000  0.0000  0.0000  0.0000  0.0000 </r>
        <r>  0.0333  0.0209  0.0279  0.0209  0.0000  0.0000  0.0000  0.0000  0.0000 </r>
       </set>
       <set comment="band 6">
        <r>  0.0302  0.0091  0.0914  0.0091  0.0000  0.0000  0.0000  0.0000  0.0000 </r>
        <r>  0.1188  0.0972  0.0038  0.0972  0.0000  0.0000  0.0000  0.0000  0.0000 </r>
       </set>
       <set comment="band 7">
        <r>  0.0000  0.1285  0.0000  0.1285  0.0000  0.0000  0.0000  0.0000  0.0000 </r>
        <r>  0.0000  0.0612  0.0000  0.0612  0.0000  0.0000  0.0000  0.0000  0.0000 </r>
       </set>
       <set comment="band 8">
        <r>  0.1594  0.0001  0.0297  0.0001  0.0000  0.0000  0.0000  0.0000  0.0000 </r>
        <r>  0.0014  0.0369  0.2891  0.0369  0.0000  0.0000  0.0000  0.0000  0.0000 </r>
       </set>
      </set>
      <set comment="kpoint 167">
       <set comment="band 1">
        <r>  0.1565  0.0248  0.0069  0.0248  0.0000  0.0000  0.0000  0.0000  0.0000 </r>
        <r>  0.3055  0.0080  0.0005  0.0080  0.0000  0.0000  0.0000  0.0000  0.0000 </r>
       </set>
       <set comment="band 2">
        <r>  0.1321  0.0021  0.1029  0.0021  0.0000  0.0000  0.0000  0.0000  0.0000 </r>
        <r>  0.1142  0.0761  0.0196  0.0761  0.0000  0.0000  0.0000  0.0000  0.0000 </r>
       </set>
       <set comment="band 3">
        <r>  0.0736  0.0617  0.0324  0.0617  0.0000  0.0000  0.0000  0.0000  0.0000 </r>
        <r>  0.0020  0.0129  0.2212  0.0129  0.0000  0.0000  0.0000  0.0000  0.0000 </r>
       </set>
       <set comment="band 4">
        <r>  0.0000  0.0832  0.0000  0.0832  0.0000  0.0000  0.0000  0.0000  0.0000 </r>
        <r>  0.0000  0.1963  0.0000  0.1963  0.0000  0.0000  0.0000  0.0000  0.0000 </r>
       </set>
       <set comment="band 5">
        <r>  0.0883  0.0157  0.0620  0.0157  0.0000  0.0000  0.0000  0.0000  0.0000 </r>
        <r>  0.0296  0.0209  0.0344  0.0209  0.0000  0.0000  0.0000  0.0000  0.0000 </r>
       </set>
       <set comment="band 6">
        <r>  0.0192  0.0126  0.1156  0.0126  0.0000  0.0000  0.0000  0.0000  0.0000 </r>
        <r>  0.1380  0.0753  0.0100  0.0753  0.0000  0.0000  0.0000  0.0000  0.0000 </r>
       </set>
       <set comment="band 7">
        <r>  0.0000  0.1396  0.0000  0.1396  0.0000  0.0000  0.0000  0.0000  0.0000 </r>
        <r>  0.0000  0.0525  0.0000  0.0525  0.0000  0.0000  0.0000  0.0000  0.0000 </r>
       </set>
       <set comment="band 8">
        <r>  0.1634  0.0001  0.0253  0.0001  0.0000  0.0000  0.0000  0.0000  0.0000 </r>
        <r>  0.0058  0.0473  0.2545  0.0473  0.0000  0.0000  0.0000  0.0000  0.0000 </r>
       </set>
      </set>
      <set comment="kpoint 168">
       <set comment="band 1">
        <r>  0.1712  0.0225  0.0042  0.0225  0.0000  0.0000  0.0000  0.0000  0.0000 </r>
        <r>  0.2919  0.0077  0.0003  0.0077  0.0000  0.0000  0.0000  0.0000  0.0000 </r>
       </set>
       <set comment="band 2">
        <r>  0.1115  0.0034  0.1032  0.0034  0.0000  0.0000  0.0000  0.0000  0.0000 </r>
        <r>  0.1219  0.0824  0.0154  0.0824  0.0000  0.0000  0.0000  0.0000  0.0000 </r>
       </set>
       <set comment="band 3">
        <r>  0.0704  0.0633  0.0312  0.0633  0.0000  0.0000  0.0000  0.0000  0.0000 </r>
        <r>  0.0016  0.0104  0.2369  0.0104  0.0000  0.0000  0.0000  0.0000  0.0000 </r>
       </set>
       <set comment="band 4">
        <r>  0.0000  0.0778  0.0000  0.0778  0.0000  0.0000  0.0000  0.0000  0.0000 </r>
        <r>  0.0000  0.2028  0.0000  0.2028  0.0000  0.0000  0.0000  0.0000  0.0000 </r>
       </set>
       <set comment="band 5">
        <r>  0.0938  0.0211  0.0618  0.0211  0.0000  0.0000  0.0000  0.0000  0.0000 </r>
        <r>  0.0259  0.0202  0.0436  0.0202  0.0000  0.0000  0.0000  0.0000  0.0000 </r>
       </set>
       <set comment="band 6">
        <r>  0.0135  0.0152  0.1353  0.0152  0.0000  0.0000  0.0000  0.0000  0.0000 </r>
        <r>  0.1530  0.0581  0.0149  0.0581  0.0000  0.0000  0.0000  0.0000  0.0000 </r>
       </set>
       <set comment="band 7">
        <r>  0.0000  0.1530  0.0000  0.1530  0.0000  0.0000  0.0000  0.0000  0.0000 </r>
        <r>  0.0000  0.0440  0.0000  0.0440  0.0000  0.0000  0.0000  0.0000  0.0000 </r>
       </set>
       <set comment="band 8">
        <r>  0.1607  0.0001  0.0249  0.0001  0.0000  0.0000  0.0000  0.0000  0.0000 </r>
        <r>  0.0113  0.0563  0.2186  0.0563  0.0000  0.0000  0.0000  0.0000  0.0000 </r>
       </set>
      </set>
      <set comment="kpoint 169">
       <set comment="band 1">
        <r>  0.1839  0.0199  0.0025  0.0199  0.0000  0.0000  0.0000  0.0000  0.0000 </r>
        <r>  0.2815  0.0072  0.0002  0.0072  0.0000  0.0000  0.0000  0.0000  0.0000 </r>
       </set>
       <set comment="band 2">
        <r>  0.0951  0.0049  0.1011  0.0049  0.0000  0.0000  0.0000  0.0000  0.0000 </r>
        <r>  0.1252  0.0894  0.0124  0.0894  0.0000  0.0000  0.0000  0.0000  0.0000 </r>
       </set>
       <set comment="band 3">
        <r>  0.0638  0.0644  0.0309  0.0644  0.0000  0.0000  0.0000  0.0000  0.0000 </r>
        <r>  0.0013  0.0086  0.2533  0.0086  0.0000  0.0000  0.0000  0.0000  0.0000 </r>
       </set>
       <set comment="band 4">
        <r>  0.0000  0.0719  0.0000  0.0719  0.0000  0.0000  0.0000  0.0000  0.0000 </r>
        <r>  0.0000  0.2093  0.0000  0.2093  0.0000  0.0000  0.0000  0.0000  0.0000 </r>
       </set>
       <set comment="band 5">
        <r>  0.1024  0.0282  0.0598  0.0282  0.0000  0.0000  0.0000  0.0000  0.0000 </r>
        <r>  0.0220  0.0185  0.0572  0.0185  0.0000  0.0000  0.0000  0.0000  0.0000 </r>
       </set>
       <set comment="band 6">
        <r>  0.0116  0.0173  0.1516  0.0173  0.0000  0.0000  0.0000  0.0000  0.0000 </r>
        <r>  0.1670  0.0451  0.0163  0.0451  0.0000  0.0000  0.0000  0.0000  0.0000 </r>
       </set>
       <set comment="band 7">
        <r>  0.0000  0.1683  0.0000  0.1683  0.0000  0.0000  0.0000  0.0000  0.0000 </r>
        <r>  0.0000  0.0360  0.0000  0.0360  0.0000  0.0000  0.0000  0.0000  0.0000 </r>
       </set>
       <set comment="band 8">
        <r>  0.1504  0.0002  0.0295  0.0002  0.0000  0.0000  0.0000  0.0000  0.0000 </r>
        <r>  0.0159  0.0646  0.1812  0.0646  0.0000  0.0000  0.0000  0.0000  0.0000 </r>
       </set>
      </set>
      <set comment="kpoint 170">
       <set comment="band 1">
        <r>  0.1949  0.0171  0.0015  0.0171  0.0000  0.0000  0.0000  0.0000  0.0000 </r>
        <r>  0.2737  0.0063  0.0001  0.0063  0.0000  0.0000  0.0000  0.0000  0.0000 </r>
       </set>
       <set comment="band 2">
        <r>  0.0816  0.0065  0.0971  0.0065  0.0000  0.0000  0.0000  0.0000  0.0000 </r>
        <r>  0.1248  0.0974  0.0102  0.0974  0.0000  0.0000  0.0000  0.0000  0.0000 </r>
       </set>
       <set comment="band 3">
        <r>  0.0550  0.0646  0.0315  0.0646  0.0000  0.0000  0.0000  0.0000  0.0000 </r>
        <r>  0.0010  0.0072  0.2711  0.0072  0.0000  0.0000  0.0000  0.0000  0.0000 </r>
       </set>
       <set comment="band 4">
        <r>  0.0000  0.0658  0.0000  0.0658  0.0000  0.0000  0.0000  0.0000  0.0000 </r>
        <r>  0.0000  0.2155  0.0000  0.2155  0.0000  0.0000  0.0000  0.0000  0.0000 </r>
       </set>
       <set comment="band 5">
        <r>  0.1151  0.0382  0.0533  0.0382  0.0000  0.0000  0.0000  0.0000  0.0000 </r>
        <r>  0.0176  0.0153  0.0771  0.0153  0.0000  0.0000  0.0000  0.0000  0.0000 </r>
       </set>
       <set comment="band 6">
        <r>  0.0133  0.0183  0.1654  0.0183  0.0000  0.0000  0.0000  0.0000  0.0000 </r>
        <r>  0.1826  0.0356  0.0137  0.0356  0.0000  0.0000  0.0000  0.0000  0.0000 </r>
       </set>
       <set comment="band 7">
        <r>  0.0000  0.1848  0.0000  0.1849  0.0000  0.0000  0.0000  0.0000  0.0000 </r>
        <r>  0.0000  0.0287  0.0000  0.0287  0.0000  0.0000  0.0000  0.0000  0.0000 </r>
       </set>
       <set comment="band 8">
        <r>  0.1312  0.0002  0.0422  0.0002  0.0000  0.0000  0.0000  0.0000  0.0000 </r>
        <r>  0.0187  0.0735  0.1406  0.0735  0.0000  0.0000  0.0000  0.0000  0.0000 </r>
       </set>
      </set>
      <set comment="kpoint 171">
       <set comment="band 1">
        <r>  0.2045  0.0143  0.0009  0.0143  0.0000  0.0000  0.0000  0.0000  0.0000 </r>
        <r>  0.2678  0.0054  0.0001  0.0054  0.0000  0.0000  0.0000  0.0000  0.0000 </r>
       </set>
       <set comment="band 2">
        <r>  0.0701  0.0084  0.0917  0.0084  0.0000  0.0000  0.0000  0.0000  0.0000 </r>
        <r>  0.1213  0.1064  0.0084  0.1064  0.0000  0.0000  0.0000  0.0000  0.0000 </r>
       </set>
       <set comment="band 3">
        <r>  0.0451  0.0635  0.0327  0.0635  0.0000  0.0000  0.0000  0.0000  0.0000 </r>
        <r>  0.0008  0.0060  0.2907  0.0060  0.0000  0.0000  0.0000  0.0000  0.0000 </r>
       </set>
       <set comment="band 4">
        <r>  0.0000  0.0596  0.0000  0.0596  0.0000  0.0000  0.0000  0.0000  0.0000 </r>
        <r>  0.0000  0.2211  0.0000  0.2211  0.0000  0.0000  0.0000  0.0000  0.0000 </r>
       </set>
       <set comment="band 5">
        <r>  0.1294  0.0531  0.0382  0.0531  0.0000  0.0000  0.0000  0.0000  0.0000 </r>
        <r>  0.0115  0.0108  0.1034  0.0108  0.0000  0.0000  0.0000  0.0000  0.0000 </r>
       </set>
       <set comment="band 6">
        <r>  0.0205  0.0171  0.1775  0.0171  0.0000  0.0000  0.0000  0.0000  0.0000 </r>
        <r>  0.2025  0.0286  0.0076  0.0286  0.0000  0.0000  0.0000  0.0000  0.0000 </r>
       </set>
       <set comment="band 7">
        <r>  0.0000  0.2013  0.0000  0.2013  0.0000  0.0000  0.0000  0.0000  0.0000 </r>
        <r>  0.0000  0.0224  0.0000  0.0224  0.0000  0.0000  0.0000  0.0000  0.0000 </r>
       </set>
       <set comment="band 8">
        <r>  0.1029  0.0001  0.0681  0.0001  0.0000  0.0000  0.0000  0.0000  0.0000 </r>
        <r>  0.0194  0.0832  0.0959  0.0832  0.0000  0.0000  0.0000  0.0000  0.0000 </r>
       </set>
      </set>
      <set comment="kpoint 172">
       <set comment="band 1">
        <r>  0.2129  0.0116  0.0005  0.0116  0.0000  0.0000  0.0000  0.0000  0.0000 </r>
        <r>  0.2633  0.0045  0.0001  0.0045  0.0000  0.0000  0.0000  0.0000  0.0000 </r>
       </set>
       <set comment="band 2">
        <r>  0.0600  0.0103  0.0848  0.0103  0.0000  0.0000  0.0000  0.0000  0.0000 </r>
        <r>  0.1149  0.1168  0.0070  0.1168  0.0000  0.0000  0.0000  0.0000  0.0000 </r>
       </set>
       <set comment="band 3">
        <r>  0.0347  0.0605  0.0347  0.0605  0.0000  0.0000  0.0000  0.0000  0.0000 </r>
        <r>  0.0005  0.0050  0.3124  0.0050  0.0000  0.0000  0.0000  0.0000  0.0000 </r>
       </set>
       <set comment="band 4">
        <r>  0.0000  0.0535  0.0000  0.0535  0.0000  0.0000  0.0000  0.0000  0.0000 </r>
        <r>  0.0000  0.2258  0.0000  0.2258  0.0000  0.0000  0.0000  0.0000  0.0000 </r>
       </set>
       <set comment="band 5">
        <r>  0.1290  0.0769  0.0126  0.0769  0.0000  0.0000  0.0000  0.0000  0.0000 </r>
        <r>  0.0020  0.0072  0.1276  0.0072  0.0000  0.0000  0.0000  0.0000  0.0000 </r>
       </set>
       <set comment="band 6">
        <r>  0.0435  0.0099  0.1885  0.0099  0.0000  0.0000  0.0000  0.0000  0.0000 </r>
        <r>  0.2284  0.0230  0.0004  0.0230  0.0000  0.0000  0.0000  0.0000  0.0000 </r>
       </set>
       <set comment="band 7">
        <r>  0.0000  0.2161  0.0000  0.2161  0.0000  0.0000  0.0000  0.0000  0.0000 </r>
        <r>  0.0000  0.0172  0.0000  0.0172  0.0000  0.0000  0.0000  0.0000  0.0000 </r>
       </set>
       <set comment="band 8">
        <r>  0.0711  0.0000  0.1110  0.0000  0.0000  0.0000  0.0000  0.0000  0.0000 </r>
        <r>  0.0197  0.0918  0.0525  0.0918  0.0000  0.0000  0.0000  0.0000  0.0000 </r>
       </set>
      </set>
      <set comment="kpoint 173">
       <set comment="band 1">
        <r>  0.2202  0.0091  0.0003  0.0091  0.0000  0.0000  0.0000  0.0000  0.0000 </r>
        <r>  0.2600  0.0035  0.0000  0.0035  0.0000  0.0000  0.0000  0.0000  0.0000 </r>
       </set>
       <set comment="band 2">
        <r>  0.0507  0.0124  0.0766  0.0124  0.0000  0.0000  0.0000  0.0000  0.0000 </r>
        <r>  0.1059  0.1286  0.0057  0.1286  0.0000  0.0000  0.0000  0.0000  0.0000 </r>
       </set>
       <set comment="band 3">
        <r>  0.0248  0.0555  0.0373  0.0555  0.0000  0.0000  0.0000  0.0000  0.0000 </r>
        <r>  0.0004  0.0041  0.3362  0.0041  0.0000  0.0000  0.0000  0.0000  0.0000 </r>
       </set>
       <set comment="band 4">
        <r>  0.0000  0.0478  0.0000  0.0478  0.0000  0.0000  0.0000  0.0000  0.0000 </r>
        <r>  0.0000  0.2294  0.0000  0.2294  0.0000  0.0000  0.0000  0.0000  0.0000 </r>
       </set>
       <set comment="band 5">
        <r>  0.0418  0.1016  0.0190  0.1016  0.0000  0.0000  0.0000  0.0000  0.0000 </r>
        <r>  0.0442  0.0127  0.1001  0.0127  0.0000  0.0000  0.0000  0.0000  0.0000 </r>
       </set>
       <set comment="band 6">
        <r>  0.1439  0.0046  0.1601  0.0046  0.0000  0.0000  0.0000  0.0000  0.0000 </r>
        <r>  0.2045  0.0122  0.0318  0.0122  0.0000  0.0000  0.0000  0.0000  0.0000 </r>
       </set>
       <set comment="band 7">
        <r>  0.0000  0.2280  0.0000  0.2280  0.0000  0.0000  0.0000  0.0000  0.0000 </r>
        <r>  0.0000  0.0132  0.0000  0.0132  0.0000  0.0000  0.0000  0.0000  0.0000 </r>
       </set>
       <set comment="band 8">
        <r>  0.0461  0.0003  0.1680  0.0003  0.0000  0.0000  0.0000  0.0000  0.0000 </r>
        <r>  0.0220  0.0955  0.0212  0.0955  0.0000  0.0000  0.0000  0.0000  0.0000 </r>
       </set>
      </set>
      <set comment="kpoint 174">
       <set comment="band 1">
        <r>  0.2265  0.0068  0.0001  0.0068  0.0000  0.0000  0.0000  0.0000  0.0000 </r>
        <r>  0.2575  0.0027  0.0000  0.0027  0.0000  0.0000  0.0000  0.0000  0.0000 </r>
       </set>
       <set comment="band 2">
        <r>  0.0420  0.0147  0.0669  0.0147  0.0000  0.0000  0.0000  0.0000  0.0000 </r>
        <r>  0.0942  0.1422  0.0046  0.1422  0.0000  0.0000  0.0000  0.0000  0.0000 </r>
       </set>
       <set comment="band 3">
        <r>  0.0161  0.0482  0.0404  0.0482  0.0000  0.0000  0.0000  0.0000  0.0000 </r>
        <r>  0.0002  0.0032  0.3617  0.0032  0.0000  0.0000  0.0000  0.0000  0.0000 </r>
       </set>
       <set comment="band 4">
        <r>  0.0000  0.0426  0.0000  0.0426  0.0000  0.0000  0.0000  0.0000  0.0000 </r>
        <r>  0.0000  0.2320  0.0000  0.2320  0.0000  0.0000  0.0000  0.0000  0.0000 </r>
       </set>
       <set comment="band 5">
        <r>  0.0057  0.0545  0.1106  0.0545  0.0000  0.0000  0.0000  0.0000  0.0000 </r>
        <r>  0.2062  0.0198  0.0182  0.0198  0.0000  0.0000  0.0000  0.0000  0.0000 </r>
       </set>
       <set comment="band 6">
        <r>  0.1800  0.0739  0.0435  0.0739  0.0000  0.0000  0.0000  0.0000  0.0000 </r>
        <r>  0.0635  0.0031  0.1017  0.0031  0.0000  0.0000  0.0000  0.0000  0.0000 </r>
       </set>
       <set comment="band 7">
        <r>  0.0000  0.2365  0.0000  0.2366  0.0000  0.0000  0.0000  0.0000  0.0000 </r>
        <r>  0.0000  0.0103  0.0000  0.0103  0.0000  0.0000  0.0000  0.0000  0.0000 </r>
       </set>
       <set comment="band 8">
        <r>  0.0313  0.0009  0.2321  0.0009  0.0000  0.0000  0.0000  0.0000  0.0000 </r>
        <r>  0.0271  0.0909  0.0054  0.0909  0.0000  0.0000  0.0000  0.0000  0.0000 </r>
       </set>
      </set>
      <set comment="kpoint 175">
       <set comment="band 1">
        <r>  0.2318  0.0048  0.0001  0.0048  0.0000  0.0000  0.0000  0.0000  0.0000 </r>
        <r>  0.2556  0.0019  0.0000  0.0019  0.0000  0.0000  0.0000  0.0000  0.0000 </r>
       </set>
       <set comment="band 2">
        <r>  0.0334  0.0172  0.0558  0.0172  0.0000  0.0000  0.0000  0.0000  0.0000 </r>
        <r>  0.0797  0.1577  0.0036  0.1577  0.0000  0.0000  0.0000  0.0000  0.0000 </r>
       </set>
       <set comment="band 3">
        <r>  0.0092  0.0390  0.0440  0.0390  0.0000  0.0000  0.0000  0.0000  0.0000 </r>
        <r>  0.0001  0.0024  0.3880  0.0024  0.0000  0.0000  0.0000  0.0000  0.0000 </r>
       </set>
       <set comment="band 4">
        <r>  0.0000  0.0383  0.0000  0.0383  0.0000  0.0000  0.0000  0.0000  0.0000 </r>
        <r>  0.0000  0.2337  0.0000  0.2337  0.0000  0.0000  0.0000  0.0000  0.0000 </r>
       </set>
       <set comment="band 5">
        <r>  0.0317  0.0341  0.1120  0.0341  0.0000  0.0000  0.0000  0.0000  0.0000 </r>
        <r>  0.2681  0.0198  0.0033  0.0198  0.0000  0.0000  0.0000  0.0000  0.0000 </r>
       </set>
       <set comment="band 6">
        <r>  0.1449  0.1194  0.0133  0.1193  0.0000  0.0000  0.0000  0.0000  0.0000 </r>
        <r>  0.0276  0.0029  0.0942  0.0029  0.0000  0.0000  0.0000  0.0000  0.0000 </r>
       </set>
       <set comment="band 7">
        <r>  0.0000  0.2422  0.0000  0.2422  0.0000  0.0000  0.0000  0.0000  0.0000 </r>
        <r>  0.0000  0.0083  0.0000  0.0083  0.0000  0.0000  0.0000  0.0000  0.0000 </r>
       </set>
       <set comment="band 8">
        <r>  0.0228  0.0010  0.2968  0.0010  0.0000  0.0000  0.0000  0.0000  0.0000 </r>
        <r>  0.0315  0.0766  0.0003  0.0766  0.0000  0.0000  0.0000  0.0000  0.0000 </r>
       </set>
      </set>
      <set comment="kpoint 176">
       <set comment="band 1">
        <r>  0.2361  0.0031  0.0000  0.0031  0.0000  0.0000  0.0000  0.0000  0.0000 </r>
        <r>  0.2542  0.0012  0.0000  0.0012  0.0000  0.0000  0.0000  0.0000  0.0000 </r>
       </set>
       <set comment="band 2">
        <r>  0.0249  0.0199  0.0431  0.0199  0.0000  0.0000  0.0000  0.0000  0.0000 </r>
        <r>  0.0624  0.1753  0.0026  0.1753  0.0000  0.0000  0.0000  0.0000  0.0000 </r>
       </set>
       <set comment="band 3">
        <r>  0.0043  0.0284  0.0478  0.0284  0.0000  0.0000  0.0000  0.0000  0.0000 </r>
        <r>  0.0001  0.0017  0.4136  0.0017  0.0000  0.0000  0.0000  0.0000  0.0000 </r>
       </set>
       <set comment="band 4">
        <r>  0.0000  0.0347  0.0000  0.0347  0.0000  0.0000  0.0000  0.0000  0.0000 </r>
        <r>  0.0000  0.2347  0.0000  0.2347  0.0000  0.0000  0.0000  0.0000  0.0000 </r>
       </set>
       <set comment="band 5">
        <r>  0.0589  0.0223  0.0855  0.0223  0.0000  0.0000  0.0000  0.0000  0.0000 </r>
        <r>  0.3159  0.0194  0.0003  0.0194  0.0000  0.0000  0.0000  0.0000  0.0000 </r>
       </set>
       <set comment="band 6">
        <r>  0.1046  0.1581  0.0039  0.1581  0.0000  0.0000  0.0000  0.0000  0.0000 </r>
        <r>  0.0131  0.0034  0.0703  0.0034  0.0000  0.0000  0.0000  0.0000  0.0000 </r>
       </set>
       <set comment="band 7">
        <r>  0.0000  0.2456  0.0000  0.2456  0.0000  0.0000  0.0000  0.0000  0.0000 </r>
        <r>  0.0000  0.0069  0.0000  0.0069  0.0000  0.0000  0.0000  0.0000  0.0000 </r>
       </set>
       <set comment="band 8">
        <r>  0.0159  0.0007  0.3599  0.0007  0.0000  0.0000  0.0000  0.0000  0.0000 </r>
        <r>  0.0298  0.0552  0.0007  0.0552  0.0000  0.0000  0.0000  0.0000  0.0000 </r>
       </set>
      </set>
      <set comment="kpoint 177">
       <set comment="band 1">
        <r>  0.2394  0.0018  0.0000  0.0018  0.0000  0.0000  0.0000  0.0000  0.0000 </r>
        <r>  0.2532  0.0007  0.0000  0.0007  0.0000  0.0000  0.0000  0.0000  0.0000 </r>
       </set>
       <set comment="band 2">
        <r>  0.0164  0.0227  0.0292  0.0227  0.0000  0.0000  0.0000  0.0000  0.0000 </r>
        <r>  0.0429  0.1945  0.0017  0.1945  0.0000  0.0000  0.0000  0.0000  0.0000 </r>
       </set>
       <set comment="band 3">
        <r>  0.0015  0.0178  0.0514  0.0178  0.0000  0.0000  0.0000  0.0000  0.0000 </r>
        <r>  0.0000  0.0010  0.4366  0.0010  0.0000  0.0000  0.0000  0.0000  0.0000 </r>
       </set>
       <set comment="band 4">
        <r>  0.0000  0.0320  0.0000  0.0320  0.0000  0.0000  0.0000  0.0000  0.0000 </r>
        <r>  0.0000  0.2352  0.0000  0.2352  0.0000  0.0000  0.0000  0.0000  0.0000 </r>
       </set>
       <set comment="band 5">
        <r>  0.0856  0.0133  0.0470  0.0133  0.0000  0.0000  0.0000  0.0000  0.0000 </r>
        <r>  0.3643  0.0177  0.0000  0.0177  0.0000  0.0000  0.0000  0.0000  0.0000 </r>
       </set>
       <set comment="band 6">
        <r>  0.0650  0.1934  0.0009  0.1934  0.0000  0.0000  0.0000  0.0000  0.0000 </r>
        <r>  0.0059  0.0040  0.0437  0.0040  0.0000  0.0000  0.0000  0.0000  0.0000 </r>
       </set>
       <set comment="band 7">
        <r>  0.0000  0.2476  0.0000  0.2476  0.0000  0.0000  0.0000  0.0000  0.0000 </r>
        <r>  0.0000  0.0060  0.0000  0.0060  0.0000  0.0000  0.0000  0.0000  0.0000 </r>
       </set>
       <set comment="band 8">
        <r>  0.0088  0.0002  0.4210  0.0002  0.0000  0.0000  0.0000  0.0000  0.0000 </r>
        <r>  0.0193  0.0320  0.0033  0.0320  0.0000  0.0000  0.0000  0.0000  0.0000 </r>
       </set>
      </set>
      <set comment="kpoint 178">
       <set comment="band 1">
        <r>  0.2418  0.0008  0.0000  0.0008  0.0000  0.0000  0.0000  0.0000  0.0000 </r>
        <r>  0.2527  0.0003  0.0000  0.0003  0.0000  0.0000  0.0000  0.0000  0.0000 </r>
       </set>
       <set comment="band 2">
        <r>  0.0085  0.0255  0.0154  0.0255  0.0000  0.0000  0.0000  0.0000  0.0000 </r>
        <r>  0.0228  0.2138  0.0008  0.2138  0.0000  0.0000  0.0000  0.0000  0.0000 </r>
       </set>
       <set comment="band 3">
        <r>  0.0003  0.0085  0.0544  0.0085  0.0000  0.0000  0.0000  0.0000  0.0000 </r>
        <r>  0.0000  0.0005  0.4550  0.0005  0.0000  0.0000  0.0000  0.0000  0.0000 </r>
       </set>
       <set comment="band 4">
        <r>  0.0000  0.0301  0.0000  0.0301  0.0000  0.0000  0.0000  0.0000  0.0000 </r>
        <r>  0.0000  0.2354  0.0000  0.2354  0.0000  0.0000  0.0000  0.0000  0.0000 </r>
       </set>
       <set comment="band 5">
        <r>  0.1079  0.0063  0.0140  0.0063  0.0000  0.0000  0.0000  0.0000  0.0000 </r>
        <r>  0.4085  0.0124  0.0001  0.0124  0.0000  0.0000  0.0000  0.0000  0.0000 </r>
       </set>
       <set comment="band 6">
        <r>  0.0312  0.2227  0.0002  0.2227  0.0000  0.0000  0.0000  0.0000  0.0000 </r>
        <r>  0.0022  0.0045  0.0207  0.0045  0.0000  0.0000  0.0000  0.0000  0.0000 </r>
       </set>
       <set comment="band 7">
        <r>  0.0000  0.2487  0.0000  0.2487  0.0000  0.0000  0.0000  0.0000  0.0000 </r>
        <r>  0.0000  0.0054  0.0000  0.0054  0.0000  0.0000  0.0000  0.0000  0.0000 </r>
       </set>
       <set comment="band 8">
        <r>  0.0027  0.0000  0.4698  0.0000  0.0000  0.0000  0.0000  0.0000  0.0000 </r>
        <r>  0.0063  0.0132  0.0066  0.0132  0.0000  0.0000  0.0000  0.0000  0.0000 </r>
       </set>
      </set>
      <set comment="kpoint 179">
       <set comment="band 1">
        <r>  0.2433  0.0002  0.0000  0.0002  0.0000  0.0000  0.0000  0.0000  0.0000 </r>
        <r>  0.2524  0.0001  0.0000  0.0001  0.0000  0.0000  0.0000  0.0000  0.0000 </r>
       </set>
       <set comment="band 2">
        <r>  0.0024  0.0277  0.0043  0.0277  0.0000  0.0000  0.0000  0.0000  0.0000 </r>
        <r>  0.0065  0.2293  0.0002  0.2293  0.0000  0.0000  0.0000  0.0000  0.0000 </r>
       </set>
       <set comment="band 3">
        <r>  0.0000  0.0022  0.0564  0.0022  0.0000  0.0000  0.0000  0.0000  0.0000 </r>
        <r>  0.0000  0.0001  0.4668  0.0001  0.0000  0.0000  0.0000  0.0000  0.0000 </r>
       </set>
       <set comment="band 4">
        <r>  0.0000  0.0289  0.0000  0.0289  0.0000  0.0000  0.0000  0.0000  0.0000 </r>
        <r>  0.0000  0.2354  0.0000  0.2354  0.0000  0.0000  0.0000  0.0000  0.0000 </r>
       </set>
       <set comment="band 5">
        <r>  0.1216  0.0017  0.0011  0.0017  0.0000  0.0000  0.0000  0.0000  0.0000 </r>
        <r>  0.4367  0.0042  0.0000  0.0042  0.0000  0.0000  0.0000  0.0000  0.0000 </r>
       </set>
       <set comment="band 6">
        <r>  0.0082  0.2424  0.0000  0.2424  0.0000  0.0000  0.0000  0.0000  0.0000 </r>
        <r>  0.0005  0.0049  0.0054  0.0049  0.0000  0.0000  0.0000  0.0000  0.0000 </r>
       </set>
       <set comment="band 7">
        <r>  0.0000  0.2492  0.0000  0.2492  0.0000  0.0000  0.0000  0.0000  0.0000 </r>
        <r>  0.0000  0.0051  0.0000  0.0051  0.0000  0.0000  0.0000  0.0000  0.0000 </r>
       </set>
       <set comment="band 8">
        <r>  0.0002  0.0000  0.4936  0.0000  0.0000  0.0000  0.0000  0.0000  0.0000 </r>
        <r>  0.0005  0.0029  0.0091  0.0029  0.0000  0.0000  0.0000  0.0000  0.0000 </r>
       </set>
      </set>
      <set comment="kpoint 180">
       <set comment="band 1">
        <r>  0.2437  0.0000  0.0000  0.0000  0.0000  0.0000  0.0000  0.0000  0.0000 </r>
        <r>  0.2523  0.0000  0.0000  0.0000  0.0000  0.0000  0.0000  0.0000  0.0000 </r>
       </set>
       <set comment="band 2">
        <r>  0.0000  0.0243  0.0008  0.0321  0.0000  0.0000  0.0000  0.0000  0.0000 </r>
        <r>  0.0000  0.2001  0.0064  0.2644  0.0000  0.0000  0.0000  0.0000  0.0000 </r>
       </set>
       <set comment="band 3">
        <r>  0.0000  0.0138  0.0373  0.0060  0.0000  0.0000  0.0000  0.0000  0.0000 </r>
        <r>  0.0000  0.1139  0.3075  0.0495  0.0000  0.0000  0.0000  0.0000  0.0000 </r>
       </set>
       <set comment="band 4">
        <r>  0.0000  0.0190  0.0190  0.0190  0.0000  0.0000  0.0000  0.0000  0.0000 </r>
        <r>  0.0000  0.1570  0.1569  0.1570  0.0000  0.0000  0.0000  0.0000  0.0000 </r>
       </set>
       <set comment="band 5">
        <r>  0.1259  0.0000  0.0000  0.0000  0.0000  0.0000  0.0000  0.0000  0.0000 </r>
        <r>  0.4456  0.0000  0.0000  0.0000  0.0000  0.0000  0.0000  0.0000  0.0000 </r>
       </set>
       <set comment="band 6">
        <r>  0.0000  0.1922  0.1639  0.1427  0.0000  0.0000  0.0000  0.0000  0.0000 </r>
        <r>  0.0000  0.0038  0.0033  0.0028  0.0000  0.0000  0.0000  0.0000  0.0000 </r>
       </set>
       <set comment="band 7">
        <r>  0.0000  0.0059  0.2087  0.2841  0.0000  0.0000  0.0000  0.0000  0.0000 </r>
        <r>  0.0000  0.0001  0.0042  0.0057  0.0000  0.0000  0.0000  0.0000  0.0000 </r>
       </set>
       <set comment="band 8">
        <r>  0.0000  0.3006  0.1262  0.0720  0.0000  0.0000  0.0000  0.0000  0.0000 </r>
        <r>  0.0000  0.0060  0.0025  0.0014  0.0000  0.0000  0.0000  0.0000  0.0000 </r>
       </set>
      </set>
      <set comment="kpoint 181">
       <set comment="band 1">
        <r>  0.2437  0.0000  0.0000  0.0000  0.0000  0.0000  0.0000  0.0000  0.0000 </r>
        <r>  0.2523  0.0000  0.0000  0.0000  0.0000  0.0000  0.0000  0.0000  0.0000 </r>
       </set>
       <set comment="band 2">
        <r>  0.0000  0.0285  0.0000  0.0286  0.0000  0.0000  0.0000  0.0000  0.0000 </r>
        <r>  0.0000  0.2353  0.0000  0.2356  0.0000  0.0000  0.0000  0.0000  0.0000 </r>
       </set>
       <set comment="band 3">
        <r>  0.0000  0.0095  0.0381  0.0095  0.0000  0.0000  0.0000  0.0000  0.0000 </r>
        <r>  0.0000  0.0786  0.3139  0.0784  0.0000  0.0000  0.0000  0.0000  0.0000 </r>
       </set>
       <set comment="band 4">
        <r>  0.0000  0.0190  0.0190  0.0190  0.0000  0.0000  0.0000  0.0000  0.0000 </r>
        <r>  0.0000  0.1570  0.1569  0.1570  0.0000  0.0000  0.0000  0.0000  0.0000 </r>
       </set>
       <set comment="band 5">
        <r>  0.1259  0.0000  0.0000  0.0000  0.0000  0.0000  0.0000  0.0000  0.0000 </r>
        <r>  0.4456  0.0000  0.0000  0.0000  0.0000  0.0000  0.0000  0.0000  0.0000 </r>
       </set>
       <set comment="band 6">
        <r>  0.0000  0.1712  0.1670  0.1606  0.0000  0.0000  0.0000  0.0000  0.0000 </r>
        <r>  0.0000  0.0034  0.0033  0.0032  0.0000  0.0000  0.0000  0.0000  0.0000 </r>
       </set>
       <set comment="band 7">
        <r>  0.0000  0.2991  0.1551  0.0445  0.0000  0.0000  0.0000  0.0000  0.0000 </r>
        <r>  0.0000  0.0060  0.0031  0.0009  0.0000  0.0000  0.0000  0.0000  0.0000 </r>
       </set>
       <set comment="band 8">
        <r>  0.0000  0.0285  0.1766  0.2936  0.0000  0.0000  0.0000  0.0000  0.0000 </r>
        <r>  0.0000  0.0006  0.0035  0.0059  0.0000  0.0000  0.0000  0.0000  0.0000 </r>
       </set>
      </set>
      <set comment="kpoint 182">
       <set comment="band 1">
        <r>  0.2434  0.0001  0.0001  0.0001  0.0000  0.0000  0.0000  0.0000  0.0000 </r>
        <r>  0.2524  0.0000  0.0000  0.0000  0.0000  0.0000  0.0000  0.0000  0.0000 </r>
       </set>
       <set comment="band 2">
        <r>  0.0016  0.0198  0.0198  0.0198  0.0000  0.0000  0.0000  0.0000  0.0000 </r>
        <r>  0.0044  0.1540  0.1540  0.1540  0.0000  0.0000  0.0000  0.0000  0.0000 </r>
       </set>
       <set comment="band 3">
        <r>  0.0000  0.0319  0.0003  0.0261  0.0000  0.0000  0.0000  0.0000  0.0000 </r>
        <r>  0.0000  0.2571  0.0023  0.2105  0.0000  0.0000  0.0000  0.0000  0.0000 </r>
       </set>
       <set comment="band 4">
        <r>  0.0000  0.0070  0.0385  0.0127  0.0000  0.0000  0.0000  0.0000  0.0000 </r>
        <r>  0.0000  0.0562  0.3110  0.1028  0.0000  0.0000  0.0000  0.0000  0.0000 </r>
       </set>
       <set comment="band 5">
        <r>  0.1231  0.0010  0.0010  0.0010  0.0000  0.0000  0.0000  0.0000  0.0000 </r>
        <r>  0.4397  0.0019  0.0019  0.0019  0.0000  0.0000  0.0000  0.0000  0.0000 </r>
       </set>
       <set comment="band 6">
        <r>  0.0056  0.1627  0.1627  0.1627  0.0000  0.0000  0.0000  0.0000  0.0000 </r>
        <r>  0.0006  0.0049  0.0049  0.0049  0.0000  0.0000  0.0000  0.0000  0.0000 </r>
       </set>
       <set comment="band 7">
        <r>  0.0000  0.0169  0.1774  0.3033  0.0000  0.0000  0.0000  0.0000  0.0000 </r>
        <r>  0.0000  0.0004  0.0039  0.0067  0.0000  0.0000  0.0000  0.0000  0.0000 </r>
       </set>
       <set comment="band 8">
        <r>  0.0000  0.3148  0.1544  0.0284  0.0000  0.0000  0.0000  0.0000  0.0000 </r>
        <r>  0.0000  0.0070  0.0034  0.0006  0.0000  0.0000  0.0000  0.0000  0.0000 </r>
       </set>
      </set>
      <set comment="kpoint 183">
       <set comment="band 1">
        <r>  0.2425  0.0004  0.0004  0.0004  0.0000  0.0000  0.0000  0.0000  0.0000 </r>
        <r>  0.2525  0.0001  0.0001  0.0001  0.0000  0.0000  0.0000  0.0000  0.0000 </r>
       </set>
       <set comment="band 2">
        <r>  0.0060  0.0220  0.0220  0.0220  0.0000  0.0000  0.0000  0.0000  0.0000 </r>
        <r>  0.0159  0.1460  0.1460  0.1460  0.0000  0.0000  0.0000  0.0000  0.0000 </r>
       </set>
       <set comment="band 3">
        <r>  0.0000  0.0358  0.0015  0.0244  0.0000  0.0000  0.0000  0.0000  0.0000 </r>
        <r>  0.0000  0.2712  0.0114  0.1850  0.0000  0.0000  0.0000  0.0000  0.0000 </r>
       </set>
       <set comment="band 4">
        <r>  0.0000  0.0053  0.0396  0.0167  0.0000  0.0000  0.0000  0.0000  0.0000 </r>
        <r>  0.0000  0.0405  0.3003  0.1267  0.0000  0.0000  0.0000  0.0000  0.0000 </r>
       </set>
       <set comment="band 5">
        <r>  0.1144  0.0062  0.0062  0.0062  0.0000  0.0000  0.0000  0.0000  0.0000 </r>
        <r>  0.4191  0.0057  0.0057  0.0057  0.0000  0.0000  0.0000  0.0000  0.0000 </r>
       </set>
       <set comment="band 6">
        <r>  0.0223  0.1500  0.1500  0.1500  0.0000  0.0000  0.0000  0.0000  0.0000 </r>
        <r>  0.0068  0.0104  0.0104  0.0104  0.0000  0.0000  0.0000  0.0000  0.0000 </r>
       </set>
       <set comment="band 7">
        <r>  0.0000  0.2259  0.2625  0.0061  0.0000  0.0000  0.0000  0.0000  0.0000 </r>
        <r>  0.0000  0.0065  0.0075  0.0002  0.0000  0.0000  0.0000  0.0000  0.0000 </r>
       </set>
       <set comment="band 8">
        <r>  0.0000  0.1038  0.0672  0.3235  0.0000  0.0000  0.0000  0.0000  0.0000 </r>
        <r>  0.0000  0.0030  0.0019  0.0093  0.0000  0.0000  0.0000  0.0000  0.0000 </r>
       </set>
      </set>
      <set comment="kpoint 184">
       <set comment="band 1">
        <r>  0.2409  0.0008  0.0008  0.0008  0.0000  0.0000  0.0000  0.0000  0.0000 </r>
        <r>  0.2529  0.0003  0.0003  0.0003  0.0000  0.0000  0.0000  0.0000  0.0000 </r>
       </set>
       <set comment="band 2">
        <r>  0.0123  0.0251  0.0251  0.0251  0.0000  0.0000  0.0000  0.0000  0.0000 </r>
        <r>  0.0308  0.1352  0.1352  0.1352  0.0000  0.0000  0.0000  0.0000  0.0000 </r>
       </set>
       <set comment="band 3">
        <r>  0.0000  0.0335  0.0000  0.0335  0.0000  0.0000  0.0000  0.0000  0.0000 </r>
        <r>  0.0000  0.2319  0.0000  0.2318  0.0000  0.0000  0.0000  0.0000  0.0000 </r>
       </set>
       <set comment="band 4">
        <r>  0.0000  0.0112  0.0447  0.0112  0.0000  0.0000  0.0000  0.0000  0.0000 </r>
        <r>  0.0000  0.0772  0.3091  0.0773  0.0000  0.0000  0.0000  0.0000  0.0000 </r>
       </set>
       <set comment="band 5">
        <r>  0.1014  0.0208  0.0208  0.0208  0.0000  0.0000  0.0000  0.0000  0.0000 </r>
        <r>  0.3762  0.0073  0.0073  0.0073  0.0000  0.0000  0.0000  0.0000  0.0000 </r>
       </set>
       <set comment="band 6">
        <r>  0.0480  0.1245  0.1245  0.1245  0.0000  0.0000  0.0000  0.0000  0.0000 </r>
        <r>  0.0302  0.0219  0.0219  0.0219  0.0000  0.0000  0.0000  0.0000  0.0000 </r>
       </set>
       <set comment="band 7">
        <r>  0.0000  0.0782  0.1117  0.2993  0.0000  0.0000  0.0000  0.0000  0.0000 </r>
        <r>  0.0000  0.0030  0.0044  0.0117  0.0000  0.0000  0.0000  0.0000  0.0000 </r>
       </set>
       <set comment="band 8">
        <r>  0.0000  0.2479  0.2144  0.0268  0.0000  0.0000  0.0000  0.0000  0.0000 </r>
        <r>  0.0000  0.0097  0.0084  0.0010  0.0000  0.0000  0.0000  0.0000  0.0000 </r>
       </set>
      </set>
      <set comment="kpoint 185">
       <set comment="band 1">
        <r>  0.2386  0.0014  0.0014  0.0014  0.0000  0.0000  0.0000  0.0000  0.0000 </r>
        <r>  0.2535  0.0005  0.0005  0.0005  0.0000  0.0000  0.0000  0.0000  0.0000 </r>
       </set>
       <set comment="band 2">
        <r>  0.0197  0.0283  0.0283  0.0283  0.0000  0.0000  0.0000  0.0000  0.0000 </r>
        <r>  0.0458  0.1236  0.1236  0.1236  0.0000  0.0000  0.0000  0.0000  0.0000 </r>
       </set>
       <set comment="band 3">
        <r>  0.0000  0.0369  0.0000  0.0369  0.0000  0.0000  0.0000  0.0000  0.0000 </r>
        <r>  0.0000  0.2295  0.0000  0.2294  0.0000  0.0000  0.0000  0.0000  0.0000 </r>
       </set>
       <set comment="band 4">
        <r>  0.0000  0.0123  0.0492  0.0123  0.0000  0.0000  0.0000  0.0000  0.0000 </r>
        <r>  0.0000  0.0764  0.3059  0.0766  0.0000  0.0000  0.0000  0.0000  0.0000 </r>
       </set>
       <set comment="band 5">
        <r>  0.0928  0.0413  0.0413  0.0413  0.0000  0.0000  0.0000  0.0000  0.0000 </r>
        <r>  0.3157  0.0052  0.0052  0.0052  0.0000  0.0000  0.0000  0.0000  0.0000 </r>
       </set>
       <set comment="band 6">
        <r>  0.0000  0.1557  0.0549  0.2711  0.0000  0.0000  0.0000  0.0000  0.0000 </r>
        <r>  0.0000  0.0081  0.0029  0.0141  0.0000  0.0000  0.0000  0.0000  0.0000 </r>
       </set>
       <set comment="band 7">
        <r>  0.0000  0.1655  0.2662  0.0500  0.0000  0.0000  0.0000  0.0000  0.0000 </r>
        <r>  0.0000  0.0086  0.0139  0.0026  0.0000  0.0000  0.0000  0.0000  0.0000 </r>
       </set>
       <set comment="band 8">
        <r>  0.0724  0.0910  0.0910  0.0910  0.0000  0.0000  0.0000  0.0000  0.0000 </r>
        <r>  0.0691  0.0383  0.0383  0.0383  0.0000  0.0000  0.0000  0.0000  0.0000 </r>
       </set>
      </set>
      <set comment="kpoint 186">
       <set comment="band 1">
        <r>  0.2358  0.0022  0.0022  0.0022  0.0000  0.0000  0.0000  0.0000  0.0000 </r>
        <r>  0.2544  0.0008  0.0008  0.0008  0.0000  0.0000  0.0000  0.0000  0.0000 </r>
       </set>
       <set comment="band 2">
        <r>  0.0278  0.0314  0.0314  0.0314  0.0000  0.0000  0.0000  0.0000  0.0000 </r>
        <r>  0.0592  0.1124  0.1124  0.1124  0.0000  0.0000  0.0000  0.0000  0.0000 </r>
       </set>
       <set comment="band 3">
        <r>  0.0000  0.0409  0.0000  0.0408  0.0000  0.0000  0.0000  0.0000  0.0000 </r>
        <r>  0.0000  0.2268  0.0000  0.2267  0.0000  0.0000  0.0000  0.0000  0.0000 </r>
       </set>
       <set comment="band 4">
        <r>  0.0000  0.0136  0.0545  0.0136  0.0000  0.0000  0.0000  0.0000  0.0000 </r>
        <r>  0.0000  0.0755  0.3023  0.0756  0.0000  0.0000  0.0000  0.0000  0.0000 </r>
       </set>
       <set comment="band 5">
        <r>  0.0965  0.0553  0.0553  0.0553  0.0000  0.0000  0.0000  0.0000  0.0000 </r>
        <r>  0.2638  0.0028  0.0028  0.0028  0.0000  0.0000  0.0000  0.0000  0.0000 </r>
       </set>
       <set comment="band 6">
        <r>  0.0000  0.0804  0.1119  0.2794  0.0000  0.0000  0.0000  0.0000  0.0000 </r>
        <r>  0.0000  0.0054  0.0075  0.0187  0.0000  0.0000  0.0000  0.0000  0.0000 </r>
       </set>
       <set comment="band 7">
        <r>  0.0000  0.2341  0.2026  0.0350  0.0000  0.0000  0.0000  0.0000  0.0000 </r>
        <r>  0.0000  0.0157  0.0136  0.0023  0.0000  0.0000  0.0000  0.0000  0.0000 </r>
       </set>
       <set comment="band 8">
        <r>  0.0861  0.0632  0.0632  0.0632  0.0000  0.0000  0.0000  0.0000  0.0000 </r>
        <r>  0.0991  0.0553  0.0553  0.0553  0.0000  0.0000  0.0000  0.0000  0.0000 </r>
       </set>
      </set>
      <set comment="kpoint 187">
       <set comment="band 1">
        <r>  0.2323  0.0031  0.0031  0.0031  0.0000  0.0000  0.0000  0.0000  0.0000 </r>
        <r>  0.2554  0.0012  0.0012  0.0012  0.0000  0.0000  0.0000  0.0000  0.0000 </r>
       </set>
       <set comment="band 2">
        <r>  0.0363  0.0342  0.0342  0.0342  0.0000  0.0000  0.0000  0.0000  0.0000 </r>
        <r>  0.0703  0.1022  0.1022  0.1022  0.0000  0.0000  0.0000  0.0000  0.0000 </r>
       </set>
       <set comment="band 3">
        <r>  0.0000  0.0450  0.0000  0.0450  0.0000  0.0000  0.0000  0.0000  0.0000 </r>
        <r>  0.0000  0.2239  0.0000  0.2239  0.0000  0.0000  0.0000  0.0000  0.0000 </r>
       </set>
       <set comment="band 4">
        <r>  0.0000  0.0150  0.0601  0.0150  0.0000  0.0000  0.0000  0.0000  0.0000 </r>
        <r>  0.0000  0.0746  0.2986  0.0746  0.0000  0.0000  0.0000  0.0000  0.0000 </r>
       </set>
       <set comment="band 5">
        <r>  0.1095  0.0597  0.0597  0.0597  0.0000  0.0000  0.0000  0.0000  0.0000 </r>
        <r>  0.2312  0.0013  0.0013  0.0013  0.0000  0.0000  0.0000  0.0000  0.0000 </r>
       </set>
       <set comment="band 6">
        <r>  0.0000  0.1118  0.0609  0.2856  0.0000  0.0000  0.0000  0.0000  0.0000 </r>
        <r>  0.0000  0.0092  0.0050  0.0235  0.0000  0.0000  0.0000  0.0000  0.0000 </r>
       </set>
       <set comment="band 7">
        <r>  0.0000  0.1938  0.2446  0.0199  0.0000  0.0000  0.0000  0.0000  0.0000 </r>
        <r>  0.0000  0.0159  0.0201  0.0016  0.0000  0.0000  0.0000  0.0000  0.0000 </r>
       </set>
       <set comment="band 8">
        <r>  0.0900  0.0451  0.0451  0.0451  0.0000  0.0000  0.0000  0.0000  0.0000 </r>
        <r>  0.1104  0.0706  0.0706  0.0706  0.0000  0.0000  0.0000  0.0000  0.0000 </r>
       </set>
      </set>
      <set comment="kpoint 188">
       <set comment="band 1">
        <r>  0.2282  0.0041  0.0041  0.0041  0.0000  0.0000  0.0000  0.0000  0.0000 </r>
        <r>  0.2569  0.0016  0.0016  0.0016  0.0000  0.0000  0.0000  0.0000  0.0000 </r>
       </set>
       <set comment="band 2">
        <r>  0.0451  0.0364  0.0364  0.0364  0.0000  0.0000  0.0000  0.0000  0.0000 </r>
        <r>  0.0790  0.0931  0.0931  0.0931  0.0000  0.0000  0.0000  0.0000  0.0000 </r>
       </set>
       <set comment="band 3">
        <r>  0.0000  0.0495  0.0000  0.0491  0.0000  0.0000  0.0000  0.0000  0.0000 </r>
        <r>  0.0000  0.2222  0.0000  0.2201  0.0000  0.0000  0.0000  0.0000  0.0000 </r>
       </set>
       <set comment="band 4">
        <r>  0.0000  0.0162  0.0657  0.0167  0.0000  0.0000  0.0000  0.0000  0.0000 </r>
        <r>  0.0000  0.0727  0.2948  0.0747  0.0000  0.0000  0.0000  0.0000  0.0000 </r>
       </set>
       <set comment="band 5">
        <r>  0.1268  0.0581  0.0581  0.0581  0.0000  0.0000  0.0000  0.0000  0.0000 </r>
        <r>  0.2128  0.0006  0.0006  0.0006  0.0000  0.0000  0.0000  0.0000  0.0000 </r>
       </set>
       <set comment="band 6">
        <r>  0.0000  0.1727  0.0271  0.2412  0.0000  0.0000  0.0000  0.0000  0.0000 </r>
        <r>  0.0000  0.0167  0.0026  0.0233  0.0000  0.0000  0.0000  0.0000  0.0000 </r>
       </set>
       <set comment="band 7">
        <r>  0.0000  0.1213  0.2670  0.0528  0.0000  0.0000  0.0000  0.0000  0.0000 </r>
        <r>  0.0000  0.0117  0.0258  0.0051  0.0000  0.0000  0.0000  0.0000  0.0000 </r>
       </set>
       <set comment="band 8">
        <r>  0.0878  0.0337  0.0337  0.0337  0.0000  0.0000  0.0000  0.0000  0.0000 </r>
        <r>  0.1082  0.0839  0.0839  0.0839  0.0000  0.0000  0.0000  0.0000  0.0000 </r>
       </set>
      </set>
      <set comment="kpoint 189">
       <set comment="band 1">
        <r>  0.2235  0.0053  0.0053  0.0053  0.0000  0.0000  0.0000  0.0000  0.0000 </r>
        <r>  0.2589  0.0020  0.0020  0.0020  0.0000  0.0000  0.0000  0.0000  0.0000 </r>
       </set>
       <set comment="band 2">
        <r>  0.0544  0.0382  0.0382  0.0382  0.0000  0.0000  0.0000  0.0000  0.0000 </r>
        <r>  0.0853  0.0850  0.0850  0.0850  0.0000  0.0000  0.0000  0.0000  0.0000 </r>
       </set>
       <set comment="band 3">
        <r>  0.0000  0.0535  0.0000  0.0535  0.0000  0.0000  0.0000  0.0000  0.0000 </r>
        <r>  0.0000  0.2185  0.0000  0.2185  0.0000  0.0000  0.0000  0.0000  0.0000 </r>
       </set>
       <set comment="band 4">
        <r>  0.0000  0.0178  0.0713  0.0178  0.0000  0.0000  0.0000  0.0000  0.0000 </r>
        <r>  0.0000  0.0728  0.2913  0.0728  0.0000  0.0000  0.0000  0.0000  0.0000 </r>
       </set>
       <set comment="band 5">
        <r>  0.1453  0.0534  0.0534  0.0534  0.0000  0.0000  0.0000  0.0000  0.0000 </r>
        <r>  0.2030  0.0003  0.0003  0.0003  0.0000  0.0000  0.0000  0.0000  0.0000 </r>
       </set>
       <set comment="band 6">
        <r>  0.0000  0.1205  0.0418  0.2575  0.0000  0.0000  0.0000  0.0000  0.0000 </r>
        <r>  0.0000  0.0131  0.0045  0.0280  0.0000  0.0000  0.0000  0.0000  0.0000 </r>
       </set>
       <set comment="band 7">
        <r>  0.0000  0.1593  0.2380  0.0223  0.0000  0.0000  0.0000  0.0000  0.0000 </r>
        <r>  0.0000  0.0173  0.0259  0.0024  0.0000  0.0000  0.0000  0.0000  0.0000 </r>
       </set>
       <set comment="band 8">
        <r>  0.0817  0.0265  0.0265  0.0265  0.0000  0.0000  0.0000  0.0000  0.0000 </r>
        <r>  0.0982  0.0952  0.0952  0.0952  0.0000  0.0000  0.0000  0.0000  0.0000 </r>
       </set>
      </set>
      <set comment="kpoint 190">
       <set comment="band 1">
        <r>  0.2181  0.0066  0.0066  0.0066  0.0000  0.0000  0.0000  0.0000  0.0000 </r>
        <r>  0.2614  0.0025  0.0025  0.0025  0.0000  0.0000  0.0000  0.0000  0.0000 </r>
       </set>
       <set comment="band 2">
        <r>  0.0640  0.0394  0.0394  0.0394  0.0000  0.0000  0.0000  0.0000  0.0000 </r>
        <r>  0.0896  0.0781  0.0781  0.0781  0.0000  0.0000  0.0000  0.0000  0.0000 </r>
       </set>
       <set comment="band 3">
        <r>  0.0000  0.0574  0.0000  0.0576  0.0000  0.0000  0.0000  0.0000  0.0000 </r>
        <r>  0.0000  0.2156  0.0000  0.2165  0.0000  0.0000  0.0000  0.0000  0.0000 </r>
       </set>
       <set comment="band 4">
        <r>  0.0000  0.0193  0.0766  0.0190  0.0000  0.0000  0.0000  0.0000  0.0000 </r>
        <r>  0.0000  0.0725  0.2881  0.0716  0.0000  0.0000  0.0000  0.0000  0.0000 </r>
       </set>
       <set comment="band 5">
        <r>  0.1635  0.0474  0.0474  0.0474  0.0000  0.0000  0.0000  0.0000  0.0000 </r>
        <r>  0.1982  0.0002  0.0002  0.0002  0.0000  0.0000  0.0000  0.0000  0.0000 </r>
       </set>
       <set comment="band 6">
        <r>  0.0000  0.2315  0.0385  0.1254  0.0000  0.0000  0.0000  0.0000  0.0000 </r>
        <r>  0.0000  0.0273  0.0045  0.0148  0.0000  0.0000  0.0000  0.0000  0.0000 </r>
       </set>
       <set comment="band 7">
        <r>  0.0000  0.0322  0.2251  0.1382  0.0000  0.0000  0.0000  0.0000  0.0000 </r>
        <r>  0.0000  0.0038  0.0265  0.0163  0.0000  0.0000  0.0000  0.0000  0.0000 </r>
       </set>
       <set comment="band 8">
        <r>  0.0728  0.0216  0.0216  0.0216  0.0000  0.0000  0.0000  0.0000  0.0000 </r>
        <r>  0.0844  0.1044  0.1044  0.1044  0.0000  0.0000  0.0000  0.0000  0.0000 </r>
       </set>
      </set>
      <set comment="kpoint 191">
       <set comment="band 1">
        <r>  0.2121  0.0080  0.0080  0.0080  0.0000  0.0000  0.0000  0.0000  0.0000 </r>
        <r>  0.2645  0.0030  0.0030  0.0030  0.0000  0.0000  0.0000  0.0000  0.0000 </r>
       </set>
       <set comment="band 2">
        <r>  0.0739  0.0402  0.0402  0.0402  0.0000  0.0000  0.0000  0.0000  0.0000 </r>
        <r>  0.0918  0.0720  0.0720  0.0720  0.0000  0.0000  0.0000  0.0000  0.0000 </r>
       </set>
       <set comment="band 3">
        <r>  0.0000  0.0614  0.0000  0.0609  0.0000  0.0000  0.0000  0.0000  0.0000 </r>
        <r>  0.0000  0.2148  0.0000  0.2130  0.0000  0.0000  0.0000  0.0000  0.0000 </r>
       </set>
       <set comment="band 4">
        <r>  0.0000  0.0201  0.0816  0.0207  0.0000  0.0000  0.0000  0.0000  0.0000 </r>
        <r>  0.0000  0.0704  0.2852  0.0722  0.0000  0.0000  0.0000  0.0000  0.0000 </r>
       </set>
       <set comment="band 5">
        <r>  0.1806  0.0411  0.0411  0.0411  0.0000  0.0000  0.0000  0.0000  0.0000 </r>
        <r>  0.1963  0.0002  0.0002  0.0002  0.0000  0.0000  0.0000  0.0000  0.0000 </r>
       </set>
       <set comment="band 6">
        <r>  0.0000  0.0290  0.2175  0.1241  0.0000  0.0000  0.0000  0.0000  0.0000 </r>
        <r>  0.0000  0.0036  0.0268  0.0153  0.0000  0.0000  0.0000  0.0000  0.0000 </r>
       </set>
       <set comment="band 7">
        <r>  0.0000  0.2181  0.0296  0.1230  0.0000  0.0000  0.0000  0.0000  0.0000 </r>
        <r>  0.0000  0.0269  0.0036  0.0152  0.0000  0.0000  0.0000  0.0000  0.0000 </r>
       </set>
       <set comment="band 8">
        <r>  0.0619  0.0181  0.0181  0.0180  0.0000  0.0000  0.0000  0.0000  0.0000 </r>
        <r>  0.0693  0.1110  0.1110  0.1111  0.0000  0.0000  0.0000  0.0000  0.0000 </r>
       </set>
      </set>
      <set comment="kpoint 192">
       <set comment="band 1">
        <r>  0.2056  0.0095  0.0095  0.0095  0.0000  0.0000  0.0000  0.0000  0.0000 </r>
        <r>  0.2687  0.0034  0.0034  0.0034  0.0000  0.0000  0.0000  0.0000  0.0000 </r>
       </set>
       <set comment="band 2">
        <r>  0.0841  0.0406  0.0406  0.0406  0.0000  0.0000  0.0000  0.0000  0.0000 </r>
        <r>  0.0920  0.0668  0.0668  0.0668  0.0000  0.0000  0.0000  0.0000  0.0000 </r>
       </set>
       <set comment="band 3">
        <r>  0.0000  0.0646  0.0000  0.0646  0.0000  0.0000  0.0000  0.0000  0.0000 </r>
        <r>  0.0000  0.2120  0.0000  0.2121  0.0000  0.0000  0.0000  0.0000  0.0000 </r>
       </set>
       <set comment="band 4">
        <r>  0.0000  0.0215  0.0861  0.0215  0.0000  0.0000  0.0000  0.0000  0.0000 </r>
        <r>  0.0000  0.0707  0.2827  0.0707  0.0000  0.0000  0.0000  0.0000  0.0000 </r>
       </set>
       <set comment="band 5">
        <r>  0.1963  0.0349  0.0349  0.0349  0.0000  0.0000  0.0000  0.0000  0.0000 </r>
        <r>  0.1961  0.0002  0.0002  0.0002  0.0000  0.0000  0.0000  0.0000  0.0000 </r>
       </set>
       <set comment="band 6">
        <r>  0.0000  0.0161  0.1355  0.1957  0.0000  0.0000  0.0000  0.0000  0.0000 </r>
        <r>  0.0000  0.0020  0.0170  0.0246  0.0000  0.0000  0.0000  0.0000  0.0000 </r>
       </set>
       <set comment="band 7">
        <r>  0.0000  0.2154  0.0961  0.0358  0.0000  0.0000  0.0000  0.0000  0.0000 </r>
        <r>  0.0000  0.0271  0.0121  0.0045  0.0000  0.0000  0.0000  0.0000  0.0000 </r>
       </set>
       <set comment="band 8">
        <r>  0.0502  0.0154  0.0154  0.0154  0.0000  0.0000  0.0000  0.0000  0.0000 </r>
        <r>  0.0547  0.1149  0.1149  0.1149  0.0000  0.0000  0.0000  0.0000  0.0000 </r>
       </set>
      </set>
      <set comment="kpoint 193">
       <set comment="band 1">
        <r>  0.1983  0.0110  0.0110  0.0110  0.0000  0.0000  0.0000  0.0000  0.0000 </r>
        <r>  0.2741  0.0038  0.0038  0.0038  0.0000  0.0000  0.0000  0.0000  0.0000 </r>
       </set>
       <set comment="band 2">
        <r>  0.0946  0.0407  0.0407  0.0407  0.0000  0.0000  0.0000  0.0000  0.0000 </r>
        <r>  0.0901  0.0625  0.0625  0.0625  0.0000  0.0000  0.0000  0.0000  0.0000 </r>
       </set>
       <set comment="band 3">
        <r>  0.0000  0.0675  0.0000  0.0676  0.0000  0.0000  0.0000  0.0000  0.0000 </r>
        <r>  0.0000  0.2103  0.0000  0.2106  0.0000  0.0000  0.0000  0.0000  0.0000 </r>
       </set>
       <set comment="band 4">
        <r>  0.0000  0.0226  0.0901  0.0225  0.0000  0.0000  0.0000  0.0000  0.0000 </r>
        <r>  0.0000  0.0703  0.2806  0.0700  0.0000  0.0000  0.0000  0.0000  0.0000 </r>
       </set>
       <set comment="band 5">
        <r>  0.2103  0.0292  0.0292  0.0292  0.0000  0.0000  0.0000  0.0000  0.0000 </r>
        <r>  0.1968  0.0002  0.0002  0.0002  0.0000  0.0000  0.0000  0.0000  0.0000 </r>
       </set>
       <set comment="band 6">
        <r>  0.0000  0.1174  0.1186  0.0909  0.0000  0.0000  0.0000  0.0000  0.0000 </r>
        <r>  0.0000  0.0147  0.0148  0.0114  0.0000  0.0000  0.0000  0.0000  0.0000 </r>
       </set>
       <set comment="band 7">
        <r>  0.0000  0.1005  0.0993  0.1271  0.0000  0.0000  0.0000  0.0000  0.0000 </r>
        <r>  0.0000  0.0126  0.0124  0.0159  0.0000  0.0000  0.0000  0.0000  0.0000 </r>
       </set>
       <set comment="band 8">
        <r>  0.0389  0.0132  0.0131  0.0132  0.0000  0.0000  0.0000  0.0000  0.0000 </r>
        <r>  0.0421  0.1160  0.1160  0.1160  0.0000  0.0000  0.0000  0.0000  0.0000 </r>
       </set>
      </set>
      <set comment="kpoint 194">
       <set comment="band 1">
        <r>  0.1905  0.0125  0.0125  0.0125  0.0000  0.0000  0.0000  0.0000  0.0000 </r>
        <r>  0.2812  0.0041  0.0041  0.0041  0.0000  0.0000  0.0000  0.0000  0.0000 </r>
       </set>
       <set comment="band 2">
        <r>  0.1054  0.0404  0.0404  0.0404  0.0000  0.0000  0.0000  0.0000  0.0000 </r>
        <r>  0.0859  0.0589  0.0589  0.0589  0.0000  0.0000  0.0000  0.0000  0.0000 </r>
       </set>
       <set comment="band 3">
        <r>  0.0000  0.0703  0.0000  0.0700  0.0000  0.0000  0.0000  0.0000  0.0000 </r>
        <r>  0.0000  0.2096  0.0000  0.2086  0.0000  0.0000  0.0000  0.0000  0.0000 </r>
       </set>
       <set comment="band 4">
        <r>  0.0000  0.0232  0.0936  0.0236  0.0000  0.0000  0.0000  0.0000  0.0000 </r>
        <r>  0.0000  0.0692  0.2788  0.0702  0.0000  0.0000  0.0000  0.0000  0.0000 </r>
       </set>
       <set comment="band 5">
        <r>  0.2226  0.0241  0.0241  0.0241  0.0000  0.0000  0.0000  0.0000  0.0000 </r>
        <r>  0.1981  0.0002  0.0002  0.0002  0.0000  0.0000  0.0000  0.0000  0.0000 </r>
       </set>
       <set comment="band 6">
        <r>  0.0000  0.0957  0.0230  0.1914  0.0000  0.0000  0.0000  0.0000  0.0000 </r>
        <r>  0.0000  0.0118  0.0028  0.0235  0.0000  0.0000  0.0000  0.0000  0.0000 </r>
       </set>
       <set comment="band 7">
        <r>  0.0000  0.1111  0.1837  0.0153  0.0000  0.0000  0.0000  0.0000  0.0000 </r>
        <r>  0.0000  0.0136  0.0226  0.0019  0.0000  0.0000  0.0000  0.0000  0.0000 </r>
       </set>
       <set comment="band 8">
        <r>  0.0288  0.0112  0.0112  0.0112  0.0000  0.0000  0.0000  0.0000  0.0000 </r>
        <r>  0.0322  0.1148  0.1148  0.1148  0.0000  0.0000  0.0000  0.0000  0.0000 </r>
       </set>
      </set>
      <set comment="kpoint 195">
       <set comment="band 1">
        <r>  0.1820  0.0139  0.0139  0.0139  0.0000  0.0000  0.0000  0.0000  0.0000 </r>
        <r>  0.2903  0.0042  0.0042  0.0042  0.0000  0.0000  0.0000  0.0000  0.0000 </r>
       </set>
       <set comment="band 2">
        <r>  0.1164  0.0400  0.0400  0.0400  0.0000  0.0000  0.0000  0.0000  0.0000 </r>
        <r>  0.0789  0.0561  0.0561  0.0561  0.0000  0.0000  0.0000  0.0000  0.0000 </r>
       </set>
       <set comment="band 3">
        <r>  0.0000  0.0725  0.0000  0.0723  0.0000  0.0000  0.0000  0.0000  0.0000 </r>
        <r>  0.0000  0.2083  0.0000  0.2078  0.0000  0.0000  0.0000  0.0000  0.0000 </r>
       </set>
       <set comment="band 4">
        <r>  0.0000  0.0240  0.0965  0.0242  0.0000  0.0000  0.0000  0.0000  0.0000 </r>
        <r>  0.0000  0.0691  0.2774  0.0696  0.0000  0.0000  0.0000  0.0000  0.0000 </r>
       </set>
       <set comment="band 5">
        <r>  0.2331  0.0197  0.0197  0.0197  0.0000  0.0000  0.0000  0.0000  0.0000 </r>
        <r>  0.1996  0.0002  0.0002  0.0002  0.0000  0.0000  0.0000  0.0000  0.0000 </r>
       </set>
       <set comment="band 6">
        <r>  0.0000  0.0504  0.0486  0.1978  0.0000  0.0000  0.0000  0.0000  0.0000 </r>
        <r>  0.0000  0.0060  0.0058  0.0236  0.0000  0.0000  0.0000  0.0000  0.0000 </r>
       </set>
       <set comment="band 7">
        <r>  0.0000  0.1475  0.1493  0.0001  0.0000  0.0000  0.0000  0.0000  0.0000 </r>
        <r>  0.0000  0.0176  0.0178  0.0000  0.0000  0.0000  0.0000  0.0000  0.0000 </r>
       </set>
       <set comment="band 8">
        <r>  0.0205  0.0096  0.0096  0.0096  0.0000  0.0000  0.0000  0.0000  0.0000 </r>
        <r>  0.0250  0.1121  0.1121  0.1121  0.0000  0.0000  0.0000  0.0000  0.0000 </r>
       </set>
      </set>
      <set comment="kpoint 196">
       <set comment="band 1">
        <r>  0.1729  0.0152  0.0152  0.0152  0.0000  0.0000  0.0000  0.0000  0.0000 </r>
        <r>  0.3022  0.0040  0.0040  0.0040  0.0000  0.0000  0.0000  0.0000  0.0000 </r>
       </set>
       <set comment="band 2">
        <r>  0.1276  0.0395  0.0395  0.0395  0.0000  0.0000  0.0000  0.0000  0.0000 </r>
        <r>  0.0687  0.0542  0.0542  0.0542  0.0000  0.0000  0.0000  0.0000  0.0000 </r>
       </set>
       <set comment="band 3">
        <r>  0.0000  0.0742  0.0000  0.0742  0.0000  0.0000  0.0000  0.0000  0.0000 </r>
        <r>  0.0000  0.2073  0.0000  0.2072  0.0000  0.0000  0.0000  0.0000  0.0000 </r>
       </set>
       <set comment="band 4">
        <r>  0.0000  0.0247  0.0989  0.0248  0.0000  0.0000  0.0000  0.0000  0.0000 </r>
        <r>  0.0000  0.0690  0.2763  0.0691  0.0000  0.0000  0.0000  0.0000  0.0000 </r>
       </set>
       <set comment="band 5">
        <r>  0.2417  0.0160  0.0160  0.0160  0.0000  0.0000  0.0000  0.0000  0.0000 </r>
        <r>  0.2010  0.0001  0.0001  0.0001  0.0000  0.0000  0.0000  0.0000  0.0000 </r>
       </set>
       <set comment="band 6">
        <r>  0.0000  0.1061  0.0132  0.1673  0.0000  0.0000  0.0000  0.0000  0.0000 </r>
        <r>  0.0000  0.0123  0.0015  0.0194  0.0000  0.0000  0.0000  0.0000  0.0000 </r>
       </set>
       <set comment="band 7">
        <r>  0.0000  0.0850  0.1779  0.0237  0.0000  0.0000  0.0000  0.0000  0.0000 </r>
        <r>  0.0000  0.0098  0.0206  0.0028  0.0000  0.0000  0.0000  0.0000  0.0000 </r>
       </set>
       <set comment="band 8">
        <r>  0.0143  0.0082  0.0082  0.0082  0.0000  0.0000  0.0000  0.0000  0.0000 </r>
        <r>  0.0203  0.1089  0.1089  0.1089  0.0000  0.0000  0.0000  0.0000  0.0000 </r>
       </set>
      </set>
      <set comment="kpoint 197">
       <set comment="band 1">
        <r>  0.1635  0.0163  0.0163  0.0163  0.0000  0.0000  0.0000  0.0000  0.0000 </r>
        <r>  0.3171  0.0035  0.0035  0.0035  0.0000  0.0000  0.0000  0.0000  0.0000 </r>
       </set>
       <set comment="band 2">
        <r>  0.1386  0.0390  0.0390  0.0390  0.0000  0.0000  0.0000  0.0000  0.0000 </r>
        <r>  0.0550  0.0531  0.0531  0.0531  0.0000  0.0000  0.0000  0.0000  0.0000 </r>
       </set>
       <set comment="band 3">
        <r>  0.0000  0.0754  0.0000  0.0759  0.0000  0.0000  0.0000  0.0000  0.0000 </r>
        <r>  0.0000  0.2059  0.0000  0.2073  0.0000  0.0000  0.0000  0.0000  0.0000 </r>
       </set>
       <set comment="band 4">
        <r>  0.0000  0.0255  0.1008  0.0249  0.0000  0.0000  0.0000  0.0000  0.0000 </r>
        <r>  0.0000  0.0696  0.2755  0.0682  0.0000  0.0000  0.0000  0.0000  0.0000 </r>
       </set>
       <set comment="band 5">
        <r>  0.2484  0.0132  0.0132  0.0132  0.0000  0.0000  0.0000  0.0000  0.0000 </r>
        <r>  0.2023  0.0001  0.0001  0.0001  0.0000  0.0000  0.0000  0.0000  0.0000 </r>
       </set>
       <set comment="band 6">
        <r>  0.0000  0.1321  0.1359  0.0112  0.0000  0.0000  0.0000  0.0000  0.0000 </r>
        <r>  0.0000  0.0148  0.0153  0.0013  0.0000  0.0000  0.0000  0.0000  0.0000 </r>
       </set>
       <set comment="band 7">
        <r>  0.0000  0.0540  0.0502  0.1750  0.0000  0.0000  0.0000  0.0000  0.0000 </r>
        <r>  0.0000  0.0061  0.0056  0.0197  0.0000  0.0000  0.0000  0.0000  0.0000 </r>
       </set>
       <set comment="band 8">
        <r>  0.0099  0.0071  0.0071  0.0071  0.0000  0.0000  0.0000  0.0000  0.0000 </r>
        <r>  0.0173  0.1058  0.1058  0.1058  0.0000  0.0000  0.0000  0.0000  0.0000 </r>
       </set>
      </set>
      <set comment="kpoint 198">
       <set comment="band 1">
        <r>  0.1545  0.0172  0.0172  0.0172  0.0000  0.0000  0.0000  0.0000  0.0000 </r>
        <r>  0.3343  0.0025  0.0025  0.0025  0.0000  0.0000  0.0000  0.0000  0.0000 </r>
       </set>
       <set comment="band 2">
        <r>  0.1489  0.0386  0.0386  0.0386  0.0000  0.0000  0.0000  0.0000  0.0000 </r>
        <r>  0.0388  0.0529  0.0529  0.0529  0.0000  0.0000  0.0000  0.0000  0.0000 </r>
       </set>
       <set comment="band 3">
        <r>  0.0000  0.0766  0.0000  0.0766  0.0000  0.0000  0.0000  0.0000  0.0000 </r>
        <r>  0.0000  0.2062  0.0000  0.2062  0.0000  0.0000  0.0000  0.0000  0.0000 </r>
       </set>
       <set comment="band 4">
        <r>  0.0000  0.0255  0.1022  0.0255  0.0000  0.0000  0.0000  0.0000  0.0000 </r>
        <r>  0.0000  0.0687  0.2749  0.0687  0.0000  0.0000  0.0000  0.0000  0.0000 </r>
       </set>
       <set comment="band 5">
        <r>  0.2532  0.0111  0.0111  0.0111  0.0000  0.0000  0.0000  0.0000  0.0000 </r>
        <r>  0.2032  0.0001  0.0001  0.0001  0.0000  0.0000  0.0000  0.0000  0.0000 </r>
       </set>
       <set comment="band 6">
        <r>  0.0000  0.1746  0.0820  0.0176  0.0000  0.0000  0.0000  0.0000  0.0000 </r>
        <r>  0.0000  0.0191  0.0090  0.0019  0.0000  0.0000  0.0000  0.0000  0.0000 </r>
       </set>
       <set comment="band 7">
        <r>  0.0000  0.0082  0.1008  0.1652  0.0000  0.0000  0.0000  0.0000  0.0000 </r>
        <r>  0.0000  0.0009  0.0111  0.0181  0.0000  0.0000  0.0000  0.0000  0.0000 </r>
       </set>
       <set comment="band 8">
        <r>  0.0070  0.0063  0.0063  0.0063  0.0000  0.0000  0.0000  0.0000  0.0000 </r>
        <r>  0.0155  0.1033  0.1033  0.1033  0.0000  0.0000  0.0000  0.0000  0.0000 </r>
       </set>
      </set>
      <set comment="kpoint 199">
       <set comment="band 1">
        <r>  0.1473  0.0176  0.0176  0.0176  0.0000  0.0000  0.0000  0.0000  0.0000 </r>
        <r>  0.3497  0.0015  0.0015  0.0015  0.0000  0.0000  0.0000  0.0000  0.0000 </r>
       </set>
       <set comment="band 2">
        <r>  0.1567  0.0384  0.0384  0.0384  0.0000  0.0000  0.0000  0.0000  0.0000 </r>
        <r>  0.0238  0.0532  0.0532  0.0532  0.0000  0.0000  0.0000  0.0000  0.0000 </r>
       </set>
       <set comment="band 3">
        <r>  0.0000  0.0772  0.0000  0.0773  0.0000  0.0000  0.0000  0.0000  0.0000 </r>
        <r>  0.0000  0.2058  0.0000  0.2060  0.0000  0.0000  0.0000  0.0000  0.0000 </r>
       </set>
       <set comment="band 4">
        <r>  0.0000  0.0258  0.1030  0.0257  0.0000  0.0000  0.0000  0.0000  0.0000 </r>
        <r>  0.0000  0.0687  0.2745  0.0686  0.0000  0.0000  0.0000  0.0000  0.0000 </r>
       </set>
       <set comment="band 5">
        <r>  0.2562  0.0099  0.0099  0.0099  0.0000  0.0000  0.0000  0.0000  0.0000 </r>
        <r>  0.2038  0.0001  0.0001  0.0001  0.0000  0.0000  0.0000  0.0000  0.0000 </r>
       </set>
       <set comment="band 6">
        <r>  0.0000  0.1623  0.0183  0.0906  0.0000  0.0000  0.0000  0.0000  0.0000 </r>
        <r>  0.0000  0.0175  0.0020  0.0098  0.0000  0.0000  0.0000  0.0000  0.0000 </r>
       </set>
       <set comment="band 7">
        <r>  0.0000  0.0185  0.1625  0.0902  0.0000  0.0000  0.0000  0.0000  0.0000 </r>
        <r>  0.0000  0.0020  0.0175  0.0097  0.0000  0.0000  0.0000  0.0000  0.0000 </r>
       </set>
       <set comment="band 8">
        <r>  0.0053  0.0058  0.0058  0.0058  0.0000  0.0000  0.0000  0.0000  0.0000 </r>
        <r>  0.0146  0.1018  0.1018  0.1018  0.0000  0.0000  0.0000  0.0000  0.0000 </r>
       </set>
      </set>
      <set comment="kpoint 200">
       <set comment="band 1">
        <r>  0.1445  0.0178  0.0178  0.0178  0.0000  0.0000  0.0000  0.0000  0.0000 </r>
        <r>  0.3563  0.0010  0.0010  0.0010  0.0000  0.0000  0.0000  0.0000  0.0000 </r>
       </set>
       <set comment="band 2">
        <r>  0.1598  0.0383  0.0383  0.0383  0.0000  0.0000  0.0000  0.0000  0.0000 </r>
        <r>  0.0174  0.0535  0.0535  0.0535  0.0000  0.0000  0.0000  0.0000  0.0000 </r>
       </set>
       <set comment="band 3">
        <r>  0.0000  0.0769  0.0000  0.0779  0.0000  0.0000  0.0000  0.0000  0.0000 </r>
        <r>  0.0000  0.2045  0.0000  0.2071  0.0000  0.0000  0.0000  0.0000  0.0000 </r>
       </set>
       <set comment="band 4">
        <r>  0.0000  0.0263  0.1032  0.0253  0.0000  0.0000  0.0000  0.0000  0.0000 </r>
        <r>  0.0000  0.0699  0.2744  0.0674  0.0000  0.0000  0.0000  0.0000  0.0000 </r>
       </set>
       <set comment="band 5">
        <r>  0.2571  0.0095  0.0095  0.0095  0.0000  0.0000  0.0000  0.0000  0.0000 </r>
        <r>  0.2040  0.0001  0.0001  0.0001  0.0000  0.0000  0.0000  0.0000  0.0000 </r>
       </set>
       <set comment="band 6">
        <r>  0.0000  0.0875  0.1609  0.0219  0.0000  0.0000  0.0000  0.0000  0.0000 </r>
        <r>  0.0000  0.0094  0.0173  0.0023  0.0000  0.0000  0.0000  0.0000  0.0000 </r>
       </set>
       <set comment="band 7">
        <r>  0.0000  0.0927  0.0192  0.1583  0.0000  0.0000  0.0000  0.0000  0.0000 </r>
        <r>  0.0000  0.0100  0.0021  0.0170  0.0000  0.0000  0.0000  0.0000  0.0000 </r>
       </set>
       <set comment="band 8">
        <r>  0.0048  0.0057  0.0057  0.0057  0.0000  0.0000  0.0000  0.0000  0.0000 </r>
        <r>  0.0144  0.1012  0.1012  0.1012  0.0000  0.0000  0.0000  0.0000  0.0000 </r>
       </set>
      </set>
      <set comment="kpoint 201">
       <set comment="band 1">
        <r>  0.1445  0.0178  0.0178  0.0178  0.0000  0.0000  0.0000  0.0000  0.0000 </r>
        <r>  0.3563  0.0010  0.0010  0.0010  0.0000  0.0000  0.0000  0.0000  0.0000 </r>
       </set>
       <set comment="band 2">
        <r>  0.1598  0.0383  0.0383  0.0383  0.0000  0.0000  0.0000  0.0000  0.0000 </r>
        <r>  0.0174  0.0535  0.0535  0.0535  0.0000  0.0000  0.0000  0.0000  0.0000 </r>
       </set>
       <set comment="band 3">
        <r>  0.0000  0.0774  0.0000  0.0774  0.0000  0.0000  0.0000  0.0000  0.0000 </r>
        <r>  0.0000  0.2058  0.0000  0.2059  0.0000  0.0000  0.0000  0.0000  0.0000 </r>
       </set>
       <set comment="band 4">
        <r>  0.0000  0.0258  0.1032  0.0258  0.0000  0.0000  0.0000  0.0000  0.0000 </r>
        <r>  0.0000  0.0686  0.2744  0.0686  0.0000  0.0000  0.0000  0.0000  0.0000 </r>
       </set>
       <set comment="band 5">
        <r>  0.2571  0.0095  0.0095  0.0095  0.0000  0.0000  0.0000  0.0000  0.0000 </r>
        <r>  0.2040  0.0001  0.0001  0.0001  0.0000  0.0000  0.0000  0.0000  0.0000 </r>
       </set>
       <set comment="band 6">
        <r>  0.0000  0.1440  0.0011  0.1252  0.0000  0.0000  0.0000  0.0000  0.0000 </r>
        <r>  0.0000  0.0154  0.0001  0.0134  0.0000  0.0000  0.0000  0.0000  0.0000 </r>
       </set>
       <set comment="band 7">
        <r>  0.0000  0.0362  0.1791  0.0549  0.0000  0.0000  0.0000  0.0000  0.0000 </r>
        <r>  0.0000  0.0039  0.0192  0.0059  0.0000  0.0000  0.0000  0.0000  0.0000 </r>
       </set>
       <set comment="band 8">
        <r>  0.0048  0.0057  0.0057  0.0057  0.0000  0.0000  0.0000  0.0000  0.0000 </r>
        <r>  0.0144  0.1012  0.1012  0.1012  0.0000  0.0000  0.0000  0.0000  0.0000 </r>
       </set>
      </set>
      <set comment="kpoint 202">
       <set comment="band 1">
        <r>  0.1441  0.0179  0.0179  0.0177  0.0000  0.0000  0.0000  0.0000  0.0000 </r>
        <r>  0.3564  0.0011  0.0011  0.0010  0.0000  0.0000  0.0000  0.0000  0.0000 </r>
       </set>
       <set comment="band 2">
        <r>  0.1601  0.0383  0.0383  0.0383  0.0000  0.0000  0.0000  0.0000  0.0000 </r>
        <r>  0.0174  0.0535  0.0535  0.0535  0.0000  0.0000  0.0000  0.0000  0.0000 </r>
       </set>
       <set comment="band 3">
        <r>  0.0023  0.0767  0.0767  0.0009  0.0000  0.0000  0.0000  0.0000  0.0000 </r>
        <r>  0.0016  0.2034  0.2034  0.0002  0.0000  0.0000  0.0000  0.0000  0.0000 </r>
       </set>
       <set comment="band 4">
        <r>  0.0000  0.0262  0.0262  0.1030  0.0000  0.0000  0.0000  0.0000  0.0000 </r>
        <r>  0.0000  0.0686  0.0686  0.2735  0.0000  0.0000  0.0000  0.0000  0.0000 </r>
       </set>
       <set comment="band 5">
        <r>  0.2548  0.0101  0.0101  0.0084  0.0000  0.0000  0.0000  0.0000  0.0000 </r>
        <r>  0.2000  0.0027  0.0027  0.0000  0.0000  0.0000  0.0000  0.0000  0.0000 </r>
       </set>
       <set comment="band 6">
        <r>  0.0002  0.1314  0.1314  0.0006  0.0000  0.0000  0.0000  0.0000  0.0000 </r>
        <r>  0.0028  0.0136  0.0136  0.0035  0.0000  0.0000  0.0000  0.0000  0.0000 </r>
       </set>
       <set comment="band 7">
        <r>  0.0000  0.0447  0.0447  0.1802  0.0000  0.0000  0.0000  0.0000  0.0000 </r>
        <r>  0.0000  0.0053  0.0053  0.0197  0.0000  0.0000  0.0000  0.0000  0.0000 </r>
       </set>
       <set comment="band 8">
        <r>  0.0055  0.0092  0.0092  0.0054  0.0000  0.0000  0.0000  0.0000  0.0000 </r>
        <r>  0.0133  0.1030  0.1030  0.0990  0.0000  0.0000  0.0000  0.0000  0.0000 </r>
       </set>
      </set>
      <set comment="kpoint 203">
       <set comment="band 1">
        <r>  0.1428  0.0184  0.0184  0.0176  0.0000  0.0000  0.0000  0.0000  0.0000 </r>
        <r>  0.3570  0.0012  0.0012  0.0010  0.0000  0.0000  0.0000  0.0000  0.0000 </r>
       </set>
       <set comment="band 2">
        <r>  0.1608  0.0383  0.0383  0.0381  0.0000  0.0000  0.0000  0.0000  0.0000 </r>
        <r>  0.0174  0.0536  0.0536  0.0534  0.0000  0.0000  0.0000  0.0000  0.0000 </r>
       </set>
       <set comment="band 3">
        <r>  0.0088  0.0748  0.0748  0.0035  0.0000  0.0000  0.0000  0.0000  0.0000 </r>
        <r>  0.0061  0.1968  0.1968  0.0008  0.0000  0.0000  0.0000  0.0000  0.0000 </r>
       </set>
       <set comment="band 4">
        <r>  0.0000  0.0275  0.0275  0.1022  0.0000  0.0000  0.0000  0.0000  0.0000 </r>
        <r>  0.0000  0.0686  0.0686  0.2706  0.0000  0.0000  0.0000  0.0000  0.0000 </r>
       </set>
       <set comment="band 5">
        <r>  0.2476  0.0118  0.0118  0.0056  0.0000  0.0000  0.0000  0.0000  0.0000 </r>
        <r>  0.1873  0.0098  0.0098  0.0003  0.0000  0.0000  0.0000  0.0000  0.0000 </r>
       </set>
       <set comment="band 6">
        <r>  0.0012  0.1222  0.1222  0.0023  0.0000  0.0000  0.0000  0.0000  0.0000 </r>
        <r>  0.0114  0.0111  0.0111  0.0119  0.0000  0.0000  0.0000  0.0000  0.0000 </r>
       </set>
       <set comment="band 7">
        <r>  0.0006  0.0435  0.0435  0.1796  0.0000  0.0000  0.0000  0.0000  0.0000 </r>
        <r>  0.0005  0.0069  0.0069  0.0207  0.0000  0.0000  0.0000  0.0000  0.0000 </r>
       </set>
       <set comment="band 8">
        <r>  0.0076  0.0175  0.0175  0.0047  0.0000  0.0000  0.0000  0.0000  0.0000 </r>
        <r>  0.0108  0.1081  0.1081  0.0941  0.0000  0.0000  0.0000  0.0000  0.0000 </r>
       </set>
      </set>
      <set comment="kpoint 204">
       <set comment="band 1">
        <r>  0.1407  0.0191  0.0191  0.0174  0.0000  0.0000  0.0000  0.0000  0.0000 </r>
        <r>  0.3579  0.0013  0.0013  0.0010  0.0000  0.0000  0.0000  0.0000  0.0000 </r>
       </set>
       <set comment="band 2">
        <r>  0.1620  0.0382  0.0382  0.0378  0.0000  0.0000  0.0000  0.0000  0.0000 </r>
        <r>  0.0174  0.0539  0.0539  0.0534  0.0000  0.0000  0.0000  0.0000  0.0000 </r>
       </set>
       <set comment="band 3">
        <r>  0.0180  0.0720  0.0720  0.0073  0.0000  0.0000  0.0000  0.0000  0.0000 </r>
        <r>  0.0122  0.1874  0.1874  0.0017  0.0000  0.0000  0.0000  0.0000  0.0000 </r>
       </set>
       <set comment="band 4">
        <r>  0.0001  0.0295  0.0295  0.1010  0.0000  0.0000  0.0000  0.0000  0.0000 </r>
        <r>  0.0000  0.0686  0.0686  0.2659  0.0000  0.0000  0.0000  0.0000  0.0000 </r>
       </set>
       <set comment="band 5">
        <r>  0.2332  0.0147  0.0147  0.0028  0.0000  0.0000  0.0000  0.0000  0.0000 </r>
        <r>  0.1630  0.0190  0.0190  0.0027  0.0000  0.0000  0.0000  0.0000  0.0000 </r>
       </set>
       <set comment="band 6">
        <r>  0.0052  0.1109  0.1109  0.0052  0.0000  0.0000  0.0000  0.0000  0.0000 </r>
        <r>  0.0277  0.0074  0.0074  0.0211  0.0000  0.0000  0.0000  0.0000  0.0000 </r>
       </set>
       <set comment="band 7">
        <r>  0.0027  0.0416  0.0416  0.1770  0.0000  0.0000  0.0000  0.0000  0.0000 </r>
        <r>  0.0025  0.0104  0.0104  0.0220  0.0000  0.0000  0.0000  0.0000  0.0000 </r>
       </set>
       <set comment="band 8">
        <r>  0.0117  0.0269  0.0269  0.0038  0.0000  0.0000  0.0000  0.0000  0.0000 </r>
        <r>  0.0078  0.1160  0.1157  0.0890  0.0000  0.0000  0.0000  0.0000  0.0000 </r>
       </set>
      </set>
      <set comment="kpoint 205">
       <set comment="band 1">
        <r>  0.1378  0.0200  0.0200  0.0170  0.0000  0.0000  0.0000  0.0000  0.0000 </r>
        <r>  0.3593  0.0016  0.0016  0.0009  0.0000  0.0000  0.0000  0.0000  0.0000 </r>
       </set>
       <set comment="band 2">
        <r>  0.1638  0.0380  0.0380  0.0374  0.0000  0.0000  0.0000  0.0000  0.0000 </r>
        <r>  0.0174  0.0542  0.0542  0.0533  0.0000  0.0000  0.0000  0.0000  0.0000 </r>
       </set>
       <set comment="band 3">
        <r>  0.0286  0.0687  0.0687  0.0118  0.0000  0.0000  0.0000  0.0000  0.0000 </r>
        <r>  0.0189  0.1766  0.1766  0.0028  0.0000  0.0000  0.0000  0.0000  0.0000 </r>
       </set>
       <set comment="band 4">
        <r>  0.0002  0.0323  0.0323  0.0993  0.0000  0.0000  0.0000  0.0000  0.0000 </r>
        <r>  0.0000  0.0685  0.0685  0.2593  0.0000  0.0000  0.0000  0.0000  0.0000 </r>
       </set>
       <set comment="band 5">
        <r>  0.2066  0.0190  0.0190  0.0012  0.0000  0.0000  0.0000  0.0000  0.0000 </r>
        <r>  0.1239  0.0270  0.0270  0.0112  0.0000  0.0000  0.0000  0.0000  0.0000 </r>
       </set>
       <set comment="band 6">
        <r>  0.0176  0.0988  0.0988  0.0099  0.0000  0.0000  0.0000  0.0000  0.0000 </r>
        <r>  0.0548  0.0040  0.0040  0.0260  0.0000  0.0000  0.0000  0.0000  0.0000 </r>
       </set>
       <set comment="band 7">
        <r>  0.0075  0.0390  0.0390  0.1709  0.0000  0.0000  0.0000  0.0000  0.0000 </r>
        <r>  0.0067  0.0165  0.0165  0.0233  0.0000  0.0000  0.0000  0.0000  0.0000 </r>
       </set>
       <set comment="band 8">
        <r>  0.0182  0.0349  0.0350  0.0028  0.0000  0.0000  0.0000  0.0000  0.0000 </r>
        <r>  0.0049  0.1252  0.1252  0.0852  0.0000  0.0000  0.0000  0.0000  0.0000 </r>
       </set>
      </set>
      <set comment="kpoint 206">
       <set comment="band 1">
        <r>  0.1339  0.0213  0.0213  0.0166  0.0000  0.0000  0.0000  0.0000  0.0000 </r>
        <r>  0.3612  0.0018  0.0018  0.0009  0.0000  0.0000  0.0000  0.0000  0.0000 </r>
       </set>
       <set comment="band 2">
        <r>  0.1663  0.0378  0.0378  0.0369  0.0000  0.0000  0.0000  0.0000  0.0000 </r>
        <r>  0.0174  0.0547  0.0547  0.0531  0.0000  0.0000  0.0000  0.0000  0.0000 </r>
       </set>
       <set comment="band 3">
        <r>  0.0396  0.0652  0.0652  0.0165  0.0000  0.0000  0.0000  0.0000  0.0000 </r>
        <r>  0.0252  0.1658  0.1658  0.0040  0.0000  0.0000  0.0000  0.0000  0.0000 </r>
       </set>
       <set comment="band 4">
        <r>  0.0006  0.0355  0.0355  0.0971  0.0000  0.0000  0.0000  0.0000  0.0000 </r>
        <r>  0.0000  0.0682  0.0682  0.2510  0.0000  0.0000  0.0000  0.0000  0.0000 </r>
       </set>
       <set comment="band 5">
        <r>  0.1657  0.0247  0.0247  0.0010  0.0000  0.0000  0.0000  0.0000  0.0000 </r>
        <r>  0.0761  0.0297  0.0297  0.0296  0.0000  0.0000  0.0000  0.0000  0.0000 </r>
       </set>
       <set comment="band 6">
        <r>  0.0416  0.0862  0.0862  0.0167  0.0000  0.0000  0.0000  0.0000  0.0000 </r>
        <r>  0.0880  0.0037  0.0037  0.0229  0.0000  0.0000  0.0000  0.0000  0.0000 </r>
       </set>
       <set comment="band 7">
        <r>  0.0145  0.0361  0.0361  0.1610  0.0000  0.0000  0.0000  0.0000  0.0000 </r>
        <r>  0.0122  0.0258  0.0258  0.0242  0.0000  0.0000  0.0000  0.0000  0.0000 </r>
       </set>
       <set comment="band 8">
        <r>  0.0272  0.0405  0.0405  0.0019  0.0000  0.0000  0.0000  0.0000  0.0000 </r>
        <r>  0.0027  0.1344  0.1344  0.0826  0.0000  0.0000  0.0000  0.0000  0.0000 </r>
       </set>
      </set>
      <set comment="kpoint 207">
       <set comment="band 1">
        <r>  0.1291  0.0229  0.0229  0.0160  0.0000  0.0000  0.0000  0.0000  0.0000 </r>
        <r>  0.3635  0.0021  0.0021  0.0008  0.0000  0.0000  0.0000  0.0000  0.0000 </r>
       </set>
       <set comment="band 2">
        <r>  0.1696  0.0376  0.0376  0.0361  0.0000  0.0000  0.0000  0.0000  0.0000 </r>
        <r>  0.0175  0.0553  0.0553  0.0529  0.0000  0.0000  0.0000  0.0000  0.0000 </r>
       </set>
       <set comment="band 3">
        <r>  0.0501  0.0616  0.0616  0.0214  0.0000  0.0000  0.0000  0.0000  0.0000 </r>
        <r>  0.0305  0.1554  0.1554  0.0054  0.0000  0.0000  0.0000  0.0000  0.0000 </r>
       </set>
       <set comment="band 4">
        <r>  0.0011  0.0392  0.0392  0.0945  0.0000  0.0000  0.0000  0.0000  0.0000 </r>
        <r>  0.0000  0.0678  0.0678  0.2413  0.0000  0.0000  0.0000  0.0000  0.0000 </r>
       </set>
       <set comment="band 5">
        <r>  0.1241  0.0288  0.0288  0.0016  0.0000  0.0000  0.0000  0.0000  0.0000 </r>
        <r>  0.0389  0.0270  0.0270  0.0541  0.0000  0.0000  0.0000  0.0000  0.0000 </r>
       </set>
       <set comment="band 6">
        <r>  0.0657  0.0757  0.0757  0.0247  0.0000  0.0000  0.0000  0.0000  0.0000 </r>
        <r>  0.1103  0.0070  0.0070  0.0153  0.0000  0.0000  0.0000  0.0000  0.0000 </r>
       </set>
       <set comment="band 7">
        <r>  0.0224  0.0332  0.0332  0.1488  0.0000  0.0000  0.0000  0.0000  0.0000 </r>
        <r>  0.0173  0.0377  0.0377  0.0246  0.0000  0.0000  0.0000  0.0000  0.0000 </r>
       </set>
       <set comment="band 8">
        <r>  0.0383  0.0433  0.0433  0.0010  0.0000  0.0000  0.0000  0.0000  0.0000 </r>
        <r>  0.0011  0.1416  0.1417  0.0804  0.0000  0.0000  0.0000  0.0000  0.0000 </r>
       </set>
      </set>
      <set comment="kpoint 208">
       <set comment="band 1">
        <r>  0.1234  0.0247  0.0247  0.0153  0.0000  0.0000  0.0000  0.0000  0.0000 </r>
        <r>  0.3665  0.0024  0.0024  0.0007  0.0000  0.0000  0.0000  0.0000  0.0000 </r>
       </set>
       <set comment="band 2">
        <r>  0.1741  0.0371  0.0371  0.0352  0.0000  0.0000  0.0000  0.0000  0.0000 </r>
        <r>  0.0175  0.0560  0.0560  0.0525  0.0000  0.0000  0.0000  0.0000  0.0000 </r>
       </set>
       <set comment="band 3">
        <r>  0.0598  0.0582  0.0582  0.0264  0.0000  0.0000  0.0000  0.0000  0.0000 </r>
        <r>  0.0345  0.1458  0.1458  0.0070  0.0000  0.0000  0.0000  0.0000  0.0000 </r>
       </set>
       <set comment="band 4">
        <r>  0.0018  0.0431  0.0431  0.0916  0.0000  0.0000  0.0000  0.0000  0.0000 </r>
        <r>  0.0001  0.0672  0.0672  0.2304  0.0000  0.0000  0.0000  0.0000  0.0000 </r>
       </set>
       <set comment="band 5">
        <r>  0.0945  0.0290  0.0290  0.0028  0.0000  0.0000  0.0000  0.0000  0.0000 </r>
        <r>  0.0189  0.0225  0.0225  0.0786  0.0000  0.0000  0.0000  0.0000  0.0000 </r>
       </set>
       <set comment="band 6">
        <r>  0.0791  0.0694  0.0694  0.0323  0.0000  0.0000  0.0000  0.0000  0.0000 </r>
        <r>  0.1170  0.0110  0.0110  0.0092  0.0000  0.0000  0.0000  0.0000  0.0000 </r>
       </set>
       <set comment="band 7">
        <r>  0.0300  0.0302  0.0302  0.1360  0.0000  0.0000  0.0000  0.0000  0.0000 </r>
        <r>  0.0201  0.0516  0.0516  0.0250  0.0000  0.0000  0.0000  0.0000  0.0000 </r>
       </set>
       <set comment="band 8">
        <r>  0.0502  0.0435  0.0435  0.0004  0.0000  0.0000  0.0000  0.0000  0.0000 </r>
        <r>  0.0002  0.1454  0.1454  0.0772  0.0000  0.0000  0.0000  0.0000  0.0000 </r>
       </set>
      </set>
      <set comment="kpoint 209">
       <set comment="band 1">
        <r>  0.1166  0.0269  0.0269  0.0145  0.0000  0.0000  0.0000  0.0000  0.0000 </r>
        <r>  0.3702  0.0027  0.0027  0.0007  0.0000  0.0000  0.0000  0.0000  0.0000 </r>
       </set>
       <set comment="band 2">
        <r>  0.1799  0.0365  0.0365  0.0339  0.0000  0.0000  0.0000  0.0000  0.0000 </r>
        <r>  0.0176  0.0570  0.0570  0.0519  0.0000  0.0000  0.0000  0.0000  0.0000 </r>
       </set>
       <set comment="band 3">
        <r>  0.0683  0.0548  0.0548  0.0315  0.0000  0.0000  0.0000  0.0000  0.0000 </r>
        <r>  0.0371  0.1371  0.1371  0.0088  0.0000  0.0000  0.0000  0.0000  0.0000 </r>
       </set>
       <set comment="band 4">
        <r>  0.0027  0.0470  0.0470  0.0884  0.0000  0.0000  0.0000  0.0000  0.0000 </r>
        <r>  0.0001  0.0663  0.0663  0.2187  0.0000  0.0000  0.0000  0.0000  0.0000 </r>
       </set>
       <set comment="band 5">
        <r>  0.0752  0.0265  0.0265  0.0041  0.0000  0.0000  0.0000  0.0000  0.0000 </r>
        <r>  0.0094  0.0183  0.0183  0.1016  0.0000  0.0000  0.0000  0.0000  0.0000 </r>
       </set>
       <set comment="band 6">
        <r>  0.0839  0.0663  0.0663  0.0385  0.0000  0.0000  0.0000  0.0000  0.0000 </r>
        <r>  0.1153  0.0143  0.0143  0.0055  0.0000  0.0000  0.0000  0.0000  0.0000 </r>
       </set>
       <set comment="band 7">
        <r>  0.0382  0.0272  0.0272  0.1234  0.0000  0.0000  0.0000  0.0000  0.0000 </r>
        <r>  0.0200  0.0674  0.0674  0.0264  0.0000  0.0000  0.0000  0.0000  0.0000 </r>
       </set>
       <set comment="band 8">
        <r>  0.0603  0.0415  0.0414  0.0001  0.0000  0.0000  0.0000  0.0000  0.0000 </r>
        <r>  0.0000  0.1446  0.1445  0.0716  0.0000  0.0000  0.0000  0.0000  0.0000 </r>
       </set>
      </set>
      <set comment="kpoint 210">
       <set comment="band 1">
        <r>  0.1088  0.0293  0.0293  0.0136  0.0000  0.0000  0.0000  0.0000  0.0000 </r>
        <r>  0.3747  0.0030  0.0030  0.0006  0.0000  0.0000  0.0000  0.0000  0.0000 </r>
       </set>
       <set comment="band 2">
        <r>  0.1877  0.0357  0.0357  0.0323  0.0000  0.0000  0.0000  0.0000  0.0000 </r>
        <r>  0.0177  0.0581  0.0581  0.0510  0.0000  0.0000  0.0000  0.0000  0.0000 </r>
       </set>
       <set comment="band 3">
        <r>  0.0751  0.0517  0.0517  0.0368  0.0000  0.0000  0.0000  0.0000  0.0000 </r>
        <r>  0.0381  0.1292  0.1292  0.0109  0.0000  0.0000  0.0000  0.0000  0.0000 </r>
       </set>
       <set comment="band 4">
        <r>  0.0038  0.0508  0.0508  0.0852  0.0000  0.0000  0.0000  0.0000  0.0000 </r>
        <r>  0.0002  0.0651  0.0651  0.2067  0.0000  0.0000  0.0000  0.0000  0.0000 </r>
       </set>
       <set comment="band 5">
        <r>  0.0619  0.0228  0.0228  0.0051  0.0000  0.0000  0.0000  0.0000  0.0000 </r>
        <r>  0.0048  0.0149  0.0149  0.1236  0.0000  0.0000  0.0000  0.0000  0.0000 </r>
       </set>
       <set comment="band 6">
        <r>  0.0842  0.0650  0.0650  0.0432  0.0000  0.0000  0.0000  0.0000  0.0000 </r>
        <r>  0.1108  0.0168  0.0168  0.0034  0.0000  0.0000  0.0000  0.0000  0.0000 </r>
       </set>
       <set comment="band 7">
        <r>  0.0513  0.0239  0.0239  0.1101  0.0000  0.0000  0.0000  0.0000  0.0000 </r>
        <r>  0.0167  0.0862  0.0862  0.0309  0.0000  0.0000  0.0000  0.0000  0.0000 </r>
       </set>
       <set comment="band 8">
        <r>  0.0632  0.0375  0.0375  0.0001  0.0000  0.0000  0.0000  0.0000  0.0000 </r>
        <r>  0.0005  0.1382  0.1384  0.0609  0.0000  0.0000  0.0000  0.0000  0.0000 </r>
       </set>
      </set>
      <set comment="kpoint 211">
       <set comment="band 1">
        <r>  0.0998  0.0321  0.0321  0.0125  0.0000  0.0000  0.0000  0.0000  0.0000 </r>
        <r>  0.3801  0.0033  0.0033  0.0005  0.0000  0.0000  0.0000  0.0000  0.0000 </r>
       </set>
       <set comment="band 2">
        <r>  0.1981  0.0345  0.0345  0.0301  0.0000  0.0000  0.0000  0.0000  0.0000 </r>
        <r>  0.0179  0.0596  0.0596  0.0495  0.0000  0.0000  0.0000  0.0000  0.0000 </r>
       </set>
       <set comment="band 3">
        <r>  0.0799  0.0487  0.0487  0.0425  0.0000  0.0000  0.0000  0.0000  0.0000 </r>
        <r>  0.0374  0.1221  0.1221  0.0135  0.0000  0.0000  0.0000  0.0000  0.0000 </r>
       </set>
       <set comment="band 4">
        <r>  0.0049  0.0543  0.0543  0.0819  0.0000  0.0000  0.0000  0.0000  0.0000 </r>
        <r>  0.0003  0.0638  0.0638  0.1950  0.0000  0.0000  0.0000  0.0000  0.0000 </r>
       </set>
       <set comment="band 5">
        <r>  0.0517  0.0188  0.0188  0.0059  0.0000  0.0000  0.0000  0.0000  0.0000 </r>
        <r>  0.0025  0.0122  0.0122  0.1448  0.0000  0.0000  0.0000  0.0000  0.0000 </r>
       </set>
       <set comment="band 6">
        <r>  0.0828  0.0647  0.0647  0.0464  0.0000  0.0000  0.0000  0.0000  0.0000 </r>
        <r>  0.1057  0.0190  0.0190  0.0022  0.0000  0.0000  0.0000  0.0000  0.0000 </r>
       </set>
       <set comment="band 7">
        <r>  0.0860  0.0218  0.0218  0.0908  0.0000  0.0000  0.0000  0.0000  0.0000 </r>
        <r>  0.0094  0.1134  0.1134  0.0469  0.0000  0.0000  0.0000  0.0000  0.0000 </r>
       </set>
       <set comment="band 8">
        <r>  0.0421  0.0314  0.0314  0.0028  0.0000  0.0000  0.0000  0.0000  0.0000 </r>
        <r>  0.0024  0.1221  0.1221  0.0363  0.0000  0.0000  0.0000  0.0000  0.0000 </r>
       </set>
      </set>
      <set comment="kpoint 212">
       <set comment="band 1">
        <r>  0.0896  0.0351  0.0351  0.0112  0.0000  0.0000  0.0000  0.0000  0.0000 </r>
        <r>  0.3866  0.0034  0.0034  0.0004  0.0000  0.0000  0.0000  0.0000  0.0000 </r>
       </set>
       <set comment="band 2">
        <r>  0.2120  0.0328  0.0328  0.0274  0.0000  0.0000  0.0000  0.0000  0.0000 </r>
        <r>  0.0181  0.0616  0.0616  0.0473  0.0000  0.0000  0.0000  0.0000  0.0000 </r>
       </set>
       <set comment="band 3">
        <r>  0.0817  0.0461  0.0461  0.0489  0.0000  0.0000  0.0000  0.0000  0.0000 </r>
        <r>  0.0350  0.1157  0.1157  0.0168  0.0000  0.0000  0.0000  0.0000  0.0000 </r>
       </set>
       <set comment="band 4">
        <r>  0.0060  0.0575  0.0575  0.0786  0.0000  0.0000  0.0000  0.0000  0.0000 </r>
        <r>  0.0003  0.0621  0.0621  0.1838  0.0000  0.0000  0.0000  0.0000  0.0000 </r>
       </set>
       <set comment="band 5">
        <r>  0.0429  0.0151  0.0151  0.0063  0.0000  0.0000  0.0000  0.0000  0.0000 </r>
        <r>  0.0013  0.0099  0.0099  0.1654  0.0000  0.0000  0.0000  0.0000  0.0000 </r>
       </set>
       <set comment="band 6">
        <r>  0.0807  0.0649  0.0649  0.0483  0.0000  0.0000  0.0000  0.0000  0.0000 </r>
        <r>  0.1006  0.0211  0.0211  0.0015  0.0000  0.0000  0.0000  0.0000  0.0000 </r>
       </set>
       <set comment="band 7">
        <r>  0.1384  0.0244  0.0244  0.0522  0.0000  0.0000  0.0000  0.0000  0.0000 </r>
        <r>  0.0012  0.1401  0.1402  0.0685  0.0000  0.0000  0.0000  0.0000  0.0000 </r>
       </set>
       <set comment="band 8">
        <r>  0.0014  0.0210  0.0209  0.0170  0.0000  0.0000  0.0000  0.0000  0.0000 </r>
        <r>  0.0034  0.1041  0.1039  0.0040  0.0000  0.0000  0.0000  0.0000  0.0000 </r>
       </set>
      </set>
      <set comment="kpoint 213">
       <set comment="band 1">
        <r>  0.0781  0.0385  0.0385  0.0098  0.0000  0.0000  0.0000  0.0000  0.0000 </r>
        <r>  0.3944  0.0034  0.0034  0.0003  0.0000  0.0000  0.0000  0.0000  0.0000 </r>
       </set>
       <set comment="band 2">
        <r>  0.2308  0.0304  0.0304  0.0237  0.0000  0.0000  0.0000  0.0000  0.0000 </r>
        <r>  0.0183  0.0641  0.0641  0.0439  0.0000  0.0000  0.0000  0.0000  0.0000 </r>
       </set>
       <set comment="band 3">
        <r>  0.0794  0.0439  0.0439  0.0561  0.0000  0.0000  0.0000  0.0000  0.0000 </r>
        <r>  0.0307  0.1098  0.1098  0.0212  0.0000  0.0000  0.0000  0.0000  0.0000 </r>
       </set>
       <set comment="band 4">
        <r>  0.0069  0.0604  0.0604  0.0754  0.0000  0.0000  0.0000  0.0000  0.0000 </r>
        <r>  0.0004  0.0603  0.0603  0.1736  0.0000  0.0000  0.0000  0.0000  0.0000 </r>
       </set>
       <set comment="band 5">
        <r>  0.0350  0.0119  0.0119  0.0062  0.0000  0.0000  0.0000  0.0000  0.0000 </r>
        <r>  0.0007  0.0079  0.0079  0.1851  0.0000  0.0000  0.0000  0.0000  0.0000 </r>
       </set>
       <set comment="band 6">
        <r>  0.0784  0.0654  0.0654  0.0490  0.0000  0.0000  0.0000  0.0000  0.0000 </r>
        <r>  0.0958  0.0232  0.0232  0.0010  0.0000  0.0000  0.0000  0.0000  0.0000 </r>
       </set>
       <set comment="band 7">
        <r>  0.1471  0.0232  0.0231  0.0358  0.0000  0.0000  0.0000  0.0000  0.0000 </r>
        <r>  0.0000  0.1382  0.1382  0.0602  0.0000  0.0000  0.0000  0.0000  0.0000 </r>
       </set>
       <set comment="band 8">
        <r>  0.0035  0.0199  0.0199  0.0042  0.0000  0.0000  0.0000  0.0000  0.0000 </r>
        <r>  0.0000  0.1020  0.1020  0.0002  0.0000  0.0000  0.0000  0.0000  0.0000 </r>
       </set>
      </set>
      <set comment="kpoint 214">
       <set comment="band 1">
        <r>  0.0654  0.0421  0.0421  0.0082  0.0000  0.0000  0.0000  0.0000  0.0000 </r>
        <r>  0.4033  0.0032  0.0032  0.0002  0.0000  0.0000  0.0000  0.0000  0.0000 </r>
       </set>
       <set comment="band 2">
        <r>  0.2558  0.0270  0.0270  0.0191  0.0000  0.0000  0.0000  0.0000  0.0000 </r>
        <r>  0.0183  0.0674  0.0674  0.0390  0.0000  0.0000  0.0000  0.0000  0.0000 </r>
       </set>
       <set comment="band 3">
        <r>  0.0717  0.0423  0.0423  0.0645  0.0000  0.0000  0.0000  0.0000  0.0000 </r>
        <r>  0.0249  0.1042  0.1042  0.0270  0.0000  0.0000  0.0000  0.0000  0.0000 </r>
       </set>
       <set comment="band 4">
        <r>  0.0074  0.0631  0.0631  0.0723  0.0000  0.0000  0.0000  0.0000  0.0000 </r>
        <r>  0.0004  0.0582  0.0582  0.1647  0.0000  0.0000  0.0000  0.0000  0.0000 </r>
       </set>
       <set comment="band 5">
        <r>  0.0276  0.0092  0.0092  0.0057  0.0000  0.0000  0.0000  0.0000  0.0000 </r>
        <r>  0.0003  0.0062  0.0062  0.2038  0.0000  0.0000  0.0000  0.0000  0.0000 </r>
       </set>
       <set comment="band 6">
        <r>  0.0763  0.0663  0.0663  0.0487  0.0000  0.0000  0.0000  0.0000  0.0000 </r>
        <r>  0.0914  0.0255  0.0255  0.0008  0.0000  0.0000  0.0000  0.0000  0.0000 </r>
       </set>
       <set comment="band 7">
        <r>  0.1513  0.0202  0.0202  0.0340  0.0000  0.0000  0.0000  0.0000  0.0000 </r>
        <r>  0.0003  0.1326  0.1326  0.0477  0.0000  0.0000  0.0000  0.0000  0.0000 </r>
       </set>
       <set comment="band 8">
        <r>  0.0087  0.0311  0.0311  0.0040  0.0000  0.0000  0.0000  0.0000  0.0000 </r>
        <r>  0.0067  0.0833  0.0833  0.0003  0.0000  0.0000  0.0000  0.0000  0.0000 </r>
       </set>
      </set>
      <set comment="kpoint 215">
       <set comment="band 1">
        <r>  0.0517  0.0459  0.0459  0.0065  0.0000  0.0000  0.0000  0.0000  0.0000 </r>
        <r>  0.4135  0.0028  0.0028  0.0001  0.0000  0.0000  0.0000  0.0000  0.0000 </r>
       </set>
       <set comment="band 2">
        <r>  0.2879  0.0223  0.0223  0.0135  0.0000  0.0000  0.0000  0.0000  0.0000 </r>
        <r>  0.0177  0.0718  0.0718  0.0320  0.0000  0.0000  0.0000  0.0000  0.0000 </r>
       </set>
       <set comment="band 3">
        <r>  0.0577  0.0415  0.0415  0.0742  0.0000  0.0000  0.0000  0.0000  0.0000 </r>
        <r>  0.0180  0.0989  0.0989  0.0344  0.0000  0.0000  0.0000  0.0000  0.0000 </r>
       </set>
       <set comment="band 4">
        <r>  0.0074  0.0658  0.0658  0.0690  0.0000  0.0000  0.0000  0.0000  0.0000 </r>
        <r>  0.0004  0.0557  0.0557  0.1573  0.0000  0.0000  0.0000  0.0000  0.0000 </r>
       </set>
       <set comment="band 5">
        <r>  0.0206  0.0071  0.0071  0.0047  0.0000  0.0000  0.0000  0.0000  0.0000 </r>
        <r>  0.0001  0.0046  0.0046  0.2213  0.0000  0.0000  0.0000  0.0000  0.0000 </r>
       </set>
       <set comment="band 6">
        <r>  0.0746  0.0673  0.0673  0.0471  0.0000  0.0000  0.0000  0.0000  0.0000 </r>
        <r>  0.0872  0.0282  0.0282  0.0006  0.0000  0.0000  0.0000  0.0000  0.0000 </r>
       </set>
       <set comment="band 7">
        <r>  0.1563  0.0175  0.0175  0.0357  0.0000  0.0000  0.0000  0.0000  0.0000 </r>
        <r>  0.0009  0.1280  0.1279  0.0356  0.0000  0.0000  0.0000  0.0000  0.0000 </r>
       </set>
       <set comment="band 8">
        <r>  0.0116  0.0419  0.0416  0.0243  0.0000  0.0000  0.0000  0.0000  0.0000 </r>
        <r>  0.0178  0.0632  0.0628  0.0005  0.0000  0.0000  0.0000  0.0000  0.0000 </r>
       </set>
      </set>
      <set comment="kpoint 216">
       <set comment="band 1">
        <r>  0.0374  0.0497  0.0497  0.0047  0.0000  0.0000  0.0000  0.0000  0.0000 </r>
        <r>  0.4246  0.0023  0.0023  0.0001  0.0000  0.0000  0.0000  0.0000  0.0000 </r>
       </set>
       <set comment="band 2">
        <r>  0.3252  0.0165  0.0165  0.0078  0.0000  0.0000  0.0000  0.0000  0.0000 </r>
        <r>  0.0158  0.0772  0.0772  0.0232  0.0000  0.0000  0.0000  0.0000  0.0000 </r>
       </set>
       <set comment="band 3">
        <r>  0.0388  0.0413  0.0413  0.0846  0.0000  0.0000  0.0000  0.0000  0.0000 </r>
        <r>  0.0110  0.0941  0.0941  0.0429  0.0000  0.0000  0.0000  0.0000  0.0000 </r>
       </set>
       <set comment="band 4">
        <r>  0.0068  0.0689  0.0689  0.0654  0.0000  0.0000  0.0000  0.0000  0.0000 </r>
        <r>  0.0004  0.0526  0.0526  0.1520  0.0000  0.0000  0.0000  0.0000  0.0000 </r>
       </set>
       <set comment="band 5">
        <r>  0.0141  0.0056  0.0056  0.0035  0.0000  0.0000  0.0000  0.0000  0.0000 </r>
        <r>  0.0001  0.0031  0.0031  0.2370  0.0000  0.0000  0.0000  0.0000  0.0000 </r>
       </set>
       <set comment="band 6">
        <r>  0.0738  0.0686  0.0686  0.0442  0.0000  0.0000  0.0000  0.0000  0.0000 </r>
        <r>  0.0832  0.0313  0.0313  0.0004  0.0000  0.0000  0.0000  0.0000  0.0000 </r>
       </set>
       <set comment="band 7">
        <r>  0.1613  0.0157  0.0157  0.0381  0.0000  0.0000  0.0000  0.0000  0.0000 </r>
        <r>  0.0020  0.1242  0.1241  0.0243  0.0000  0.0000  0.0000  0.0000  0.0000 </r>
       </set>
       <set comment="band 8">
        <r>  0.0133  0.0468  0.0469  0.0443  0.0000  0.0000  0.0000  0.0000  0.0000 </r>
        <r>  0.0262  0.0499  0.0500  0.0005  0.0000  0.0000  0.0000  0.0000  0.0000 </r>
       </set>
      </set>
      <set comment="kpoint 217">
       <set comment="band 1">
        <r>  0.0235  0.0534  0.0534  0.0029  0.0000  0.0000  0.0000  0.0000  0.0000 </r>
        <r>  0.4358  0.0015  0.0015  0.0000  0.0000  0.0000  0.0000  0.0000  0.0000 </r>
       </set>
       <set comment="band 2">
        <r>  0.3622  0.0103  0.0103  0.0032  0.0000  0.0000  0.0000  0.0000  0.0000 </r>
        <r>  0.0119  0.0829  0.0829  0.0139  0.0000  0.0000  0.0000  0.0000  0.0000 </r>
       </set>
       <set comment="band 3">
        <r>  0.0198  0.0405  0.0405  0.0953  0.0000  0.0000  0.0000  0.0000  0.0000 </r>
        <r>  0.0054  0.0909  0.0909  0.0501  0.0000  0.0000  0.0000  0.0000  0.0000 </r>
       </set>
       <set comment="band 4">
        <r>  0.0056  0.0728  0.0728  0.0604  0.0000  0.0000  0.0000  0.0000  0.0000 </r>
        <r>  0.0003  0.0484  0.0484  0.1496  0.0000  0.0000  0.0000  0.0000  0.0000 </r>
       </set>
       <set comment="band 5">
        <r>  0.0084  0.0044  0.0044  0.0023  0.0000  0.0000  0.0000  0.0000  0.0000 </r>
        <r>  0.0000  0.0019  0.0019  0.2504  0.0000  0.0000  0.0000  0.0000  0.0000 </r>
       </set>
       <set comment="band 6">
        <r>  0.0747  0.0702  0.0702  0.0392  0.0000  0.0000  0.0000  0.0000  0.0000 </r>
        <r>  0.0795  0.0356  0.0356  0.0004  0.0000  0.0000  0.0000  0.0000  0.0000 </r>
       </set>
       <set comment="band 7">
        <r>  0.1654  0.0156  0.0156  0.0392  0.0000  0.0000  0.0000  0.0000  0.0000 </r>
        <r>  0.0040  0.1209  0.1210  0.0143  0.0000  0.0000  0.0000  0.0000  0.0000 </r>
       </set>
       <set comment="band 8">
        <r>  0.0136  0.0475  0.0475  0.0618  0.0000  0.0000  0.0000  0.0000  0.0000 </r>
        <r>  0.0313  0.0411  0.0411  0.0005  0.0000  0.0000  0.0000  0.0000  0.0000 </r>
       </set>
      </set>
      <set comment="kpoint 218">
       <set comment="band 1">
        <r>  0.0114  0.0566  0.0566  0.0014  0.0000  0.0000  0.0000  0.0000  0.0000 </r>
        <r>  0.4458  0.0008  0.0008  0.0000  0.0000  0.0000  0.0000  0.0000  0.0000 </r>
       </set>
       <set comment="band 2">
        <r>  0.3914  0.0049  0.0049  0.0007  0.0000  0.0000  0.0000  0.0000  0.0000 </r>
        <r>  0.0066  0.0878  0.0878  0.0062  0.0000  0.0000  0.0000  0.0000  0.0000 </r>
       </set>
       <set comment="band 3">
        <r>  0.0066  0.0366  0.0366  0.1071  0.0000  0.0000  0.0000  0.0000  0.0000 </r>
        <r>  0.0020  0.0920  0.0920  0.0514  0.0000  0.0000  0.0000  0.0000  0.0000 </r>
       </set>
       <set comment="band 4">
        <r>  0.0037  0.0794  0.0794  0.0521  0.0000  0.0000  0.0000  0.0000  0.0000 </r>
        <r>  0.0002  0.0414  0.0414  0.1529  0.0000  0.0000  0.0000  0.0000  0.0000 </r>
       </set>
       <set comment="band 5">
        <r>  0.0039  0.0037  0.0037  0.0011  0.0000  0.0000  0.0000  0.0000  0.0000 </r>
        <r>  0.0000  0.0009  0.0009  0.2608  0.0000  0.0000  0.0000  0.0000  0.0000 </r>
       </set>
       <set comment="band 6">
        <r>  0.0798  0.0721  0.0721  0.0307  0.0000  0.0000  0.0000  0.0000  0.0000 </r>
        <r>  0.0760  0.0421  0.0421  0.0003  0.0000  0.0000  0.0000  0.0000  0.0000 </r>
       </set>
       <set comment="band 7">
        <r>  0.1670  0.0191  0.0191  0.0368  0.0000  0.0000  0.0000  0.0000  0.0000 </r>
        <r>  0.0089  0.1168  0.1168  0.0064  0.0000  0.0000  0.0000  0.0000  0.0000 </r>
       </set>
       <set comment="band 8">
        <r>  0.0113  0.0430  0.0430  0.0817  0.0000  0.0000  0.0000  0.0000  0.0000 </r>
        <r>  0.0319  0.0342  0.0342  0.0004  0.0000  0.0000  0.0000  0.0000  0.0000 </r>
       </set>
      </set>
      <set comment="kpoint 219">
       <set comment="band 1">
        <r>  0.0030  0.0587  0.0587  0.0004  0.0000  0.0000  0.0000  0.0000  0.0000 </r>
        <r>  0.4530  0.0002  0.0002  0.0000  0.0000  0.0000  0.0000  0.0000  0.0000 </r>
       </set>
       <set comment="band 2">
        <r>  0.4090  0.0012  0.0012  0.0000  0.0000  0.0000  0.0000  0.0000  0.0000 </r>
        <r>  0.0019  0.0909  0.0909  0.0015  0.0000  0.0000  0.0000  0.0000  0.0000 </r>
       </set>
       <set comment="band 3">
        <r>  0.0008  0.0238  0.0238  0.1278  0.0000  0.0000  0.0000  0.0000  0.0000 </r>
        <r>  0.0004  0.1039  0.1039  0.0364  0.0000  0.0000  0.0000  0.0000  0.0000 </r>
       </set>
       <set comment="band 4">
        <r>  0.0015  0.0939  0.0939  0.0329  0.0000  0.0000  0.0000  0.0000  0.0000 </r>
        <r>  0.0000  0.0260  0.0260  0.1708  0.0000  0.0000  0.0000  0.0000  0.0000 </r>
       </set>
       <set comment="band 5">
        <r>  0.0010  0.0033  0.0033  0.0003  0.0000  0.0000  0.0000  0.0000  0.0000 </r>
        <r>  0.0000  0.0002  0.0002  0.2674  0.0000  0.0000  0.0000  0.0000  0.0000 </r>
       </set>
       <set comment="band 6">
        <r>  0.0980  0.0725  0.0725  0.0156  0.0000  0.0000  0.0000  0.0000  0.0000 </r>
        <r>  0.0707  0.0560  0.0560  0.0002  0.0000  0.0000  0.0000  0.0000  0.0000 </r>
       </set>
       <set comment="band 7">
        <r>  0.1587  0.0355  0.0355  0.0233  0.0000  0.0000  0.0000  0.0000  0.0000 </r>
        <r>  0.0255  0.1058  0.1058  0.0014  0.0000  0.0000  0.0000  0.0000  0.0000 </r>
       </set>
       <set comment="band 8">
        <r>  0.0042  0.0266  0.0266  0.1156  0.0000  0.0000  0.0000  0.0000  0.0000 </r>
        <r>  0.0217  0.0290  0.0290  0.0003  0.0000  0.0000  0.0000  0.0000  0.0000 </r>
       </set>
      </set>
      <set comment="kpoint 220">
       <set comment="band 1">
        <r>  0.0000  0.0595  0.0595  0.0000  0.0000  0.0000  0.0000  0.0000  0.0000 </r>
        <r>  0.4556  0.0000  0.0000  0.0000  0.0000  0.0000  0.0000  0.0000  0.0000 </r>
       </set>
       <set comment="band 2">
        <r>  0.4148  0.0000  0.0000  0.0000  0.0000  0.0000  0.0000  0.0000  0.0000 </r>
        <r>  0.0000  0.0920  0.0920  0.0000  0.0000  0.0000  0.0000  0.0000  0.0000 </r>
       </set>
       <set comment="band 3">
        <r>  0.0000  0.0000  0.0000  0.1610  0.0000  0.0000  0.0000  0.0000  0.0000 </r>
        <r>  0.0000  0.1287  0.1287  0.0000  0.0000  0.0000  0.0000  0.0000  0.0000 </r>
       </set>
       <set comment="band 4">
        <r>  0.0000  0.1183  0.1183  0.0000  0.0000  0.0000  0.0000  0.0000  0.0000 </r>
        <r>  0.0000  0.0000  0.0000  0.2081  0.0000  0.0000  0.0000  0.0000  0.0000 </r>
       </set>
       <set comment="band 5">
        <r>  0.0000  0.0032  0.0032  0.0000  0.0000  0.0000  0.0000  0.0000  0.0000 </r>
        <r>  0.0000  0.0000  0.0000  0.2696  0.0000  0.0000  0.0000  0.0000  0.0000 </r>
       </set>
       <set comment="band 6">
        <r>  0.2619  0.0000  0.0000  0.0000  0.0000  0.0000  0.0000  0.0000  0.0000 </r>
        <r>  0.0000  0.1595  0.1595  0.0000  0.0000  0.0000  0.0000  0.0000  0.0000 </r>
       </set>
       <set comment="band 7">
        <r>  0.0000  0.1346  0.1346  0.0000  0.0000  0.0000  0.0000  0.0000  0.0000 </r>
        <r>  0.1182  0.0000  0.0000  0.0000  0.0000  0.0000  0.0000  0.0000  0.0000 </r>
       </set>
       <set comment="band 8">
        <r>  0.0000  0.0000  0.0000  0.1561  0.0000  0.0000  0.0000  0.0000  0.0000 </r>
        <r>  0.0000  0.0305  0.0305  0.0000  0.0000  0.0000  0.0000  0.0000  0.0000 </r>
       </set>
      </set>
      <set comment="kpoint 221">
       <set comment="band 1">
        <r>  0.0000  0.0595  0.0595  0.0000  0.0000  0.0000  0.0000  0.0000  0.0000 </r>
        <r>  0.4556  0.0000  0.0000  0.0000  0.0000  0.0000  0.0000  0.0000  0.0000 </r>
       </set>
       <set comment="band 2">
        <r>  0.4148  0.0000  0.0000  0.0000  0.0000  0.0000  0.0000  0.0000  0.0000 </r>
        <r>  0.0000  0.0920  0.0920  0.0000  0.0000  0.0000  0.0000  0.0000  0.0000 </r>
       </set>
       <set comment="band 3">
        <r>  0.0000  0.0000  0.0000  0.1610  0.0000  0.0000  0.0000  0.0000  0.0000 </r>
        <r>  0.0000  0.1287  0.1287  0.0000  0.0000  0.0000  0.0000  0.0000  0.0000 </r>
       </set>
       <set comment="band 4">
        <r>  0.0000  0.1183  0.1183  0.0000  0.0000  0.0000  0.0000  0.0000  0.0000 </r>
        <r>  0.0000  0.0000  0.0000  0.2081  0.0000  0.0000  0.0000  0.0000  0.0000 </r>
       </set>
       <set comment="band 5">
        <r>  0.0000  0.0032  0.0032  0.0000  0.0000  0.0000  0.0000  0.0000  0.0000 </r>
        <r>  0.0000  0.0000  0.0000  0.2696  0.0000  0.0000  0.0000  0.0000  0.0000 </r>
       </set>
       <set comment="band 6">
        <r>  0.2619  0.0000  0.0000  0.0000  0.0000  0.0000  0.0000  0.0000  0.0000 </r>
        <r>  0.0000  0.1595  0.1595  0.0000  0.0000  0.0000  0.0000  0.0000  0.0000 </r>
       </set>
       <set comment="band 7">
        <r>  0.0000  0.1346  0.1346  0.0000  0.0000  0.0000  0.0000  0.0000  0.0000 </r>
        <r>  0.1182  0.0000  0.0000  0.0000  0.0000  0.0000  0.0000  0.0000  0.0000 </r>
       </set>
       <set comment="band 8">
        <r>  0.0000  0.0000  0.0000  0.1561  0.0000  0.0000  0.0000  0.0000  0.0000 </r>
        <r>  0.0000  0.0305  0.0305  0.0000  0.0000  0.0000  0.0000  0.0000  0.0000 </r>
       </set>
      </set>
      <set comment="kpoint 222">
       <set comment="band 1">
        <r>  0.0000  0.0658  0.0533  0.0000  0.0000  0.0000  0.0000  0.0000  0.0000 </r>
        <r>  0.4554  0.0000  0.0000  0.0000  0.0000  0.0000  0.0000  0.0000  0.0000 </r>
       </set>
       <set comment="band 2">
        <r>  0.4133  0.0000  0.0000  0.0002  0.0000  0.0000  0.0000  0.0000  0.0000 </r>
        <r>  0.0000  0.1078  0.0762  0.0000  0.0000  0.0000  0.0000  0.0000  0.0000 </r>
       </set>
       <set comment="band 3">
        <r>  0.0012  0.0000  0.0000  0.1611  0.0000  0.0000  0.0000  0.0000  0.0000 </r>
        <r>  0.0000  0.1095  0.1481  0.0000  0.0000  0.0000  0.0000  0.0000  0.0000 </r>
       </set>
       <set comment="band 4">
        <r>  0.0000  0.1106  0.1258  0.0000  0.0000  0.0000  0.0000  0.0000  0.0000 </r>
        <r>  0.0001  0.0000  0.0000  0.2084  0.0000  0.0000  0.0000  0.0000  0.0000 </r>
       </set>
       <set comment="band 5">
        <r>  0.0000  0.0089  0.0003  0.0000  0.0000  0.0000  0.0000  0.0000  0.0000 </r>
        <r>  0.0019  0.0000  0.0000  0.2648  0.0000  0.0000  0.0000  0.0000  0.0000 </r>
       </set>
       <set comment="band 6">
        <r>  0.1934  0.0000  0.0000  0.0428  0.0000  0.0000  0.0000  0.0000  0.0000 </r>
        <r>  0.0000  0.0622  0.1721  0.0000  0.0000  0.0000  0.0000  0.0000  0.0000 </r>
       </set>
       <set comment="band 7">
        <r>  0.0000  0.1256  0.1409  0.0000  0.0000  0.0000  0.0000  0.0000  0.0000 </r>
        <r>  0.1162  0.0000  0.0000  0.0050  0.0000  0.0000  0.0000  0.0000  0.0000 </r>
       </set>
       <set comment="band 8">
        <r>  0.0688  0.0000  0.0000  0.1127  0.0000  0.0000  0.0000  0.0000  0.0000 </r>
        <r>  0.0000  0.1423  0.0046  0.0000  0.0000  0.0000  0.0000  0.0000  0.0000 </r>
       </set>
      </set>
      <set comment="kpoint 223">
       <set comment="band 1">
        <r>  0.0000  0.0722  0.0473  0.0000  0.0000  0.0000  0.0000  0.0000  0.0000 </r>
        <r>  0.4547  0.0000  0.0000  0.0000  0.0000  0.0000  0.0000  0.0000  0.0000 </r>
       </set>
       <set comment="band 2">
        <r>  0.4091  0.0000  0.0000  0.0007  0.0000  0.0000  0.0000  0.0000  0.0000 </r>
        <r>  0.0000  0.1226  0.0616  0.0000  0.0000  0.0000  0.0000  0.0000  0.0000 </r>
       </set>
       <set comment="band 3">
        <r>  0.0045  0.0000  0.0000  0.1614  0.0000  0.0000  0.0000  0.0000  0.0000 </r>
        <r>  0.0000  0.0914  0.1666  0.0000  0.0000  0.0000  0.0000  0.0000  0.0000 </r>
       </set>
       <set comment="band 4">
        <r>  0.0000  0.1028  0.1332  0.0000  0.0000  0.0000  0.0000  0.0000  0.0000 </r>
        <r>  0.0005  0.0000  0.0000  0.2095  0.0000  0.0000  0.0000  0.0000  0.0000 </r>
       </set>
       <set comment="band 5">
        <r>  0.0000  0.0165  0.0003  0.0000  0.0000  0.0000  0.0000  0.0000  0.0000 </r>
        <r>  0.0070  0.0000  0.0000  0.2519  0.0000  0.0000  0.0000  0.0000  0.0000 </r>
       </set>
       <set comment="band 6">
        <r>  0.1731  0.0000  0.0000  0.0567  0.0000  0.0000  0.0000  0.0000  0.0000 </r>
        <r>  0.0000  0.0438  0.1512  0.0000  0.0000  0.0000  0.0000  0.0000  0.0000 </r>
       </set>
       <set comment="band 7">
        <r>  0.0000  0.1148  0.1445  0.0000  0.0000  0.0000  0.0000  0.0000  0.0000 </r>
        <r>  0.1108  0.0000  0.0000  0.0186  0.0000  0.0000  0.0000  0.0000  0.0000 </r>
       </set>
       <set comment="band 8">
        <r>  0.0901  0.0000  0.0000  0.0967  0.0000  0.0000  0.0000  0.0000  0.0000 </r>
        <r>  0.0000  0.1765  0.0133  0.0000  0.0000  0.0000  0.0000  0.0000  0.0000 </r>
       </set>
      </set>
      <set comment="kpoint 224">
       <set comment="band 1">
        <r>  0.0000  0.0785  0.0415  0.0000  0.0000  0.0000  0.0000  0.0000  0.0000 </r>
        <r>  0.4537  0.0000  0.0000  0.0000  0.0000  0.0000  0.0000  0.0000  0.0000 </r>
       </set>
       <set comment="band 2">
        <r>  0.4031  0.0000  0.0000  0.0015  0.0000  0.0000  0.0000  0.0000  0.0000 </r>
        <r>  0.0000  0.1357  0.0488  0.0000  0.0000  0.0000  0.0000  0.0000  0.0000 </r>
       </set>
       <set comment="band 3">
        <r>  0.0091  0.0000  0.0000  0.1620  0.0000  0.0000  0.0000  0.0000  0.0000 </r>
        <r>  0.0000  0.0754  0.1836  0.0000  0.0000  0.0000  0.0000  0.0000  0.0000 </r>
       </set>
       <set comment="band 4">
        <r>  0.0000  0.0950  0.1404  0.0000  0.0000  0.0000  0.0000  0.0000  0.0000 </r>
        <r>  0.0011  0.0000  0.0000  0.2112  0.0000  0.0000  0.0000  0.0000  0.0000 </r>
       </set>
       <set comment="band 5">
        <r>  0.0000  0.0246  0.0023  0.0000  0.0000  0.0000  0.0000  0.0000  0.0000 </r>
        <r>  0.0140  0.0000  0.0000  0.2340  0.0000  0.0000  0.0000  0.0000  0.0000 </r>
       </set>
       <set comment="band 6">
        <r>  0.1694  0.0000  0.0000  0.0603  0.0000  0.0000  0.0000  0.0000  0.0000 </r>
        <r>  0.0000  0.0376  0.1353  0.0000  0.0000  0.0000  0.0000  0.0000  0.0000 </r>
       </set>
       <set comment="band 7">
        <r>  0.0000  0.1036  0.1463  0.0000  0.0000  0.0000  0.0000  0.0000  0.0000 </r>
        <r>  0.1033  0.0000  0.0000  0.0376  0.0000  0.0000  0.0000  0.0000  0.0000 </r>
       </set>
       <set comment="band 8">
        <r>  0.0954  0.0000  0.0000  0.0898  0.0000  0.0000  0.0000  0.0000  0.0000 </r>
        <r>  0.0000  0.2001  0.0177  0.0000  0.0000  0.0000  0.0000  0.0000  0.0000 </r>
       </set>
      </set>
      <set comment="kpoint 225">
       <set comment="band 1">
        <r>  0.0000  0.0846  0.0361  0.0000  0.0000  0.0000  0.0000  0.0000  0.0000 </r>
        <r>  0.4523  0.0000  0.0000  0.0000  0.0000  0.0000  0.0000  0.0000  0.0000 </r>
       </set>
       <set comment="band 2">
        <r>  0.3961  0.0000  0.0000  0.0022  0.0000  0.0000  0.0000  0.0000  0.0000 </r>
        <r>  0.0000  0.1467  0.0381  0.0000  0.0000  0.0000  0.0000  0.0000  0.0000 </r>
       </set>
       <set comment="band 3">
        <r>  0.0141  0.0000  0.0000  0.1632  0.0000  0.0000  0.0000  0.0000  0.0000 </r>
        <r>  0.0000  0.0616  0.1988  0.0000  0.0000  0.0000  0.0000  0.0000  0.0000 </r>
       </set>
       <set comment="band 4">
        <r>  0.0000  0.0872  0.1473  0.0000  0.0000  0.0000  0.0000  0.0000  0.0000 </r>
        <r>  0.0019  0.0000  0.0000  0.2137  0.0000  0.0000  0.0000  0.0000  0.0000 </r>
       </set>
       <set comment="band 5">
        <r>  0.0000  0.0325  0.0053  0.0000  0.0000  0.0000  0.0000  0.0000  0.0000 </r>
        <r>  0.0217  0.0000  0.0000  0.2139  0.0000  0.0000  0.0000  0.0000  0.0000 </r>
       </set>
       <set comment="band 6">
        <r>  0.1707  0.0000  0.0000  0.0605  0.0000  0.0000  0.0000  0.0000  0.0000 </r>
        <r>  0.0000  0.0347  0.1218  0.0000  0.0000  0.0000  0.0000  0.0000  0.0000 </r>
       </set>
       <set comment="band 7">
        <r>  0.0000  0.0927  0.1472  0.0000  0.0000  0.0000  0.0000  0.0000  0.0000 </r>
        <r>  0.0948  0.0000  0.0000  0.0591  0.0000  0.0000  0.0000  0.0000  0.0000 </r>
       </set>
       <set comment="band 8">
        <r>  0.0963  0.0000  0.0000  0.0851  0.0000  0.0000  0.0000  0.0000  0.0000 </r>
        <r>  0.0000  0.2222  0.0203  0.0000  0.0000  0.0000  0.0000  0.0000  0.0000 </r>
       </set>
      </set>
      <set comment="kpoint 226">
       <set comment="band 1">
        <r>  0.0000  0.0905  0.0310  0.0000  0.0000  0.0000  0.0000  0.0000  0.0000 </r>
        <r>  0.4507  0.0000  0.0000  0.0001  0.0000  0.0000  0.0000  0.0000  0.0000 </r>
       </set>
       <set comment="band 2">
        <r>  0.3889  0.0000  0.0000  0.0028  0.0000  0.0000  0.0000  0.0000  0.0000 </r>
        <r>  0.0000  0.1555  0.0295  0.0000  0.0000  0.0000  0.0000  0.0000  0.0000 </r>
       </set>
       <set comment="band 3">
        <r>  0.0187  0.0000  0.0000  0.1651  0.0000  0.0000  0.0000  0.0000  0.0000 </r>
        <r>  0.0000  0.0501  0.2122  0.0000  0.0000  0.0000  0.0000  0.0000  0.0000 </r>
       </set>
       <set comment="band 4">
        <r>  0.0000  0.0795  0.1539  0.0000  0.0000  0.0000  0.0000  0.0000  0.0000 </r>
        <r>  0.0027  0.0000  0.0000  0.2169  0.0000  0.0000  0.0000  0.0000  0.0000 </r>
       </set>
       <set comment="band 5">
        <r>  0.0000  0.0396  0.0084  0.0000  0.0000  0.0000  0.0000  0.0000  0.0000 </r>
        <r>  0.0293  0.0000  0.0000  0.1937  0.0000  0.0000  0.0000  0.0000  0.0000 </r>
       </set>
       <set comment="band 6">
        <r>  0.1744  0.0000  0.0000  0.0589  0.0000  0.0000  0.0000  0.0000  0.0000 </r>
        <r>  0.0000  0.0331  0.1097  0.0000  0.0000  0.0000  0.0000  0.0000  0.0000 </r>
       </set>
       <set comment="band 7">
        <r>  0.0000  0.0826  0.1482  0.0000  0.0000  0.0000  0.0000  0.0000  0.0000 </r>
        <r>  0.0861  0.0000  0.0000  0.0812  0.0000  0.0000  0.0000  0.0000  0.0000 </r>
       </set>
       <set comment="band 8">
        <r>  0.0955  0.0000  0.0000  0.0808  0.0000  0.0000  0.0000  0.0000  0.0000 </r>
        <r>  0.0000  0.2448  0.0222  0.0000  0.0000  0.0000  0.0000  0.0000  0.0000 </r>
       </set>
      </set>
      <set comment="kpoint 227">
       <set comment="band 1">
        <r>  0.0000  0.0962  0.0263  0.0000  0.0000  0.0000  0.0000  0.0000  0.0000 </r>
        <r>  0.4489  0.0000  0.0000  0.0001  0.0000  0.0000  0.0000  0.0000  0.0000 </r>
       </set>
       <set comment="band 2">
        <r>  0.3821  0.0000  0.0000  0.0032  0.0000  0.0000  0.0000  0.0000  0.0000 </r>
        <r>  0.0000  0.1625  0.0227  0.0000  0.0000  0.0000  0.0000  0.0000  0.0000 </r>
       </set>
       <set comment="band 3">
        <r>  0.0224  0.0000  0.0000  0.1676  0.0000  0.0000  0.0000  0.0000  0.0000 </r>
        <r>  0.0000  0.0407  0.2242  0.0000  0.0000  0.0000  0.0000  0.0000  0.0000 </r>
       </set>
       <set comment="band 4">
        <r>  0.0000  0.0719  0.1603  0.0000  0.0000  0.0000  0.0000  0.0000  0.0000 </r>
        <r>  0.0036  0.0000  0.0000  0.2209  0.0000  0.0000  0.0000  0.0000  0.0000 </r>
       </set>
       <set comment="band 5">
        <r>  0.0000  0.0460  0.0113  0.0000  0.0000  0.0000  0.0000  0.0000  0.0000 </r>
        <r>  0.0366  0.0000  0.0000  0.1740  0.0000  0.0000  0.0000  0.0000  0.0000 </r>
       </set>
       <set comment="band 6">
        <r>  0.1793  0.0000  0.0000  0.0562  0.0000  0.0000  0.0000  0.0000  0.0000 </r>
        <r>  0.0000  0.0321  0.0983  0.0000  0.0000  0.0000  0.0000  0.0000  0.0000 </r>
       </set>
       <set comment="band 7">
        <r>  0.0000  0.0734  0.1496  0.0000  0.0000  0.0000  0.0000  0.0000  0.0000 </r>
        <r>  0.0776  0.0000  0.0000  0.1031  0.0000  0.0000  0.0000  0.0000  0.0000 </r>
       </set>
       <set comment="band 8">
        <r>  0.0940  0.0000  0.0000  0.0764  0.0000  0.0000  0.0000  0.0000  0.0000 </r>
        <r>  0.0000  0.2686  0.0238  0.0000  0.0000  0.0000  0.0000  0.0000  0.0000 </r>
       </set>
      </set>
      <set comment="kpoint 228">
       <set comment="band 1">
        <r>  0.0000  0.1015  0.0221  0.0000  0.0000  0.0000  0.0000  0.0000  0.0000 </r>
        <r>  0.4469  0.0000  0.0000  0.0001  0.0000  0.0000  0.0000  0.0000  0.0000 </r>
       </set>
       <set comment="band 2">
        <r>  0.3759  0.0000  0.0000  0.0033  0.0000  0.0000  0.0000  0.0000  0.0000 </r>
        <r>  0.0000  0.1679  0.0173  0.0000  0.0000  0.0000  0.0000  0.0000  0.0000 </r>
       </set>
       <set comment="band 3">
        <r>  0.0249  0.0000  0.0000  0.1709  0.0000  0.0000  0.0000  0.0000  0.0000 </r>
        <r>  0.0000  0.0329  0.2350  0.0000  0.0000  0.0000  0.0000  0.0000  0.0000 </r>
       </set>
       <set comment="band 4">
        <r>  0.0000  0.0644  0.1665  0.0000  0.0000  0.0000  0.0000  0.0000  0.0000 </r>
        <r>  0.0045  0.0000  0.0000  0.2257  0.0000  0.0000  0.0000  0.0000  0.0000 </r>
       </set>
       <set comment="band 5">
        <r>  0.0000  0.0518  0.0136  0.0000  0.0000  0.0000  0.0000  0.0000  0.0000 </r>
        <r>  0.0433  0.0000  0.0000  0.1553  0.0000  0.0000  0.0000  0.0000  0.0000 </r>
       </set>
       <set comment="band 6">
        <r>  0.1852  0.0000  0.0000  0.0526  0.0000  0.0000  0.0000  0.0000  0.0000 </r>
        <r>  0.0000  0.0316  0.0875  0.0000  0.0000  0.0000  0.0000  0.0000  0.0000 </r>
       </set>
       <set comment="band 7">
        <r>  0.0000  0.0648  0.1518  0.0000  0.0000  0.0000  0.0000  0.0000  0.0000 </r>
        <r>  0.0693  0.0000  0.0000  0.1245  0.0000  0.0000  0.0000  0.0000  0.0000 </r>
       </set>
       <set comment="band 8">
        <r>  0.0921  0.0000  0.0000  0.0709  0.0000  0.0000  0.0000  0.0000  0.0000 </r>
        <r>  0.0000  0.2947  0.0246  0.0000  0.0000  0.0000  0.0000  0.0000  0.0000 </r>
       </set>
      </set>
      <set comment="kpoint 229">
       <set comment="band 1">
        <r>  0.0000  0.1064  0.0182  0.0000  0.0000  0.0000  0.0000  0.0000  0.0000 </r>
        <r>  0.4448  0.0000  0.0000  0.0001  0.0000  0.0000  0.0000  0.0000  0.0000 </r>
       </set>
       <set comment="band 2">
        <r>  0.3706  0.0000  0.0000  0.0033  0.0000  0.0000  0.0000  0.0000  0.0000 </r>
        <r>  0.0000  0.1720  0.0132  0.0000  0.0000  0.0000  0.0000  0.0000  0.0000 </r>
       </set>
       <set comment="band 3">
        <r>  0.0261  0.0000  0.0000  0.1749  0.0000  0.0000  0.0000  0.0000  0.0000 </r>
        <r>  0.0000  0.0265  0.2450  0.0000  0.0000  0.0000  0.0000  0.0000  0.0000 </r>
       </set>
       <set comment="band 4">
        <r>  0.0000  0.0571  0.1725  0.0000  0.0000  0.0000  0.0000  0.0000  0.0000 </r>
        <r>  0.0052  0.0000  0.0000  0.2314  0.0000  0.0000  0.0000  0.0000  0.0000 </r>
       </set>
       <set comment="band 5">
        <r>  0.0000  0.0571  0.0152  0.0000  0.0000  0.0000  0.0000  0.0000  0.0000 </r>
        <r>  0.0496  0.0000  0.0000  0.1375  0.0000  0.0000  0.0000  0.0000  0.0000 </r>
       </set>
       <set comment="band 6">
        <r>  0.1916  0.0000  0.0000  0.0483  0.0000  0.0000  0.0000  0.0000  0.0000 </r>
        <r>  0.0000  0.0314  0.0771  0.0000  0.0000  0.0000  0.0000  0.0000  0.0000 </r>
       </set>
       <set comment="band 7">
        <r>  0.0000  0.0568  0.1549  0.0000  0.0000  0.0000  0.0000  0.0000  0.0000 </r>
        <r>  0.0613  0.0000  0.0000  0.1455  0.0000  0.0000  0.0000  0.0000  0.0000 </r>
       </set>
       <set comment="band 8">
        <r>  0.0903  0.0000  0.0000  0.0657  0.0000  0.0000  0.0000  0.0000  0.0000 </r>
        <r>  0.0000  0.3218  0.0256  0.0000  0.0000  0.0000  0.0000  0.0000  0.0000 </r>
       </set>
      </set>
      <set comment="kpoint 230">
       <set comment="band 1">
        <r>  0.0000  0.1110  0.0148  0.0000  0.0000  0.0000  0.0000  0.0000  0.0000 </r>
        <r>  0.4428  0.0000  0.0000  0.0001  0.0000  0.0000  0.0000  0.0000  0.0000 </r>
       </set>
       <set comment="band 2">
        <r>  0.3660  0.0000  0.0000  0.0031  0.0000  0.0000  0.0000  0.0000  0.0000 </r>
        <r>  0.0000  0.1752  0.0099  0.0000  0.0000  0.0000  0.0000  0.0000  0.0000 </r>
       </set>
       <set comment="band 3">
        <r>  0.0260  0.0000  0.0000  0.1796  0.0000  0.0000  0.0000  0.0000  0.0000 </r>
        <r>  0.0000  0.0213  0.2543  0.0000  0.0000  0.0000  0.0000  0.0000  0.0000 </r>
       </set>
       <set comment="band 4">
        <r>  0.0000  0.0500  0.1783  0.0000  0.0000  0.0000  0.0000  0.0000  0.0000 </r>
        <r>  0.0058  0.0000  0.0000  0.2379  0.0000  0.0000  0.0000  0.0000  0.0000 </r>
       </set>
       <set comment="band 5">
        <r>  0.0000  0.0621  0.0161  0.0000  0.0000  0.0000  0.0000  0.0000  0.0000 </r>
        <r>  0.0554  0.0000  0.0000  0.1204  0.0000  0.0000  0.0000  0.0000  0.0000 </r>
       </set>
       <set comment="band 6">
        <r>  0.1985  0.0000  0.0000  0.0435  0.0000  0.0000  0.0000  0.0000  0.0000 </r>
        <r>  0.0000  0.0314  0.0670  0.0000  0.0000  0.0000  0.0000  0.0000  0.0000 </r>
       </set>
       <set comment="band 7">
        <r>  0.0000  0.0493  0.1589  0.0000  0.0000  0.0000  0.0000  0.0000  0.0000 </r>
        <r>  0.0536  0.0000  0.0000  0.1659  0.0000  0.0000  0.0000  0.0000  0.0000 </r>
       </set>
       <set comment="band 8">
        <r>  0.0882  0.0000  0.0000  0.0615  0.0000  0.0000  0.0000  0.0000  0.0000 </r>
        <r>  0.0000  0.3476  0.0274  0.0000  0.0000  0.0000  0.0000  0.0000  0.0000 </r>
       </set>
      </set>
      <set comment="kpoint 231">
       <set comment="band 1">
        <r>  0.0000  0.1151  0.0118  0.0000  0.0000  0.0000  0.0000  0.0000  0.0000 </r>
        <r>  0.4407  0.0000  0.0000  0.0001  0.0000  0.0000  0.0000  0.0000  0.0000 </r>
       </set>
       <set comment="band 2">
        <r>  0.3621  0.0000  0.0000  0.0028  0.0000  0.0000  0.0000  0.0000  0.0000 </r>
        <r>  0.0000  0.1776  0.0074  0.0000  0.0000  0.0000  0.0000  0.0000  0.0000 </r>
       </set>
       <set comment="band 3">
        <r>  0.0248  0.0000  0.0000  0.1847  0.0000  0.0000  0.0000  0.0000  0.0000 </r>
        <r>  0.0000  0.0168  0.2632  0.0000  0.0000  0.0000  0.0000  0.0000  0.0000 </r>
       </set>
       <set comment="band 4">
        <r>  0.0000  0.0430  0.1841  0.0000  0.0000  0.0000  0.0000  0.0000  0.0000 </r>
        <r>  0.0061  0.0000  0.0000  0.2453  0.0000  0.0000  0.0000  0.0000  0.0000 </r>
       </set>
       <set comment="band 5">
        <r>  0.0000  0.0669  0.0163  0.0000  0.0000  0.0000  0.0000  0.0000  0.0000 </r>
        <r>  0.0608  0.0000  0.0000  0.1039  0.0000  0.0000  0.0000  0.0000  0.0000 </r>
       </set>
       <set comment="band 6">
        <r>  0.2057  0.0000  0.0000  0.0383  0.0000  0.0000  0.0000  0.0000  0.0000 </r>
        <r>  0.0000  0.0316  0.0572  0.0000  0.0000  0.0000  0.0000  0.0000  0.0000 </r>
       </set>
       <set comment="band 7">
        <r>  0.0000  0.0420  0.1639  0.0000  0.0000  0.0000  0.0000  0.0000  0.0000 </r>
        <r>  0.0460  0.0000  0.0000  0.1861  0.0000  0.0000  0.0000  0.0000  0.0000 </r>
       </set>
       <set comment="band 8">
        <r>  0.0861  0.0000  0.0000  0.0580  0.0000  0.0000  0.0000  0.0000  0.0000 </r>
        <r>  0.0000  0.3725  0.0302  0.0000  0.0000  0.0000  0.0000  0.0000  0.0000 </r>
       </set>
      </set>
      <set comment="kpoint 232">
       <set comment="band 1">
        <r>  0.0000  0.1188  0.0092  0.0000  0.0000  0.0000  0.0000  0.0000  0.0000 </r>
        <r>  0.4388  0.0000  0.0000  0.0001  0.0000  0.0000  0.0000  0.0000  0.0000 </r>
       </set>
       <set comment="band 2">
        <r>  0.3590  0.0000  0.0000  0.0024  0.0000  0.0000  0.0000  0.0000  0.0000 </r>
        <r>  0.0000  0.1794  0.0054  0.0000  0.0000  0.0000  0.0000  0.0000  0.0000 </r>
       </set>
       <set comment="band 3">
        <r>  0.0000  0.0362  0.1898  0.0000  0.0000  0.0000  0.0000  0.0000  0.0000 </r>
        <r>  0.0061  0.0000  0.0000  0.2536  0.0000  0.0000  0.0000  0.0000  0.0000 </r>
       </set>
       <set comment="band 4">
        <r>  0.0226  0.0000  0.0000  0.1902  0.0000  0.0000  0.0000  0.0000  0.0000 </r>
        <r>  0.0000  0.0131  0.2718  0.0000  0.0000  0.0000  0.0000  0.0000  0.0000 </r>
       </set>
       <set comment="band 5">
        <r>  0.0000  0.0716  0.0157  0.0000  0.0000  0.0000  0.0000  0.0000  0.0000 </r>
        <r>  0.0659  0.0000  0.0000  0.0878  0.0000  0.0000  0.0000  0.0000  0.0000 </r>
       </set>
       <set comment="band 6">
        <r>  0.2130  0.0000  0.0000  0.0327  0.0000  0.0000  0.0000  0.0000  0.0000 </r>
        <r>  0.0000  0.0319  0.0477  0.0000  0.0000  0.0000  0.0000  0.0000  0.0000 </r>
       </set>
       <set comment="band 7">
        <r>  0.0000  0.0351  0.1695  0.0000  0.0000  0.0000  0.0000  0.0000  0.0000 </r>
        <r>  0.0386  0.0000  0.0000  0.2059  0.0000  0.0000  0.0000  0.0000  0.0000 </r>
       </set>
       <set comment="band 8">
        <r>  0.0830  0.0000  0.0000  0.0585  0.0000  0.0000  0.0000  0.0000  0.0000 </r>
        <r>  0.0000  0.3907  0.0368  0.0000  0.0000  0.0000  0.0000  0.0000  0.0000 </r>
       </set>
      </set>
      <set comment="kpoint 233">
       <set comment="band 1">
        <r>  0.0000  0.1220  0.0069  0.0000  0.0000  0.0000  0.0000  0.0000  0.0000 </r>
        <r>  0.4370  0.0000  0.0000  0.0001  0.0000  0.0000  0.0000  0.0000  0.0000 </r>
       </set>
       <set comment="band 2">
        <r>  0.3563  0.0000  0.0000  0.0020  0.0000  0.0000  0.0000  0.0000  0.0000 </r>
        <r>  0.0000  0.1808  0.0039  0.0000  0.0000  0.0000  0.0000  0.0000  0.0000 </r>
       </set>
       <set comment="band 3">
        <r>  0.0000  0.0296  0.1954  0.0000  0.0000  0.0000  0.0000  0.0000  0.0000 </r>
        <r>  0.0058  0.0000  0.0000  0.2626  0.0000  0.0000  0.0000  0.0000  0.0000 </r>
       </set>
       <set comment="band 4">
        <r>  0.0196  0.0000  0.0000  0.1959  0.0000  0.0000  0.0000  0.0000  0.0000 </r>
        <r>  0.0000  0.0100  0.2800  0.0000  0.0000  0.0000  0.0000  0.0000  0.0000 </r>
       </set>
       <set comment="band 5">
        <r>  0.0000  0.0762  0.0144  0.0000  0.0000  0.0000  0.0000  0.0000  0.0000 </r>
        <r>  0.0706  0.0000  0.0000  0.0722  0.0000  0.0000  0.0000  0.0000  0.0000 </r>
       </set>
       <set comment="band 6">
        <r>  0.2204  0.0000  0.0000  0.0270  0.0000  0.0000  0.0000  0.0000  0.0000 </r>
        <r>  0.0000  0.0323  0.0385  0.0000  0.0000  0.0000  0.0000  0.0000  0.0000 </r>
       </set>
       <set comment="band 7">
        <r>  0.0000  0.0284  0.1760  0.0000  0.0000  0.0000  0.0000  0.0000  0.0000 </r>
        <r>  0.0313  0.0000  0.0000  0.2252  0.0000  0.0000  0.0000  0.0000  0.0000 </r>
       </set>
       <set comment="band 8">
        <r>  0.0681  0.0000  0.0000  0.1194  0.0000  0.0000  0.0000  0.0000  0.0000 </r>
        <r>  0.0000  0.2993  0.1119  0.0000  0.0000  0.0000  0.0000  0.0000  0.0000 </r>
       </set>
      </set>
      <set comment="kpoint 234">
       <set comment="band 1">
        <r>  0.0000  0.1248  0.0050  0.0000  0.0000  0.0000  0.0000  0.0000  0.0000 </r>
        <r>  0.4354  0.0000  0.0000  0.0001  0.0000  0.0000  0.0000  0.0000  0.0000 </r>
       </set>
       <set comment="band 2">
        <r>  0.3543  0.0000  0.0000  0.0015  0.0000  0.0000  0.0000  0.0000  0.0000 </r>
        <r>  0.0000  0.1819  0.0027  0.0000  0.0000  0.0000  0.0000  0.0000  0.0000 </r>
       </set>
       <set comment="band 3">
        <r>  0.0000  0.0232  0.2010  0.0000  0.0000  0.0000  0.0000  0.0000  0.0000 </r>
        <r>  0.0052  0.0000  0.0000  0.2723  0.0000  0.0000  0.0000  0.0000  0.0000 </r>
       </set>
       <set comment="band 4">
        <r>  0.0161  0.0000  0.0000  0.2017  0.0000  0.0000  0.0000  0.0000  0.0000 </r>
        <r>  0.0000  0.0074  0.2879  0.0000  0.0000  0.0000  0.0000  0.0000  0.0000 </r>
       </set>
       <set comment="band 5">
        <r>  0.0000  0.0808  0.0125  0.0000  0.0000  0.0000  0.0000  0.0000  0.0000 </r>
        <r>  0.0751  0.0000  0.0000  0.0570  0.0000  0.0000  0.0000  0.0000  0.0000 </r>
       </set>
       <set comment="band 6">
        <r>  0.2276  0.0000  0.0000  0.0212  0.0000  0.0000  0.0000  0.0000  0.0000 </r>
        <r>  0.0000  0.0327  0.0298  0.0000  0.0000  0.0000  0.0000  0.0000  0.0000 </r>
       </set>
       <set comment="band 7">
        <r>  0.0000  0.0220  0.1831  0.0000  0.0000  0.0000  0.0000  0.0000  0.0000 </r>
        <r>  0.0245  0.0000  0.0000  0.2441  0.0000  0.0000  0.0000  0.0000  0.0000 </r>
       </set>
       <set comment="band 8">
        <r>  0.0055  0.0000  0.0000  0.2338  0.0000  0.0000  0.0000  0.0000  0.0000 </r>
        <r>  0.0000  0.0074  0.3014  0.0000  0.0000  0.0000  0.0000  0.0000  0.0000 </r>
       </set>
      </set>
      <set comment="kpoint 235">
       <set comment="band 1">
        <r>  0.0000  0.1272  0.0034  0.0000  0.0000  0.0000  0.0000  0.0000  0.0000 </r>
        <r>  0.4340  0.0000  0.0000  0.0001  0.0000  0.0000  0.0000  0.0000  0.0000 </r>
       </set>
       <set comment="band 2">
        <r>  0.3526  0.0000  0.0000  0.0011  0.0000  0.0000  0.0000  0.0000  0.0000 </r>
        <r>  0.0000  0.1827  0.0018  0.0000  0.0000  0.0000  0.0000  0.0000  0.0000 </r>
       </set>
       <set comment="band 3">
        <r>  0.0000  0.0172  0.2065  0.0000  0.0000  0.0000  0.0000  0.0000  0.0000 </r>
        <r>  0.0043  0.0000  0.0000  0.2822  0.0000  0.0000  0.0000  0.0000  0.0000 </r>
       </set>
       <set comment="band 4">
        <r>  0.0122  0.0000  0.0000  0.2073  0.0000  0.0000  0.0000  0.0000  0.0000 </r>
        <r>  0.0000  0.0051  0.2951  0.0000  0.0000  0.0000  0.0000  0.0000  0.0000 </r>
       </set>
       <set comment="band 5">
        <r>  0.0000  0.0852  0.0101  0.0000  0.0000  0.0000  0.0000  0.0000  0.0000 </r>
        <r>  0.0793  0.0000  0.0000  0.0425  0.0000  0.0000  0.0000  0.0000  0.0000 </r>
       </set>
       <set comment="band 6">
        <r>  0.2345  0.0000  0.0000  0.0157  0.0000  0.0000  0.0000  0.0000  0.0000 </r>
        <r>  0.0000  0.0332  0.0217  0.0000  0.0000  0.0000  0.0000  0.0000  0.0000 </r>
       </set>
       <set comment="band 7">
        <r>  0.0000  0.0160  0.1904  0.0000  0.0000  0.0000  0.0000  0.0000  0.0000 </r>
        <r>  0.0179  0.0001  0.0000  0.2616  0.0000  0.0000  0.0000  0.0000  0.0000 </r>
       </set>
       <set comment="band 8">
        <r>  0.0008  0.0000  0.0000  0.2156  0.0000  0.0000  0.0000  0.0000  0.0000 </r>
        <r>  0.0000  0.0111  0.2996  0.0000  0.0000  0.0000  0.0000  0.0000  0.0000 </r>
       </set>
      </set>
      <set comment="kpoint 236">
       <set comment="band 1">
        <r>  0.0000  0.1291  0.0022  0.0000  0.0000  0.0000  0.0000  0.0000  0.0000 </r>
        <r>  0.4328  0.0000  0.0000  0.0000  0.0000  0.0000  0.0000  0.0000  0.0000 </r>
       </set>
       <set comment="band 2">
        <r>  0.3513  0.0000  0.0000  0.0007  0.0000  0.0000  0.0000  0.0000  0.0000 </r>
        <r>  0.0000  0.1833  0.0011  0.0000  0.0000  0.0000  0.0000  0.0000  0.0000 </r>
       </set>
       <set comment="band 3">
        <r>  0.0000  0.0117  0.2117  0.0000  0.0000  0.0000  0.0000  0.0000  0.0000 </r>
        <r>  0.0032  0.0000  0.0000  0.2920  0.0000  0.0000  0.0000  0.0000  0.0000 </r>
       </set>
       <set comment="band 4">
        <r>  0.0085  0.0000  0.0000  0.2125  0.0000  0.0000  0.0000  0.0000  0.0000 </r>
        <r>  0.0000  0.0033  0.3017  0.0000  0.0000  0.0000  0.0000  0.0000  0.0000 </r>
       </set>
       <set comment="band 5">
        <r>  0.0000  0.0895  0.0074  0.0000  0.0000  0.0000  0.0000  0.0000  0.0000 </r>
        <r>  0.0830  0.0000  0.0000  0.0291  0.0000  0.0000  0.0000  0.0000  0.0000 </r>
       </set>
       <set comment="band 6">
        <r>  0.2406  0.0000  0.0000  0.0106  0.0000  0.0000  0.0000  0.0000  0.0000 </r>
        <r>  0.0000  0.0337  0.0145  0.0000  0.0000  0.0000  0.0000  0.0000  0.0000 </r>
       </set>
       <set comment="band 7">
        <r>  0.0000  0.0111  0.1964  0.0000  0.0000  0.0000  0.0000  0.0000  0.0000 </r>
        <r>  0.0122  0.0002  0.0000  0.2767  0.0000  0.0000  0.0000  0.0000  0.0000 </r>
       </set>
       <set comment="band 8">
        <r>  0.0003  0.0000  0.0000  0.2178  0.0000  0.0000  0.0000  0.0000  0.0000 </r>
        <r>  0.0000  0.0019  0.3065  0.0000  0.0000  0.0000  0.0000  0.0000  0.0000 </r>
       </set>
      </set>
      <set comment="kpoint 237">
       <set comment="band 1">
        <r>  0.0000  0.1306  0.0012  0.0000  0.0000  0.0000  0.0000  0.0000  0.0000 </r>
        <r>  0.4318  0.0000  0.0000  0.0000  0.0000  0.0000  0.0000  0.0000  0.0000 </r>
       </set>
       <set comment="band 2">
        <r>  0.3503  0.0000  0.0000  0.0004  0.0000  0.0000  0.0000  0.0000  0.0000 </r>
        <r>  0.0000  0.1837  0.0006  0.0000  0.0000  0.0000  0.0000  0.0000  0.0000 </r>
       </set>
       <set comment="band 3">
        <r>  0.0000  0.0069  0.2163  0.0000  0.0000  0.0000  0.0000  0.0000  0.0000 </r>
        <r>  0.0020  0.0000  0.0000  0.3010  0.0000  0.0000  0.0000  0.0000  0.0000 </r>
       </set>
       <set comment="band 4">
        <r>  0.0051  0.0000  0.0000  0.2169  0.0000  0.0000  0.0000  0.0000  0.0000 </r>
        <r>  0.0000  0.0019  0.3072  0.0000  0.0000  0.0000  0.0000  0.0000  0.0000 </r>
       </set>
       <set comment="band 5">
        <r>  0.0000  0.0932  0.0046  0.0000  0.0000  0.0000  0.0000  0.0000  0.0000 </r>
        <r>  0.0863  0.0000  0.0000  0.0174  0.0000  0.0000  0.0000  0.0000  0.0000 </r>
       </set>
       <set comment="band 6">
        <r>  0.2459  0.0000  0.0000  0.0062  0.0000  0.0000  0.0000  0.0000  0.0000 </r>
        <r>  0.0000  0.0342  0.0084  0.0000  0.0000  0.0000  0.0000  0.0000  0.0000 </r>
       </set>
       <set comment="band 7">
        <r>  0.0000  0.0064  0.2032  0.0000  0.0000  0.0000  0.0000  0.0000  0.0000 </r>
        <r>  0.0072  0.0000  0.0000  0.2908  0.0000  0.0000  0.0000  0.0000  0.0000 </r>
       </set>
       <set comment="band 8">
        <r>  0.0002  0.0000  0.0000  0.2154  0.0000  0.0000  0.0000  0.0000  0.0000 </r>
        <r>  0.0000  0.0023  0.3072  0.0000  0.0000  0.0000  0.0000  0.0000  0.0000 </r>
       </set>
      </set>
      <set comment="kpoint 238">
       <set comment="band 1">
        <r>  0.0000  0.1316  0.0005  0.0000  0.0000  0.0000  0.0000  0.0000  0.0000 </r>
        <r>  0.4311  0.0000  0.0000  0.0000  0.0000  0.0000  0.0000  0.0000  0.0000 </r>
       </set>
       <set comment="band 2">
        <r>  0.3497  0.0000  0.0000  0.0002  0.0000  0.0000  0.0000  0.0000  0.0000 </r>
        <r>  0.0000  0.1840  0.0003  0.0000  0.0000  0.0000  0.0000  0.0000  0.0000 </r>
       </set>
       <set comment="band 3">
        <r>  0.0000  0.0032  0.2200  0.0000  0.0000  0.0000  0.0000  0.0000  0.0000 </r>
        <r>  0.0010  0.0000  0.0000  0.3083  0.0000  0.0000  0.0000  0.0000  0.0000 </r>
       </set>
       <set comment="band 4">
        <r>  0.0024  0.0000  0.0000  0.2203  0.0000  0.0000  0.0000  0.0000  0.0000 </r>
        <r>  0.0000  0.0008  0.3113  0.0000  0.0000  0.0000  0.0000  0.0000  0.0000 </r>
       </set>
       <set comment="band 5">
        <r>  0.0000  0.0962  0.0022  0.0000  0.0000  0.0000  0.0000  0.0000  0.0000 </r>
        <r>  0.0888  0.0000  0.0000  0.0081  0.0000  0.0000  0.0000  0.0000  0.0000 </r>
       </set>
       <set comment="band 6">
        <r>  0.2499  0.0000  0.0000  0.0029  0.0000  0.0000  0.0000  0.0000  0.0000 </r>
        <r>  0.0000  0.0345  0.0039  0.0000  0.0000  0.0000  0.0000  0.0000  0.0000 </r>
       </set>
       <set comment="band 7">
        <r>  0.0001  0.0031  0.2080  0.0001  0.0000  0.0000  0.0000  0.0000  0.0000 </r>
        <r>  0.0034  0.0005  0.0001  0.3012  0.0000  0.0000  0.0000  0.0000  0.0000 </r>
       </set>
       <set comment="band 8">
        <r>  0.0001  0.0000  0.0001  0.2134  0.0000  0.0000  0.0000  0.0000  0.0000 </r>
        <r>  0.0000  0.0012  0.3084  0.0001  0.0000  0.0000  0.0000  0.0000  0.0000 </r>
       </set>
      </set>
      <set comment="kpoint 239">
       <set comment="band 1">
        <r>  0.0000  0.1322  0.0001  0.0000  0.0000  0.0000  0.0000  0.0000  0.0000 </r>
        <r>  0.4307  0.0000  0.0000  0.0000  0.0000  0.0000  0.0000  0.0000  0.0000 </r>
       </set>
       <set comment="band 2">
        <r>  0.3493  0.0000  0.0000  0.0000  0.0000  0.0000  0.0000  0.0000  0.0000 </r>
        <r>  0.0000  0.1841  0.0001  0.0000  0.0000  0.0000  0.0000  0.0000  0.0000 </r>
       </set>
       <set comment="band 3">
        <r>  0.0000  0.0008  0.2224  0.0000  0.0000  0.0000  0.0000  0.0000  0.0000 </r>
        <r>  0.0003  0.0000  0.0000  0.3132  0.0000  0.0000  0.0000  0.0000  0.0000 </r>
       </set>
       <set comment="band 4">
        <r>  0.0006  0.0000  0.0000  0.2225  0.0000  0.0000  0.0000  0.0000  0.0000 </r>
        <r>  0.0000  0.0002  0.3140  0.0000  0.0000  0.0000  0.0000  0.0000  0.0000 </r>
       </set>
       <set comment="band 5">
        <r>  0.0000  0.0981  0.0006  0.0000  0.0000  0.0000  0.0000  0.0000  0.0000 </r>
        <r>  0.0904  0.0000  0.0000  0.0021  0.0000  0.0000  0.0000  0.0000  0.0000 </r>
       </set>
       <set comment="band 6">
        <r>  0.2524  0.0000  0.0000  0.0007  0.0000  0.0000  0.0000  0.0000  0.0000 </r>
        <r>  0.0000  0.0348  0.0010  0.0000  0.0000  0.0000  0.0000  0.0000  0.0000 </r>
       </set>
       <set comment="band 7">
        <r>  0.0000  0.0008  0.2106  0.0006  0.0000  0.0000  0.0000  0.0000  0.0000 </r>
        <r>  0.0008  0.0001  0.0009  0.3072  0.0000  0.0000  0.0000  0.0000  0.0000 </r>
       </set>
       <set comment="band 8">
        <r>  0.0004  0.0001  0.0006  0.2100  0.0000  0.0000  0.0000  0.0000  0.0000 </r>
        <r>  0.0000  0.0009  0.3075  0.0009  0.0000  0.0000  0.0000  0.0000  0.0000 </r>
       </set>
      </set>
      <set comment="kpoint 240">
       <set comment="band 1">
        <r>  0.0000  0.1325  0.0000  0.0000  0.0000  0.0000  0.0000  0.0000  0.0000 </r>
        <r>  0.4305  0.0000  0.0000  0.0000  0.0000  0.0000  0.0000  0.0000  0.0000 </r>
       </set>
       <set comment="band 2">
        <r>  0.3492  0.0000  0.0000  0.0000  0.0000  0.0000  0.0000  0.0000  0.0000 </r>
        <r>  0.0000  0.1842  0.0000  0.0000  0.0000  0.0000  0.0000  0.0000  0.0000 </r>
       </set>
       <set comment="band 3">
        <r>  0.0000  0.0000  0.1116  0.1116  0.0000  0.0000  0.0000  0.0000  0.0000 </r>
        <r>  0.0000  0.0000  0.1574  0.1574  0.0000  0.0000  0.0000  0.0000  0.0000 </r>
       </set>
       <set comment="band 4">
        <r>  0.0000  0.0000  0.1116  0.1116  0.0000  0.0000  0.0000  0.0000  0.0000 </r>
        <r>  0.0000  0.0000  0.1574  0.1574  0.0000  0.0000  0.0000  0.0000  0.0000 </r>
       </set>
       <set comment="band 5">
        <r>  0.0000  0.0988  0.0000  0.0000  0.0000  0.0000  0.0000  0.0000  0.0000 </r>
        <r>  0.0909  0.0000  0.0000  0.0000  0.0000  0.0000  0.0000  0.0000  0.0000 </r>
       </set>
       <set comment="band 6">
        <r>  0.2532  0.0000  0.0000  0.0000  0.0000  0.0000  0.0000  0.0000  0.0000 </r>
        <r>  0.0000  0.0348  0.0000  0.0000  0.0000  0.0000  0.0000  0.0000  0.0000 </r>
       </set>
       <set comment="band 7">
        <r>  0.0000  0.0000  0.1515  0.0610  0.0000  0.0000  0.0000  0.0000  0.0000 </r>
        <r>  0.0000  0.0000  0.0890  0.2212  0.0000  0.0000  0.0000  0.0000  0.0000 </r>
       </set>
       <set comment="band 8">
        <r>  0.0005  0.0000  0.0599  0.1494  0.0000  0.0000  0.0000  0.0000  0.0000 </r>
        <r>  0.0000  0.0039  0.2186  0.0874  0.0000  0.0000  0.0000  0.0000  0.0000 </r>
       </set>
      </set>
     </set>
    </set>
   </array>
  </projected>
 </calculation>
 <structure name="finalpos" >
  <crystal>
   <varray name="basis" >
    <v>       0.00000000       2.18978000       2.18978000 </v>
    <v>       2.18978000       0.00000000       2.18978000 </v>
    <v>       2.18978000       2.18978000       0.00000000 </v>
   </varray>
   <i name="volume">     21.00058778 </i>
   <varray name="rec_basis" >
    <v>      -0.22833344       0.22833344       0.22833344 </v>
    <v>       0.22833344      -0.22833344       0.22833344 </v>
    <v>       0.22833344       0.22833344      -0.22833344 </v>
   </varray>
  </crystal>
  <varray name="positions" >
   <v>       0.25000000       0.25000000       0.25000000 </v>
   <v>       0.00000000       0.00000000       0.00000000 </v>
  </varray>
 </structure>
</modeling>
