Automatic mesh 
0
Gamma-centeredk
8 8 8 
0 0 0 
