Global Parameters
 ISTART =  0            (Read existing wavefunction; if there)
 # ISPIN =  1            (Spin polarised DFT)
 ICHARG =  2         (Non-self-consistent: GGA/LDA band structures)
 LREAL  = .FALSE.       (Projection operators: automatic)
 ENCUT  =  520        (Cut-off energy for plane wave basis set, in eV)
 PREC   =  Accurate       (Precision level)
 #LWAVE  = .TRUE.        (Write WAVECAR or not)
 #LCHARG = .TRUE.        (Write CHGCAR or not)
 ADDGRID= .TRUE.        (Increase grid; helps GGA convergence)
 # LVTOT  = .TRUE.      (Write total electrostatic potential into LOCPOT or not)
 # LVHAR  = .TRUE.      (Write ionic + Hartree electrostatic potential into LOCPOT or not)
 # NELECT =             (No. of electrons: charged cells; be careful)
 # LPLANE = .TRUE.      (Real space distribution; supercells)
 #NPAR   = 4           (Max is no. nodes; don't set for hybrids)
 # NWRITE = 2           (Medium-level output)
 # KPAR   = 2           (Divides k-grid into separate groups)
 # NGX    = 500         (FFT grid mesh density for nice charge/potential plots)
 # NGY    = 500         (FFT grid mesh density for nice charge/potential plots)
 # NGZ    = 500         (FFT grid mesh density for nice charge/potential plots)

#Static State Calculation							     			
NSW    =  0          (number of ionic steps)                             
ISMEAR =  0            (gaussian smearing method)              
SIGMA  =  0.1         (please check the width of the smearing)
IBRION =  -1            (Algorithm: 0-MD; 1-Quasi-New; 2-CG)                
#LORBIT =  11           (PAW radii for projected DOS)           
#NEDOS  =  2001         (DOSCAR points)                         
NELM   =  60           (Max electronic SCF steps)              
        (SCF energy convergence; in eV)         
EDIFF  =  1E-06                                                           
EDIFFG = -2E-2      (Ionic convergence; eV/AA)                          
ISYM =  0            (Symmetry: 0=none; 2=GGA; 3=hybrids)                     

#Hybrid function HSE06					                                                                  
LHFCALC= .TRUE.       (Activate HF)                                                                  
AEXX   =  0.25        (25% HF exact exchange, adjusted this value to reproduce experimental band gap)
HFSCREEN= 0.2         (Switch to screened exchange; e.g. HSE06)                                      
ALGO   =  ALL         (Electronic Minimisation Algorithm; ALGO=58)                                   
TIME   =  0.4         (Timestep for IALGO5X)                                                         
PRECFOCK= N           (HF FFT grid)                                                                  
! NKRED    = 2        (Reduce k-grid-even only, see also NKREDX, NKREDY and NKREDZ)                  
# HFLMAX   = 4        (HF cut-off: 4d, 6f)                                                           
# LDIAG    = .TRUE.   (Diagnolise Eigenvalues)                                                       

