##### initial I / O #####
ICHARG = 11 
LWAVE = .TRUE.       
LCHARG = .TRUE.       
LVTOT = .FALSE.       
LVHAR = .FALSE.       
LELF = .FALSE.       
LORBIT = 11         
NEDOS = 1000       
             
ENCUT = 500         
ISMEAR = 0         
SIGMA = 0.05       
EDIFF = 1E-6       
NELMIN = 5         
NELM = 300         
GGA = PE         
LREAL = .FALSE.       
PREC = Accurate       

LHFCALC= .TRUE.       (Activate HF)                                                                  
AEXX   =  0.25        (25% HF exact exchange, adjusted this value to reproduce experimental band gap)
HFSCREEN= 0.2         (Switch to screened exchange; e.g. HSE06)                                      
ALGO   =  ALL         (Electronic Minimisation Algorithm; ALGO=58)                                   
TIME   =  0.4         (Timestep for IALGO5X)                                                         
PRECFOCK= N           (HF FFT grid)                                                                  
# NKRED    = 2        (Reduce k-grid-even only, see also NKREDX, NKREDY and NKREDZ)                  
# HFLMAX   = 4        (HF cut-off: 4d, 6f)                                                           
# LDIAG    = .TRUE.   (Diagnolise Eigenvalues)                                                       

