10	10	10	56	196	12	20	8	26	24	10	10	20	8	26	24	10	10          # Parameters to Generate KPOINTS (Do NOT Edit This Line)
	252
Reciprocal lattice
    0.000000	0.000000	0.000000	1
    0.100000	0.000000	0.000000	6
    0.200000	0.000000	0.000000	6
    0.300000	0.000000	0.000000	6
    0.400000	0.000000	0.000000	6
    0.500000	0.000000	0.000000	3
    0.100000	0.100000	0.000000	12
    0.200000	0.100000	0.000000	24
    0.300000	0.100000	0.000000	24
    0.400000	0.100000	0.000000	24
    0.500000	0.100000	0.000000	12
    0.200000	0.200000	0.000000	12
    0.300000	0.200000	0.000000	24
    0.400000	0.200000	0.000000	24
    0.500000	0.200000	0.000000	12
    0.300000	0.300000	0.000000	12
    0.400000	0.300000	0.000000	24
    0.500000	0.300000	0.000000	12
    0.400000	0.400000	0.000000	12
    0.500000	0.400000	0.000000	12
    0.500000	0.500000	0.000000	3
    0.100000	0.100000	0.100000	8
    0.200000	0.100000	0.100000	24
    0.300000	0.100000	0.100000	24
    0.400000	0.100000	0.100000	24
    0.500000	0.100000	0.100000	12
    0.200000	0.200000	0.100000	24
    0.300000	0.200000	0.100000	48
    0.400000	0.200000	0.100000	48
    0.500000	0.200000	0.100000	24
    0.300000	0.300000	0.100000	24
    0.400000	0.300000	0.100000	48
    0.500000	0.300000	0.100000	24
    0.400000	0.400000	0.100000	24
    0.500000	0.400000	0.100000	24
    0.500000	0.500000	0.100000	6
    0.200000	0.200000	0.200000	8
    0.300000	0.200000	0.200000	24
    0.400000	0.200000	0.200000	24
    0.500000	0.200000	0.200000	12
    0.300000	0.300000	0.200000	24
    0.400000	0.300000	0.200000	48
    0.500000	0.300000	0.200000	24
    0.400000	0.400000	0.200000	24
    0.500000	0.400000	0.200000	24
    0.500000	0.500000	0.200000	6
    0.300000	0.300000	0.300000	8
    0.400000	0.300000	0.300000	24
    0.500000	0.300000	0.300000	12
    0.400000	0.400000	0.300000	24
    0.500000	0.400000	0.300000	24
    0.500000	0.500000	0.300000	6
    0.400000	0.400000	0.400000	8
    0.500000	0.400000	0.400000	12
    0.500000	0.500000	0.400000	6
    0.500000	0.500000	0.500000	1
    0.000000	0.000000	0.000000	0
    0.026316	0.000000	0.026316	0
    0.052632	0.000000	0.052632	0
    0.078947	0.000000	0.078947	0
    0.105263	0.000000	0.105263	0
    0.131579	0.000000	0.131579	0
    0.157895	0.000000	0.157895	0
    0.184211	0.000000	0.184211	0
    0.210526	0.000000	0.210526	0
    0.236842	0.000000	0.236842	0
    0.263158	0.000000	0.263158	0
    0.289474	0.000000	0.289474	0
    0.315789	0.000000	0.315789	0
    0.342105	0.000000	0.342105	0
    0.368421	0.000000	0.368421	0
    0.394737	0.000000	0.394737	0
    0.421053	0.000000	0.421053	0
    0.447368	0.000000	0.447368	0
    0.473684	0.000000	0.473684	0
    0.500000	0.000000	0.500000	0
    0.500000	0.000000	0.500000	0
    0.517857	0.035714	0.517857	0
    0.535714	0.071429	0.535714	0
    0.553571	0.107143	0.553571	0
    0.571429	0.142857	0.571429	0
    0.589286	0.178571	0.589286	0
    0.607143	0.214286	0.607143	0
    0.625000	0.250000	0.625000	0
    0.375000	0.375000	0.750000	0
    0.360000	0.360000	0.720000	0
    0.345000	0.345000	0.690000	0
    0.330000	0.330000	0.660000	0
    0.315000	0.315000	0.630000	0
    0.300000	0.300000	0.600000	0
    0.285000	0.285000	0.570000	0
    0.270000	0.270000	0.540000	0
    0.255000	0.255000	0.510000	0
    0.240000	0.240000	0.480000	0
    0.225000	0.225000	0.450000	0
    0.210000	0.210000	0.420000	0
    0.195000	0.195000	0.390000	0
    0.180000	0.180000	0.360000	0
    0.165000	0.165000	0.330000	0
    0.150000	0.150000	0.300000	0
    0.135000	0.135000	0.270000	0
    0.120000	0.120000	0.240000	0
    0.105000	0.105000	0.210000	0
    0.090000	0.090000	0.180000	0
    0.075000	0.075000	0.150000	0
    0.060000	0.060000	0.120000	0
    0.045000	0.045000	0.090000	0
    0.030000	0.030000	0.060000	0
    0.015000	0.015000	0.030000	0
    0.000000	0.000000	0.000000	0
    0.000000	0.000000	0.000000	0
    0.021739	0.021739	0.021739	0
    0.043478	0.043478	0.043478	0
    0.065217	0.065217	0.065217	0
    0.086957	0.086957	0.086957	0
    0.108696	0.108696	0.108696	0
    0.130435	0.130435	0.130435	0
    0.152174	0.152174	0.152174	0
    0.173913	0.173913	0.173913	0
    0.195652	0.195652	0.195652	0
    0.217391	0.217391	0.217391	0
    0.239130	0.239130	0.239130	0
    0.260870	0.260870	0.260870	0
    0.282609	0.282609	0.282609	0
    0.304348	0.304348	0.304348	0
    0.326087	0.326087	0.326087	0
    0.347826	0.347826	0.347826	0
    0.369565	0.369565	0.369565	0
    0.391304	0.391304	0.391304	0
    0.413043	0.413043	0.413043	0
    0.434783	0.434783	0.434783	0
    0.456522	0.456522	0.456522	0
    0.478261	0.478261	0.478261	0
    0.500000	0.500000	0.500000	0
    0.500000	0.500000	0.500000	0
    0.500000	0.472222	0.527778	0
    0.500000	0.444444	0.555556	0
    0.500000	0.416667	0.583333	0
    0.500000	0.388889	0.611111	0
    0.500000	0.361111	0.638889	0
    0.500000	0.333333	0.666667	0
    0.500000	0.305556	0.694444	0
    0.500000	0.277778	0.722222	0
    0.500000	0.250000	0.750000	0
    0.500000	0.250000	0.750000	0
    0.500000	0.222222	0.722222	0
    0.500000	0.194444	0.694444	0
    0.500000	0.166667	0.666667	0
    0.500000	0.138889	0.638889	0
    0.500000	0.111111	0.611111	0
    0.500000	0.083333	0.583333	0
    0.500000	0.055556	0.555556	0
    0.500000	0.027778	0.527778	0
    0.500000	0.000000	0.500000	0
    0.000000	0.000000	0.000000	0
    -0.026316	0.000000	-0.026316	0
    -0.052632	0.000000	-0.052632	0
    -0.078947	0.000000	-0.078947	0
    -0.105263	0.000000	-0.105263	0
    -0.131579	0.000000	-0.131579	0
    -0.157895	0.000000	-0.157895	0
    -0.184211	0.000000	-0.184211	0
    -0.210526	0.000000	-0.210526	0
    -0.236842	0.000000	-0.236842	0
    -0.263158	0.000000	-0.263158	0
    -0.289474	0.000000	-0.289474	0
    -0.315789	0.000000	-0.315789	0
    -0.342105	0.000000	-0.342105	0
    -0.368421	0.000000	-0.368421	0
    -0.394737	0.000000	-0.394737	0
    -0.421053	0.000000	-0.421053	0
    -0.447368	0.000000	-0.447368	0
    -0.473684	0.000000	-0.473684	0
    -0.500000	0.000000	-0.500000	0
    -0.500000	-0.000000	-0.500000	0
    -0.517857	-0.035714	-0.517857	0
    -0.535714	-0.071429	-0.535714	0
    -0.553571	-0.107143	-0.553571	0
    -0.571429	-0.142857	-0.571429	0
    -0.589286	-0.178571	-0.589286	0
    -0.607143	-0.214286	-0.607143	0
    -0.625000	-0.250000	-0.625000	0
    -0.375000	-0.375000	-0.750000	0
    -0.360000	-0.360000	-0.720000	0
    -0.345000	-0.345000	-0.690000	0
    -0.330000	-0.330000	-0.660000	0
    -0.315000	-0.315000	-0.630000	0
    -0.300000	-0.300000	-0.600000	0
    -0.285000	-0.285000	-0.570000	0
    -0.270000	-0.270000	-0.540000	0
    -0.255000	-0.255000	-0.510000	0
    -0.240000	-0.240000	-0.480000	0
    -0.225000	-0.225000	-0.450000	0
    -0.210000	-0.210000	-0.420000	0
    -0.195000	-0.195000	-0.390000	0
    -0.180000	-0.180000	-0.360000	0
    -0.165000	-0.165000	-0.330000	0
    -0.150000	-0.150000	-0.300000	0
    -0.135000	-0.135000	-0.270000	0
    -0.120000	-0.120000	-0.240000	0
    -0.105000	-0.105000	-0.210000	0
    -0.090000	-0.090000	-0.180000	0
    -0.075000	-0.075000	-0.150000	0
    -0.060000	-0.060000	-0.120000	0
    -0.045000	-0.045000	-0.090000	0
    -0.030000	-0.030000	-0.060000	0
    -0.015000	-0.015000	-0.030000	0
    0.000000	0.000000	0.000000	0
    0.000000	0.000000	0.000000	0
    -0.021739	-0.021739	-0.021739	0
    -0.043478	-0.043478	-0.043478	0
    -0.065217	-0.065217	-0.065217	0
    -0.086957	-0.086957	-0.086957	0
    -0.108696	-0.108696	-0.108696	0
    -0.130435	-0.130435	-0.130435	0
    -0.152174	-0.152174	-0.152174	0
    -0.173913	-0.173913	-0.173913	0
    -0.195652	-0.195652	-0.195652	0
    -0.217391	-0.217391	-0.217391	0
    -0.239130	-0.239130	-0.239130	0
    -0.260870	-0.260870	-0.260870	0
    -0.282609	-0.282609	-0.282609	0
    -0.304348	-0.304348	-0.304348	0
    -0.326087	-0.326087	-0.326087	0
    -0.347826	-0.347826	-0.347826	0
    -0.369565	-0.369565	-0.369565	0
    -0.391304	-0.391304	-0.391304	0
    -0.413043	-0.413043	-0.413043	0
    -0.434783	-0.434783	-0.434783	0
    -0.456522	-0.456522	-0.456522	0
    -0.478261	-0.478261	-0.478261	0
    -0.500000	-0.500000	-0.500000	0
    -0.500000	-0.500000	-0.500000	0
    -0.500000	-0.472222	-0.527778	0
    -0.500000	-0.444444	-0.555556	0
    -0.500000	-0.416667	-0.583333	0
    -0.500000	-0.388889	-0.611111	0
    -0.500000	-0.361111	-0.638889	0
    -0.500000	-0.333333	-0.666667	0
    -0.500000	-0.305556	-0.694444	0
    -0.500000	-0.277778	-0.722222	0
    -0.500000	-0.250000	-0.750000	0
    -0.500000	-0.250000	-0.750000	0
    -0.500000	-0.222222	-0.722222	0
    -0.500000	-0.194444	-0.694444	0
    -0.500000	-0.166667	-0.666667	0
    -0.500000	-0.138889	-0.638889	0
    -0.500000	-0.111111	-0.611111	0
    -0.500000	-0.083333	-0.583333	0
    -0.500000	-0.055556	-0.555556	0
    -0.500000	-0.027778	-0.527778	0
    -0.500000	0.000000	-0.500000	0
