    8    8    1    1
  0.1050029E+02  0.4379560E-09  0.4379560E-09  0.4379560E-09  0.5000000E-15
  1.000000000000000E-004
  CAR 
 unknown system                          
     32     35     24
 
  0.0000000E+00  0.0000000E+00  0.0000000E+00  0.1953125E-02
    1       -7.348607   1.000000
    2       -2.403609   1.000000
    3       -2.403609   1.000000
    4       -2.403609   1.000000
    5        0.192078   1.000000
    6        0.192078   1.000000
    7        0.192078   1.000000
    8        4.783659   1.000000
    9        4.783659   1.000000
   10        4.783659   1.000000
   11        4.783659   1.000000
   12        4.783659   1.000000
   13        4.783659   1.000000
   14        7.940881   1.000000
   15        7.940881   1.000000
   16        7.940881   1.000000
   17        9.312460   0.000000
   18        9.312460   0.000000
   19        9.312460   0.000000
   20       12.214531   0.000000
   21       12.214531   0.000000
   22       12.214531   0.000000
   23       13.995646   0.000000
   24       15.147626   0.000000
 
  0.1250000E+00 -0.6162976E-32  0.0000000E+00  0.1171875E-01
    1       -7.247837   1.000000
    2       -2.954684   1.000000
    3       -2.373375   1.000000
    4       -2.373375   1.000000
    5        0.271366   1.000000
    6        0.271366   1.000000
    7        0.818519   1.000000
    8        4.501540   1.000000
    9        4.501540   1.000000
   10        4.522350   1.000000
   11        4.522350   1.000000
   12        4.866526   1.000000
   13        4.866526   1.000000
   14        7.621581   1.000000
   15        7.747252   1.000000
   16        7.747252   1.000000
   17        9.493490   0.000000
   18        9.810178   0.000000
   19        9.810178   0.000000
   20       12.337639   0.000000
   21       12.675121   0.000000
   22       12.675121   0.000000
   23       14.268784   0.000000
   24       14.894140   0.000000
 
  0.2500000E+00 -0.1232595E-31  0.0000000E+00  0.1171875E-01
    1       -6.947105   1.000000
    2       -3.947054   1.000000
    3       -2.297186   1.000000
    4       -2.297186   1.000000
    5        0.492327   1.000000
    6        0.492327   1.000000
    7        2.024313   1.000000
    8        3.918262   1.000000
    9        3.918262   1.000000
   10        3.943138   1.000000
   11        3.943138   1.000000
   12        5.110260   1.000000
   13        5.110260   1.000000
   14        6.818677   1.000000
   15        7.251730   1.000000
   16        7.251730   1.000000
   17       10.029677   0.000000
   18       10.992842   0.000000
   19       10.992842   0.000000
   20       12.709385   0.000000
   21       13.881737   0.000000
   22       13.881737   0.000000
   23       14.035945   0.000000
   24       15.002028   0.000000
 
  0.3750000E+00 -0.2465190E-31  0.0000000E+00  0.1171875E-01
    1       -6.451382   1.000000
    2       -4.922793   1.000000
    3       -2.215863   1.000000
    4       -2.215863   1.000000
    5        0.782406   1.000000
    6        0.782406   1.000000
    7        3.301645   1.000000
    8        3.301645   1.000000
    9        3.325931   1.000000
   10        3.483892   1.000000
   11        3.483892   1.000000
   12        5.504846   1.000000
   13        5.504846   1.000000
   14        5.770301   1.000000
   15        6.634942   1.000000
   16        6.634942   1.000000
   17       10.884973   0.000000
   18       12.365700   0.000000
   19       12.365700   0.000000
   20       13.060092   0.000000
   21       13.341584   0.000000
   22       15.045290   0.000000
   23       15.539003   0.000000
   24       15.539003   0.000000
 
  0.5000000E+00 -0.2465190E-31  0.0000000E+00  0.5859375E-02
    1       -5.770498   1.000000
    2       -5.770498   1.000000
    3       -2.180424   1.000000
    4       -2.180424   1.000000
    5        0.941662   1.000000
    6        0.941662   1.000000
    7        3.020759   1.000000
    8        3.020759   1.000000
    9        3.311886   1.000000
   10        3.311886   1.000000
   11        4.590709   1.000000
   12        4.590709   1.000000
   13        6.026664   1.000000
   14        6.026664   1.000000
   15        6.026664   1.000000
   16        6.026664   1.000000
   17       11.953043   0.000000
   18       11.953043   0.000000
   19       13.132421   0.000000
   20       13.132421   0.000000
   21       14.218162   0.000000
   22       14.218162   0.000000
   23       17.253099   0.000000
   24       17.253129   0.000000
 
  0.1250000E+00  0.1250000E+00  0.0000000E+00  0.2343750E-01
    1       -7.147485   1.000000
    2       -2.902231   1.000000
    3       -2.902231   1.000000
    4       -2.354616   1.000000
    5        0.346495   1.000000
    6        0.854139   1.000000
    7        0.854139   1.000000
    8        3.765386   1.000000
    9        4.573619   1.000000
   10        4.573619   1.000000
   11        4.650538   1.000000
   12        4.650538   1.000000
   13        4.935126   1.000000
   14        7.030991   1.000000
   15        7.541094   1.000000
   16        7.920445   1.000000
   17        9.977972   0.000000
   18        9.977972   0.000000
   19       10.042601   0.000000
   20       12.792426   0.000000
   21       12.792426   0.000000
   22       13.187322   0.000000
   23       14.403081   0.000000
   24       15.086220   0.000000
 
  0.2500000E+00  0.1250000E+00  0.0000000E+00  0.4687500E-01
    1       -6.848040   1.000000
    2       -3.873096   1.000000
    3       -2.758668   1.000000
    4       -2.317654   1.000000
    5        0.551845   1.000000
    6        0.937126   1.000000
    7        1.967877   1.000000
    8        3.054421   1.000000
    9        3.921174   1.000000
   10        4.229101   1.000000
   11        4.816966   1.000000
   12        4.820694   1.000000
   13        5.003205   1.000000
   14        6.165861   1.000000
   15        7.023047   1.000000
   16        7.651417   1.000000
   17       10.479385   0.000000
   18       10.876856   0.000000
   19       11.137425   0.000000
   20       13.146612   0.000000
   21       13.986087   0.000000
   22       14.341281   0.000000
   23       14.431197   0.000000
   24       14.980441   0.000000
 
  0.3750000E+00  0.1250000E+00  0.0000000E+00  0.4687500E-01
    1       -6.354741   1.000000
    2       -4.837009   1.000000
    3       -2.567505   1.000000
    4       -2.314640   1.000000
    5        0.809427   1.000000
    6        1.001846   1.000000
    7        2.644001   1.000000
    8        3.126511   1.000000
    9        3.221796   1.000000
   10        3.972046   1.000000
   11        4.411766   1.000000
   12        5.211927   1.000000
   13        5.218935   1.000000
   14        5.566758   1.000000
   15        6.382659   1.000000
   16        7.037337   1.000000
   17       11.292025   0.000000
   18       12.139233   0.000000
   19       12.472433   0.000000
   20       13.411314   0.000000
   21       13.744567   0.000000
   22       15.235728   0.000000
   23       15.626617   0.000000
   24       15.928877   0.000000
 
  0.5000000E+00  0.1250000E+00  0.0000000E+00  0.2343750E-01
    1       -5.677910   1.000000
    2       -5.677910   1.000000
    3       -2.398608   1.000000
    4       -2.398608   1.000000
    5        0.977216   1.000000
    6        0.977216   1.000000
    7        2.717481   1.000000
    8        2.717481   1.000000
    9        4.053945   1.000000
   10        4.053945   1.000000
   11        4.206539   1.000000
   12        4.206539   1.000000
   13        5.755504   1.000000
   14        5.755504   1.000000
   15        6.286036   1.000000
   16        6.286036   1.000000
   17       12.327206   0.000000
   18       12.327206   0.000000
   19       13.073231   0.000000
   20       13.073231   0.000000
   21       14.562090   0.000000
   22       14.562090   0.000000
   23       16.548893   0.000000
   24       16.548894   0.000000
 
  0.2500000E+00  0.2500000E+00  0.0000000E+00  0.2343750E-01
    1       -6.552707   1.000000
    2       -3.659811   1.000000
    3       -3.659811   1.000000
    4       -2.408158   1.000000
    5        0.704067   1.000000
    6        1.778522   1.000000
    7        1.778522   1.000000
    8        2.472290   1.000000
    9        4.141896   1.000000
   10        4.141896   1.000000
   11        4.855949   1.000000
   12        4.855949   1.000000
   13        5.254540   1.000000
   14        5.369757   1.000000
   15        6.459652   1.000000
   16        7.783789   1.000000
   17       11.037853   0.000000
   18       11.573056   0.000000
   19       11.573056   0.000000
   20       14.299163   0.000000
   21       14.299163   0.000000
   22       14.915802   0.000000
   23       15.091392   0.000000
   24       15.628375   0.000000
 
  0.3750000E+00  0.2500000E+00  0.0000000E+00  0.4687500E-01
    1       -6.067151   1.000000
    2       -4.584720   1.000000
    3       -3.336063   1.000000
    4       -2.623521   1.000000
    5        0.894903   1.000000
    6        1.468398   1.000000
    7        2.375848   1.000000
    8        2.632225   1.000000
    9        3.386180   1.000000
   10        4.341173   1.000000
   11        4.549621   1.000000
   12        4.901638   1.000000
   13        5.396909   1.000000
   14        5.739946   1.000000
   15        5.771996   1.000000
   16        7.420637   1.000000
   17       11.877730   0.000000
   18       12.298329   0.000000
   19       12.793546   0.000000
   20       14.290817   0.000000
   21       14.817353   0.000000
   22       15.400389   0.000000
   23       15.881347   0.000000
   24       16.427321   0.000000
 
  0.5000000E+00  0.2500000E+00  0.0000000E+00  0.2343750E-01
    1       -5.403429   1.000000
    2       -5.403429   1.000000
    3       -2.960368   1.000000
    4       -2.960368   1.000000
    5        1.142709   1.000000
    6        1.142709   1.000000
    7        2.742006   1.000000
    8        2.742006   1.000000
    9        3.471343   1.000000
   10        3.471343   1.000000
   11        5.108877   1.000000
   12        5.108877   1.000000
   13        5.140313   1.000000
   14        5.140313   1.000000
   15        6.673586   1.000000
   16        6.673586   1.000000
   17       12.949354   0.000000
   18       12.949354   0.000000
   19       13.259462   0.000000
   20       13.259462   0.000000
   21       15.467870   0.000000
   22       15.467872   0.000000
   23       16.206872   0.000000
   24       16.212542   0.000000
 
  0.3750000E+00  0.3750000E+00  0.0000000E+00  0.2343750E-01
    1       -5.596311   1.000000
    2       -4.183177   1.000000
    3       -4.183177   1.000000
    4       -3.111993   1.000000
    5        1.104275   1.000000
    6        2.038033   1.000000
    7        2.038033   1.000000
    8        2.574054   1.000000
    9        3.483559   1.000000
   10        3.780879   1.000000
   11        3.780879   1.000000
   12        5.043417   1.000000
   13        5.974677   1.000000
   14        5.974677   1.000000
   15        6.021648   1.000000
   16        7.404427   1.000000
   17       12.133838   0.000000
   18       13.320706   0.000000
   19       13.320706   0.000000
   20       14.634435   0.000000
   21       15.651550   0.000000
   22       15.844467   0.000000
   23       15.844661   0.000000
   24       16.279026   0.000000
 
  0.5000000E+00  0.3750000E+00  0.0000000E+00  0.2343750E-01
    1       -4.958059   1.000000
    2       -4.958059   1.000000
    3       -3.669074   1.000000
    4       -3.669074   1.000000
    5        1.496553   1.000000
    6        1.496553   1.000000
    7        2.708135   1.000000
    8        2.708135   1.000000
    9        3.084456   1.000000
   10        3.084456   1.000000
   11        4.351093   1.000000
   12        4.351093   1.000000
   13        6.146409   1.000000
   14        6.146409   1.000000
   15        6.892522   1.000000
   16        6.892522   1.000000
   17       12.974670   0.000000
   18       12.974670   0.000000
   19       13.999013   0.000000
   20       13.999013   0.000000
   21       15.580587   0.000000
   22       15.580587   0.000000
   23       16.305784   0.000000
   24       16.306059   0.000000
 
  0.5000000E+00  0.5000000E+00  0.0000000E+00  0.5859375E-02
    1       -4.364759   1.000000
    2       -4.364759   1.000000
    3       -4.364759   1.000000
    4       -4.364759   1.000000
    5        2.030907   1.000000
    6        2.030907   1.000000
    7        2.030907   1.000000
    8        2.030907   1.000000
    9        3.645624   1.000000
   10        3.645624   1.000000
   11        3.645624   1.000000
   12        3.645624   1.000000
   13        6.764681   1.000000
   14        6.764681   1.000000
   15        6.764681   1.000000
   16        6.764681   1.000000
   17       13.420848   0.000000
   18       13.420848   0.000000
   19       13.420848   0.000000
   20       13.420848   0.000000
   21       16.583771   0.000000
   22       16.583778   0.000000
   23       16.583800   0.000000
   24       16.583831   0.000000
 
  0.1250000E+00  0.1250000E+00  0.1250000E+00  0.1562500E-01
    1       -7.047576   1.000000
    2       -2.857560   1.000000
    3       -2.857560   1.000000
    4       -2.857560   1.000000
    5        0.870973   1.000000
    6        0.870973   1.000000
    7        0.870973   1.000000
    8        3.920682   1.000000
    9        3.920682   1.000000
   10        3.920682   1.000000
   11        5.015390   1.000000
   12        5.015390   1.000000
   13        5.015390   1.000000
   14        6.461213   1.000000
   15        7.742739   1.000000
   16        7.742739   1.000000
   17       10.207490   0.000000
   18       10.207490   0.000000
   19       10.207490   0.000000
   20       13.298110   0.000000
   21       13.298110   0.000000
   22       13.298110   0.000000
   23       14.267918   0.000000
   24       15.497490   0.000000
 
  0.2500000E+00  0.1250000E+00  0.1250000E+00  0.4687500E-01
    1       -6.749516   1.000000
    2       -3.803021   1.000000
    3       -2.741904   1.000000
    4       -2.741904   1.000000
    5        0.886889   1.000000
    6        0.886889   1.000000
    7        1.853804   1.000000
    8        3.310939   1.000000
    9        3.310939   1.000000
   10        4.394341   1.000000
   11        4.919999   1.000000
   12        4.919999   1.000000
   13        5.252647   1.000000
   14        5.566989   1.000000
   15        7.289798   1.000000
   16        7.576167   1.000000
   17       10.701462   0.000000
   18       11.026664   0.000000
   19       11.026664   0.000000
   20       13.632736   0.000000
   21       14.234935   0.000000
   22       14.525586   0.000000
   23       14.525586   0.000000
   24       15.190749   0.000000
 
  0.3750000E+00  0.1250000E+00  0.1250000E+00  0.4687500E-01
    1       -6.258827   1.000000
    2       -4.753222   1.000000
    3       -2.612608   1.000000
    4       -2.612608   1.000000
    5        0.846181   1.000000
    6        0.846181   1.000000
    7        2.829283   1.000000
    8        3.002738   1.000000
    9        3.002738   1.000000
   10        4.583792   1.000000
   11        4.583792   1.000000
   12        4.642188   1.000000
   13        5.160049   1.000000
   14        5.633451   1.000000
   15        6.713009   1.000000
   16        6.952442   1.000000
   17       11.504893   0.000000
   18       12.259010   0.000000
   19       12.259010   0.000000
   20       13.573334   0.000000
   21       14.193328   0.000000
   22       15.416024   0.000000
   23       15.943024   0.000000
   24       15.943025   0.000000
 
  0.5000000E+00  0.1250000E+00  0.1250000E+00  0.2343750E-01
    1       -5.586478   1.000000
    2       -5.586478   1.000000
    3       -2.554013   1.000000
    4       -2.554013   1.000000
    5        0.805690   1.000000
    6        0.805690   1.000000
    7        2.944503   1.000000
    8        2.944503   1.000000
    9        3.738441   1.000000
   10        3.738441   1.000000
   11        4.405130   1.000000
   12        4.405130   1.000000
   13        6.079123   1.000000
   14        6.079123   1.000000
   15        6.134887   1.000000
   16        6.134887   1.000000
   17       12.530209   0.000000
   18       12.530209   0.000000
   19       13.054363   0.000000
   20       13.054363   0.000000
   21       14.943216   0.000000
   22       14.943216   0.000000
   23       16.086757   0.000000
   24       16.086757   0.000000
 
  0.2500000E+00  0.2500000E+00  0.1250000E+00  0.4687500E-01
    1       -6.455901   1.000000
    2       -3.603619   1.000000
    3       -3.603619   1.000000
    4       -2.724239   1.000000
    5        0.727374   1.000000
    6        1.511094   1.000000
    7        1.511094   1.000000
    8        2.951142   1.000000
    9        4.010034   1.000000
   10        4.010034   1.000000
   11        4.637535   1.000000
   12        5.232034   1.000000
   13        5.232034   1.000000
   14        5.441112   1.000000
   15        6.928684   1.000000
   16        7.663051   1.000000
   17       11.190588   0.000000
   18       11.478943   0.000000
   19       11.478943   0.000000
   20       14.217906   0.000000
   21       14.804936   0.000000
   22       14.804936   0.000000
   23       15.670628   0.000000
   24       15.687971   0.000000
 
  0.3750000E+00  0.2500000E+00  0.1250000E+00  0.9375000E-01
    1       -5.973675   1.000000
    2       -4.507940   1.000000
    3       -3.312353   1.000000
    4       -2.791709   1.000000
    5        0.588433   1.000000
    6        1.052104   1.000000
    7        2.173039   1.000000
    8        3.019081   1.000000
    9        3.705924   1.000000
   10        3.725858   1.000000
   11        4.874329   1.000000
   12        5.147587   1.000000
   13        5.481543   1.000000
   14        5.805939   1.000000
   15        6.313980   1.000000
   16        7.325796   1.000000
   17       12.014917   0.000000
   18       12.223195   0.000000
   19       12.620119   0.000000
   20       14.045361   0.000000
   21       15.241994   0.000000
   22       15.406599   0.000000
   23       15.836498   0.000000
   24       16.491051   0.000000
 
  0.5000000E+00  0.2500000E+00  0.1250000E+00  0.4687500E-01
    1       -5.315898   1.000000
    2       -5.315898   1.000000
    3       -3.005803   1.000000
    4       -3.005803   1.000000
    5        0.690637   1.000000
    6        0.690637   1.000000
    7        2.900863   1.000000
    8        2.900863   1.000000
    9        3.338958   1.000000
   10        3.338958   1.000000
   11        5.274207   1.000000
   12        5.274207   1.000000
   13        5.634698   1.000000
   14        5.634698   1.000000
   15        6.606358   1.000000
   16        6.606358   1.000000
   17       13.009211   0.000000
   18       13.009211   0.000000
   19       13.181501   0.000000
   20       13.181501   0.000000
   21       15.622160   0.000000
   22       15.622160   0.000000
   23       15.704495   0.000000
   24       15.704495   0.000000
 
  0.3750000E+00  0.3750000E+00  0.1250000E+00  0.4687500E-01
    1       -5.507742   1.000000
    2       -4.122216   1.000000
    3       -4.122216   1.000000
    4       -3.156807   1.000000
    5        0.574226   1.000000
    6        1.469908   1.000000
    7        1.469908   1.000000
    8        2.842132   1.000000
    9        3.326832   1.000000
   10        4.370941   1.000000
   11        4.370941   1.000000
   12        5.679454   1.000000
   13        6.034279   1.000000
   14        6.034279   1.000000
   15        6.075811   1.000000
   16        7.360229   1.000000
   17       12.272289   0.000000
   18       13.214327   0.000000
   19       13.214327   0.000000
   20       14.364693   0.000000
   21       15.431107   0.000000
   22       15.431107   0.000000
   23       15.436939   0.000000
   24       15.856477   0.000000
 
  0.5000000E+00  0.3750000E+00  0.1250000E+00  0.4687500E-01
    1       -4.878829   1.000000
    2       -4.878829   1.000000
    3       -3.642224   1.000000
    4       -3.642224   1.000000
    5        0.896200   1.000000
    6        0.896200   1.000000
    7        2.076425   1.000000
    8        2.076425   1.000000
    9        3.810601   1.000000
   10        3.810601   1.000000
   11        5.014448   1.000000
   12        5.014448   1.000000
   13        6.198642   1.000000
   14        6.198642   1.000000
   15        6.882852   1.000000
   16        6.882852   1.000000
   17       13.081264   0.000000
   18       13.081264   0.000000
   19       13.943922   0.000000
   20       13.943922   0.000000
   21       15.179745   0.000000
   22       15.179745   0.000000
   23       15.743518   0.000000
   24       15.743518   0.000000
 
  0.5000000E+00  0.5000000E+00  0.1250000E+00  0.1171875E-01
    1       -4.302468   1.000000
    2       -4.302468   1.000000
    3       -4.302468   1.000000
    4       -4.302468   1.000000
    5        1.383604   1.000000
    6        1.383604   1.000000
    7        1.383604   1.000000
    8        1.383604   1.000000
    9        4.379063   1.000000
   10        4.379063   1.000000
   11        4.379063   1.000000
   12        4.379063   1.000000
   13        6.782593   1.000000
   14        6.782593   1.000000
   15        6.782593   1.000000
   16        6.782593   1.000000
   17       13.513145   0.000000
   18       13.513145   0.000000
   19       13.513145   0.000000
   20       13.513145   0.000000
   21       15.885516   0.000000
   22       15.885518   0.000000
   23       15.885520   0.000000
   24       15.885528   0.000000
 
  0.2500000E+00  0.2500000E+00  0.2500000E+00  0.1562500E-01
    1       -6.167859   1.000000
    2       -3.454691   1.000000
    3       -3.454691   1.000000
    4       -3.454691   1.000000
    5        0.926912   1.000000
    6        0.926912   1.000000
    7        0.926912   1.000000
    8        3.673409   1.000000
    9        4.018184   1.000000
   10        4.018184   1.000000
   11        4.018184   1.000000
   12        5.653369   1.000000
   13        5.653369   1.000000
   14        5.653369   1.000000
   15        7.338513   1.000000
   16        7.338513   1.000000
   17       11.648658   0.000000
   18       11.648658   0.000000
   19       11.648658   0.000000
   20       13.798057   0.000000
   21       15.760369   0.000000
   22       15.823592   0.000000
   23       15.826002   0.000000
   24       15.826002   0.000000
 
  0.3750000E+00  0.2500000E+00  0.2500000E+00  0.4687500E-01
    1       -5.696570   1.000000
    2       -4.287510   1.000000
    3       -3.280604   1.000000
    4       -3.280604   1.000000
    5        0.394682   1.000000
    6        0.394682   1.000000
    7        1.350544   1.000000
    8        2.757394   1.000000
    9        4.165267   1.000000
   10        4.165267   1.000000
   11        5.239846   1.000000
   12        5.742058   1.000000
   13        5.742058   1.000000
   14        5.988836   1.000000
   15        6.893171   1.000000
   16        7.136313   1.000000
   17       12.388698   0.000000
   18       12.424646   0.000000
   19       12.424646   0.000000
   20       13.757403   0.000000
   21       15.315426   0.000000
   22       15.848950   0.000000
   23       15.930844   0.000000
   24       15.930955   0.000000
 
  0.5000000E+00  0.2500000E+00  0.2500000E+00  0.2343750E-01
    1       -5.058674   1.000000
    2       -5.058674   1.000000
    3       -3.198233   1.000000
    4       -3.198233   1.000000
    5        0.180187   1.000000
    6        0.180187   1.000000
    7        1.970278   1.000000
    8        1.970278   1.000000
    9        4.256008   1.000000
   10        4.256008   1.000000
   11        5.703557   1.000000
   12        5.703557   1.000000
   13        6.356651   1.000000
   14        6.356651   1.000000
   15        6.418686   1.000000
   16        6.418686   1.000000
   17       13.161475   0.000000
   18       13.161475   0.000000
   19       13.272593   0.000000
   20       13.272593   0.000000
   21       15.114481   0.000000
   22       15.114481   0.000000
   23       15.429023   0.000000
   24       15.429024   0.000000
 
  0.3750000E+00  0.3750000E+00  0.2500000E+00  0.4687500E-01
    1       -5.247285   1.000000
    2       -3.959118   1.000000
    3       -3.959118   1.000000
    4       -3.350980   1.000000
    5        0.015763   1.000000
    6        0.598526   1.000000
    7        0.598526   1.000000
    8        1.854936   1.000000
    9        4.581562   1.000000
   10        5.248089   1.000000
   11        5.248089   1.000000
   12        6.210623   1.000000
   13        6.210623   1.000000
   14        6.231520   1.000000
   15        6.565876   1.000000
   16        7.226428   1.000000
   17       12.674991   0.000000
   18       13.074118   0.000000
   19       13.074118   0.000000
   20       13.737643   0.000000
   21       15.244971   0.000000
   22       15.244972   0.000000
   23       15.448233   0.000000
   24       15.490099   0.000000
 
  0.5000000E+00  0.3750000E+00  0.2500000E+00  0.4687500E-01
    1       -4.650713   1.000000
    2       -4.650713   1.000000
    3       -3.603198   1.000000
    4       -3.603198   1.000000
    5        0.102110   1.000000
    6        0.102110   1.000000
    7        1.113776   1.000000
    8        1.113776   1.000000
    9        4.972871   1.000000
   10        4.972871   1.000000
   11        6.016640   1.000000
   12        6.016640   1.000000
   13        6.351135   1.000000
   14        6.351135   1.000000
   15        6.841024   1.000000
   16        6.841024   1.000000
   17       13.366470   0.000000
   18       13.366470   0.000000
   19       13.705520   0.000000
   20       13.705520   0.000000
   21       14.909793   0.000000
   22       14.909793   0.000000
   23       14.955521   0.000000
   24       14.955521   0.000000
 
  0.5000000E+00  0.5000000E+00  0.2500000E+00  0.1171875E-01
    1       -4.135420   1.000000
    2       -4.135420   1.000000
    3       -4.135420   1.000000
    4       -4.135420   1.000000
    5        0.455213   1.000000
    6        0.455213   1.000000
    7        0.455213   1.000000
    8        0.455213   1.000000
    9        5.535407   1.000000
   10        5.535407   1.000000
   11        5.535407   1.000000
   12        5.535407   1.000000
   13        6.827068   1.000000
   14        6.827068   1.000000
   15        6.827068   1.000000
   16        6.827068   1.000000
   17       13.679275   0.000000
   18       13.679275   0.000000
   19       13.679275   0.000000
   20       13.679275   0.000000
   21       15.044318   0.000000
   22       15.044318   0.000000
   23       15.044319   0.000000
   24       15.044320   0.000000
 
  0.3750000E+00  0.3750000E+00  0.3750000E+00  0.1562500E-01
    1       -4.833414   1.000000
    2       -3.765001   1.000000
    3       -3.765001   1.000000
    4       -3.765001   1.000000
    5       -0.072961   1.000000
    6       -0.072961   1.000000
    7       -0.072961   1.000000
    8        0.966479   1.000000
    9        5.803663   1.000000
   10        5.803663   1.000000
   11        5.803663   1.000000
   12        6.466631   1.000000
   13        6.466631   1.000000
   14        6.466631   1.000000
   15        7.010953   1.000000
   16        7.010953   1.000000
   17       13.242313   0.000000
   18       13.242313   0.000000
   19       13.242313   0.000000
   20       13.383358   0.000000
   21       15.059350   0.000000
   22       15.059350   0.000000
   23       15.059359   0.000000
   24       15.356138   0.000000
 
  0.5000000E+00  0.3750000E+00  0.3750000E+00  0.2343750E-01
    1       -4.308931   1.000000
    2       -4.308931   1.000000
    3       -3.671382   1.000000
    4       -3.671382   1.000000
    5       -0.331354   1.000000
    6       -0.331354   1.000000
    7        0.288657   1.000000
    8        0.288657   1.000000
    9        5.965675   1.000000
   10        5.965675   1.000000
   11        6.600000   1.000000
   12        6.600000   1.000000
   13        6.718233   1.000000
   14        6.718233   1.000000
   15        6.743094   1.000000
   16        6.743094   1.000000
   17       13.470721   0.000000
   18       13.470721   0.000000
   19       13.587570   0.000000
   20       13.587570   0.000000
   21       14.612324   0.000000
   22       14.612324   0.000000
   23       14.904676   0.000000
   24       14.904677   0.000000
 
  0.5000000E+00  0.5000000E+00  0.3750000E+00  0.1171875E-01
    1       -3.935610   1.000000
    2       -3.935610   1.000000
    3       -3.935610   1.000000
    4       -3.935610   1.000000
    5       -0.244928   1.000000
    6       -0.244928   1.000000
    7       -0.244928   1.000000
    8       -0.244928   1.000000
    9        6.499858   1.000000
   10        6.499858   1.000000
   11        6.499858   1.000000
   12        6.499858   1.000000
   13        6.872872   1.000000
   14        6.872872   1.000000
   15        6.872872   1.000000
   16        6.872872   1.000000
   17       13.472902   0.000000
   18       13.472902   0.000000
   19       13.472902   0.000000
   20       13.472902   0.000000
   21       14.920594   0.000000
   22       14.920603   0.000000
   23       14.920606   0.000000
   24       14.920612   0.000000
 
  0.5000000E+00  0.5000000E+00  0.5000000E+00  0.1953125E-02
    1       -3.838759   1.000000
    2       -3.838759   1.000000
    3       -3.838759   1.000000
    4       -3.838759   1.000000
    5       -0.513224   1.000000
    6       -0.513224   1.000000
    7       -0.513224   1.000000
    8       -0.513224   1.000000
    9        6.891349   1.000000
   10        6.891349   1.000000
   11        6.891349   1.000000
   12        6.891349   1.000000
   13        6.891349   1.000000
   14        6.891349   1.000000
   15        6.891349   1.000000
   16        6.891349   1.000000
   17       13.239733   0.000000
   18       13.239733   0.000000
   19       13.239733   0.000000
   20       13.239733   0.000000
   21       15.110375   0.000000
   22       15.110375   0.000000
   23       15.110375   0.000000
   24       15.110375   0.000000
