       N       E                     dE             d eps       ncg     rms          rms(c)
DAV:   1     0.589561778606E+02    0.58956E+02   -0.12304E+04  1680   0.971E+02
DAV:   2    -0.616389331301E+02   -0.12060E+03   -0.11253E+03  2296   0.178E+02
DAV:   3    -0.673817452199E+02   -0.57428E+01   -0.57063E+01  2224   0.383E+01
DAV:   4    -0.674526975416E+02   -0.70952E-01   -0.70898E-01  2136   0.497E+00
DAV:   5    -0.674540525890E+02   -0.13550E-02   -0.13548E-02  2208   0.643E-01    0.172E+01
DAV:   6    -0.604471374410E+02    0.70069E+01   -0.20565E+01  2088   0.204E+01    0.778E+00
DAV:   7    -0.602952133756E+02    0.15192E+00   -0.20151E+00  2312   0.654E+00    0.346E+00
DAV:   8    -0.602645038944E+02    0.30709E-01   -0.12021E-01  2000   0.175E+00    0.807E-01
DAV:   9    -0.602619119543E+02    0.25919E-02   -0.17729E-02  2112   0.699E-01    0.178E-01
DAV:  10    -0.602623822743E+02   -0.47032E-03   -0.17731E-03  2096   0.214E-01    0.844E-02
DAV:  11    -0.602624149558E+02   -0.32681E-04   -0.21448E-04  1488   0.906E-02
   1 F= -.60262415E+02 E0= -.60262415E+02  d E =0.000000E+00
