   8   8   0   0
  0.1050029E+02  0.4379560E-09  0.4379560E-09  0.4379560E-09  0.5000000E-15
  1.000000000000000E-004
  CAR 
 unknown system                          
     18.47185286     -8.57539239  301      8.37562334      1.00000000
     -8.575  0.0000E+00  0.0000E+00
     -8.485  0.0000E+00  0.0000E+00
     -8.395  0.0000E+00  0.0000E+00
     -8.305  0.0000E+00  0.0000E+00
     -8.215  0.0000E+00  0.0000E+00
     -8.125  0.0000E+00  0.0000E+00
     -8.034  0.0000E+00  0.0000E+00
     -7.944  0.0000E+00  0.0000E+00
     -7.854  0.1440E-13  0.1299E-14
     -7.764  0.7348E-10  0.6626E-11
     -7.674  0.7689E-07  0.6939E-08
     -7.584  0.1694E-04  0.1535E-05
     -7.494  0.8416E-03  0.7741E-04
     -7.403  0.1154E-01  0.1118E-02
     -7.313  0.6529E-01  0.7005E-02
     -7.223  0.1980E+00  0.2485E-01
     -7.133  0.3462E+00  0.5607E-01
     -7.043  0.3641E+00  0.8889E-01
     -6.953  0.3365E+00  0.1192E+00
     -6.862  0.5480E+00  0.1686E+00
     -6.772  0.8154E+00  0.2421E+00
     -6.682  0.6426E+00  0.3001E+00
     -6.592  0.3417E+00  0.3309E+00
     -6.502  0.5629E+00  0.3816E+00
     -6.412  0.9377E+00  0.4662E+00
     -6.321  0.9994E+00  0.5563E+00
     -6.231  0.8845E+00  0.6360E+00
     -6.141  0.6786E+00  0.6972E+00
     -6.051  0.8665E+00  0.7753E+00
     -5.961  0.1278E+01  0.8905E+00
     -5.871  0.8594E+00  0.9680E+00
     -5.781  0.4310E+00  0.1007E+01
     -5.690  0.1017E+01  0.1099E+01
     -5.600  0.1536E+01  0.1237E+01
     -5.510  0.1377E+01  0.1361E+01
     -5.420  0.1130E+01  0.1463E+01
     -5.330  0.1414E+01  0.1591E+01
     -5.240  0.1518E+01  0.1728E+01
     -5.149  0.7959E+00  0.1799E+01
     -5.059  0.5989E+00  0.1853E+01
     -4.969  0.1073E+01  0.1950E+01
     -4.879  0.1850E+01  0.2117E+01
     -4.789  0.2036E+01  0.2300E+01
     -4.699  0.1551E+01  0.2440E+01
     -4.608  0.1714E+01  0.2595E+01
     -4.518  0.1782E+01  0.2755E+01
     -4.428  0.1336E+01  0.2876E+01
     -4.338  0.1312E+01  0.2994E+01
     -4.248  0.1937E+01  0.3169E+01
     -4.158  0.2053E+01  0.3354E+01
     -4.068  0.2035E+01  0.3537E+01
     -3.977  0.1729E+01  0.3693E+01
     -3.887  0.2159E+01  0.3888E+01
     -3.797  0.1991E+01  0.4067E+01
     -3.707  0.2468E+01  0.4290E+01
     -3.617  0.4166E+01  0.4666E+01
     -3.527  0.3421E+01  0.4974E+01
     -3.436  0.1505E+01  0.5110E+01
     -3.346  0.2064E+01  0.5296E+01
     -3.256  0.3125E+01  0.5577E+01
     -3.166  0.2326E+01  0.5787E+01
     -3.076  0.1533E+01  0.5925E+01
     -2.986  0.1771E+01  0.6085E+01
     -2.895  0.2214E+01  0.6285E+01
     -2.805  0.2634E+01  0.6522E+01
     -2.715  0.3392E+01  0.6828E+01
     -2.625  0.3083E+01  0.7106E+01
     -2.535  0.2611E+01  0.7341E+01
     -2.445  0.1653E+01  0.7490E+01
     -2.355  0.1973E+01  0.7668E+01
     -2.264  0.2180E+01  0.7865E+01
     -2.174  0.1127E+01  0.7966E+01
     -2.084  0.3278E+00  0.7996E+01
     -1.994  0.4570E-01  0.8000E+01
     -1.904  0.1944E-02  0.8000E+01
     -1.814  0.2031E-04  0.8000E+01
     -1.723  0.4785E-07  0.8000E+01
     -1.633  0.2425E-10  0.8000E+01
     -1.543  0.2598E-14  0.8000E+01
     -1.453  0.0000E+00  0.8000E+01
     -1.363  0.0000E+00  0.8000E+01
     -1.273  0.0000E+00  0.8000E+01
     -1.182  0.0000E+00  0.8000E+01
     -1.092  0.1924E-16  0.8000E+01
     -1.002  0.3522E-12  0.8000E+01
     -0.912  0.1312E-08  0.8000E+01
     -0.822  0.1004E-05  0.8000E+01
     -0.732  0.1612E-03  0.8000E+01
     -0.642  0.5609E-02  0.8001E+01
     -0.551  0.4502E-01  0.8005E+01
     -0.461  0.1155E+00  0.8015E+01
     -0.371  0.3318E+00  0.8045E+01
     -0.281  0.7730E+00  0.8115E+01
     -0.191  0.7686E+00  0.8184E+01
     -0.101  0.5978E+00  0.8238E+01
     -0.010  0.9303E+00  0.8322E+01
      0.080  0.1406E+01  0.8448E+01
      0.170  0.1649E+01  0.8597E+01
      0.260  0.1457E+01  0.8728E+01
      0.350  0.1662E+01  0.8878E+01
      0.440  0.2065E+01  0.9064E+01
      0.531  0.2567E+01  0.9296E+01
      0.621  0.3660E+01  0.9626E+01
      0.711  0.3579E+01  0.9948E+01
      0.801  0.4071E+01  0.1032E+02
      0.891  0.6253E+01  0.1088E+02
      0.981  0.5977E+01  0.1142E+02
      1.071  0.3961E+01  0.1178E+02
      1.162  0.2786E+01  0.1203E+02
      1.252  0.1197E+01  0.1213E+02
      1.342  0.8901E+00  0.1221E+02
      1.432  0.2146E+01  0.1241E+02
      1.522  0.3205E+01  0.1270E+02
      1.612  0.1814E+01  0.1286E+02
      1.703  0.4462E+00  0.1290E+02
      1.793  0.8194E+00  0.1297E+02
      1.883  0.1572E+01  0.1312E+02
      1.973  0.1996E+01  0.1330E+02
      2.063  0.2593E+01  0.1353E+02
      2.153  0.2336E+01  0.1374E+02
      2.244  0.1360E+01  0.1386E+02
      2.334  0.6119E+00  0.1392E+02
      2.424  0.6456E+00  0.1398E+02
      2.514  0.6577E+00  0.1404E+02
      2.604  0.1114E+01  0.1414E+02
      2.694  0.2275E+01  0.1434E+02
      2.784  0.2890E+01  0.1460E+02
      2.875  0.2935E+01  0.1487E+02
      2.965  0.3690E+01  0.1520E+02
      3.055  0.4119E+01  0.1557E+02
      3.145  0.2791E+01  0.1582E+02
      3.235  0.1895E+01  0.1599E+02
      3.325  0.3158E+01  0.1628E+02
      3.416  0.3352E+01  0.1658E+02
      3.506  0.1897E+01  0.1675E+02
      3.596  0.1083E+01  0.1685E+02
      3.686  0.2110E+01  0.1704E+02
      3.776  0.3923E+01  0.1739E+02
      3.866  0.3423E+01  0.1770E+02
      3.956  0.3171E+01  0.1799E+02
      4.047  0.3447E+01  0.1830E+02
      4.137  0.2886E+01  0.1856E+02
      4.227  0.2998E+01  0.1883E+02
      4.317  0.3277E+01  0.1912E+02
      4.407  0.4224E+01  0.1950E+02
      4.497  0.3615E+01  0.1983E+02
      4.588  0.3817E+01  0.2017E+02
      4.678  0.3666E+01  0.2051E+02
      4.768  0.2161E+01  0.2070E+02
      4.858  0.3386E+01  0.2101E+02
      4.948  0.5221E+01  0.2148E+02
      5.038  0.5135E+01  0.2194E+02
      5.129  0.4671E+01  0.2236E+02
      5.219  0.6037E+01  0.2290E+02
      5.309  0.5880E+01  0.2343E+02
      5.399  0.3175E+01  0.2372E+02
      5.489  0.2867E+01  0.2398E+02
      5.579  0.3680E+01  0.2431E+02
      5.669  0.4585E+01  0.2472E+02
      5.760  0.5342E+01  0.2521E+02
      5.850  0.4182E+01  0.2558E+02
      5.940  0.2662E+01  0.2582E+02
      6.030  0.4345E+01  0.2621E+02
      6.120  0.5077E+01  0.2667E+02
      6.210  0.4878E+01  0.2711E+02
      6.301  0.4732E+01  0.2754E+02
      6.391  0.4412E+01  0.2794E+02
      6.481  0.3507E+01  0.2825E+02
      6.571  0.3022E+01  0.2853E+02
      6.661  0.3419E+01  0.2883E+02
      6.751  0.3762E+01  0.2917E+02
      6.842  0.4777E+01  0.2960E+02
      6.932  0.5389E+01  0.3009E+02
      7.022  0.3786E+01  0.3043E+02
      7.112  0.2166E+01  0.3063E+02
      7.202  0.1517E+01  0.3076E+02
      7.292  0.2306E+01  0.3097E+02
      7.382  0.2945E+01  0.3124E+02
      7.473  0.1919E+01  0.3141E+02
      7.563  0.1264E+01  0.3152E+02
      7.653  0.1708E+01  0.3168E+02
      7.743  0.1708E+01  0.3183E+02
      7.833  0.1033E+01  0.3192E+02
      7.923  0.4990E+00  0.3197E+02
      8.014  0.2740E+00  0.3199E+02
      8.104  0.6233E-01  0.3200E+02
      8.194  0.3586E-02  0.3200E+02
      8.284  0.4753E-04  0.3200E+02
      8.374  0.1397E-06  0.3200E+02
      8.464  0.8877E-10  0.3200E+02
      8.555  0.1192E-13  0.3200E+02
      8.645  0.0000E+00  0.3200E+02
      8.735  0.2165E-16  0.3200E+02
      8.825  0.3642E-12  0.3200E+02
      8.915  0.1282E-08  0.3200E+02
      9.005  0.9275E-06  0.3200E+02
      9.095  0.1409E-03  0.3200E+02
      9.186  0.4641E-02  0.3200E+02
      9.276  0.3495E-01  0.3200E+02
      9.366  0.7063E-01  0.3201E+02
      9.456  0.9519E-01  0.3202E+02
      9.546  0.1258E+00  0.3203E+02
      9.636  0.5686E-01  0.3203E+02
      9.727  0.6478E-01  0.3204E+02
      9.817  0.2317E+00  0.3206E+02
      9.907  0.3746E+00  0.3210E+02
      9.997  0.7079E+00  0.3216E+02
     10.087  0.7590E+00  0.3223E+02
     10.177  0.5344E+00  0.3228E+02
     10.268  0.5071E+00  0.3232E+02
     10.358  0.2306E+00  0.3234E+02
     10.448  0.3178E+00  0.3237E+02
     10.538  0.4973E+00  0.3242E+02
     10.628  0.3374E+00  0.3245E+02
     10.718  0.4970E+00  0.3249E+02
     10.808  0.5554E+00  0.3254E+02
     10.899  0.7857E+00  0.3261E+02
     10.989  0.1316E+01  0.3273E+02
     11.079  0.1775E+01  0.3289E+02
     11.169  0.1479E+01  0.3302E+02
     11.259  0.1119E+01  0.3313E+02
     11.349  0.7724E+00  0.3319E+02
     11.440  0.9556E+00  0.3328E+02
     11.530  0.1787E+01  0.3344E+02
     11.620  0.1559E+01  0.3358E+02
     11.710  0.8196E+00  0.3366E+02
     11.800  0.3527E+00  0.3369E+02
     11.890  0.6005E+00  0.3374E+02
     11.981  0.1091E+01  0.3384E+02
     12.071  0.1431E+01  0.3397E+02
     12.161  0.1800E+01  0.3413E+02
     12.251  0.3162E+01  0.3442E+02
     12.341  0.3803E+01  0.3476E+02
     12.431  0.3159E+01  0.3504E+02
     12.521  0.2328E+01  0.3525E+02
     12.612  0.1958E+01  0.3543E+02
     12.702  0.2050E+01  0.3562E+02
     12.792  0.1672E+01  0.3577E+02
     12.882  0.1314E+01  0.3589E+02
     12.972  0.2213E+01  0.3608E+02
     13.062  0.4555E+01  0.3650E+02
     13.153  0.5664E+01  0.3701E+02
     13.243  0.5528E+01  0.3750E+02
     13.333  0.4688E+01  0.3793E+02
     13.423  0.3703E+01  0.3826E+02
     13.513  0.3025E+01  0.3853E+02
     13.603  0.2727E+01  0.3878E+02
     13.694  0.3181E+01  0.3907E+02
     13.784  0.3209E+01  0.3936E+02
     13.874  0.1972E+01  0.3953E+02
     13.964  0.2285E+01  0.3974E+02
     14.054  0.2750E+01  0.3999E+02
     14.144  0.1892E+01  0.4016E+02
     14.234  0.2344E+01  0.4037E+02
     14.325  0.3147E+01  0.4065E+02
     14.415  0.2626E+01  0.4089E+02
     14.505  0.2117E+01  0.4108E+02
     14.595  0.2126E+01  0.4127E+02
     14.685  0.1428E+01  0.4140E+02
     14.775  0.1378E+01  0.4153E+02
     14.866  0.3071E+01  0.4180E+02
     14.956  0.4842E+01  0.4224E+02
     15.046  0.4425E+01  0.4264E+02
     15.136  0.3722E+01  0.4297E+02
     15.226  0.4392E+01  0.4337E+02
     15.316  0.4308E+01  0.4376E+02
     15.406  0.4849E+01  0.4419E+02
     15.497  0.5551E+01  0.4470E+02
     15.587  0.4262E+01  0.4508E+02
     15.677  0.4620E+01  0.4550E+02
     15.767  0.5077E+01  0.4595E+02
     15.857  0.5742E+01  0.4647E+02
     15.947  0.5534E+01  0.4697E+02
     16.038  0.2724E+01  0.4722E+02
     16.128  0.1008E+01  0.4731E+02
     16.218  0.9396E+00  0.4739E+02
     16.308  0.1164E+01  0.4750E+02
     16.398  0.1256E+01  0.4761E+02
     16.488  0.1762E+01  0.4777E+02
     16.579  0.1554E+01  0.4791E+02
     16.669  0.6457E+00  0.4797E+02
     16.759  0.1020E+00  0.4798E+02
     16.849  0.4599E-02  0.4798E+02
     16.939  0.5297E-04  0.4798E+02
     17.029  0.3338E-03  0.4798E+02
     17.119  0.1035E-01  0.4798E+02
     17.210  0.7293E-01  0.4798E+02
     17.300  0.1222E+00  0.4800E+02
     17.390  0.4939E-01  0.4800E+02
     17.480  0.4695E-02  0.4800E+02
     17.570  0.1001E-03  0.4800E+02
     17.660  0.4592E-06  0.4800E+02
     17.751  0.4393E-09  0.4800E+02
     17.841  0.8609E-13  0.4800E+02
     17.931  0.0000E+00  0.4800E+02
     18.021  0.0000E+00  0.4800E+02
     18.111  0.0000E+00  0.4800E+02
     18.201  0.0000E+00  0.4800E+02
     18.292  0.0000E+00  0.4800E+02
     18.382  0.0000E+00  0.4800E+02
     18.472  0.0000E+00  0.4800E+02
