<?xml version="1.0" encoding="ISO-8859-1"?>
<modeling>
 <generator>
  <i name="program" type="string">vasp </i>
  <i name="version" type="string">5.4.4.18Apr17-6-g9f103f2a35  </i>
  <i name="subversion" type="string">(build May 27 2024 22:40:15) complex            parallel </i>
  <i name="platform" type="string">LinuxIFC </i>
  <i name="date" type="string">2024 10 26 </i>
  <i name="time" type="string">11:27:12 </i>
 </generator>
 <incar>
  <i type="int" name="ISTART">     0</i>
  <i type="string" name="PREC">accurate</i>
  <i type="logical" name="ADDGRID"> T  </i>
  <i type="int" name="NELM">    60</i>
  <i type="int" name="IBRION">    -1</i>
  <i name="EDIFF">      0.00000100</i>
  <i name="EDIFFG">     -0.02000000</i>
  <i type="int" name="NSW">     0</i>
  <i name="ENCUT">    520.00000000</i>
  <i type="logical" name="LREAL"> F  </i>
  <i type="int" name="ISMEAR">     0</i>
  <i name="SIGMA">      0.10000000</i>
  <i type="logical" name="LCHARG"> T  </i>
  <v type="int" name="KPOINT_BSE">    -1     0     0     0</v>
  <i type="int" name="NELM">    60</i>
 </incar>
 <structure name="primitive_cell" >
  <crystal>
   <varray name="basis" >
    <v>       2.18978000       2.18978000       0.00000000 </v>
    <v>       2.18978000       0.00000000      -2.18978000 </v>
    <v>       0.00000000       2.18978000      -2.18978000 </v>
   </varray>
   <i name="volume">     21.00058778 </i>
   <varray name="rec_basis" >
    <v>       0.22833344       0.22833344       0.22833344 </v>
    <v>       0.22833344      -0.22833344      -0.22833344 </v>
    <v>      -0.22833344       0.22833344      -0.22833344 </v>
   </varray>
  </crystal>
  <varray name="positions" >
   <v>       0.25000000       0.25000000       0.25000000 </v>
   <v>       0.00000000       0.00000000       0.00000000 </v>
  </varray>
 </structure>
 <varray name="primitive_index" >
  <v type="int" >        1 </v>
  <v type="int" >        6 </v>
 </varray>
 <kpoints>
  <generation param="Gamma">
   <v type="int" name="divisions">       8        8        8 </v>
   <v name="usershift">      0.00000000       0.00000000       0.00000000 </v>
   <v name="genvec1">      0.12500000      -0.00000000       0.00000000 </v>
   <v name="genvec2">      0.00000000       0.12500000       0.00000000 </v>
   <v name="genvec3">     -0.00000000      -0.00000000       0.12500000 </v>
   <v name="shift">      0.00000000       0.00000000       0.00000000 </v>
  </generation>
  <varray name="kpointlist" >
   <v>       0.00000000       0.00000000       0.00000000 </v>
   <v>       0.12500000      -0.00000000       0.00000000 </v>
   <v>       0.25000000      -0.00000000       0.00000000 </v>
   <v>       0.37500000      -0.00000000       0.00000000 </v>
   <v>       0.50000000      -0.00000000       0.00000000 </v>
   <v>       0.12500000       0.12500000       0.00000000 </v>
   <v>       0.25000000       0.12500000       0.00000000 </v>
   <v>       0.37500000       0.12500000       0.00000000 </v>
   <v>       0.50000000       0.12500000       0.00000000 </v>
   <v>       0.25000000       0.25000000       0.00000000 </v>
   <v>       0.37500000       0.25000000       0.00000000 </v>
   <v>       0.50000000       0.25000000       0.00000000 </v>
   <v>       0.37500000       0.37500000       0.00000000 </v>
   <v>       0.50000000       0.37500000       0.00000000 </v>
   <v>       0.50000000       0.50000000       0.00000000 </v>
   <v>       0.12500000       0.12500000       0.12500000 </v>
   <v>       0.25000000       0.12500000       0.12500000 </v>
   <v>       0.37500000       0.12500000       0.12500000 </v>
   <v>       0.50000000       0.12500000       0.12500000 </v>
   <v>       0.25000000       0.25000000       0.12500000 </v>
   <v>       0.37500000       0.25000000       0.12500000 </v>
   <v>       0.50000000       0.25000000       0.12500000 </v>
   <v>       0.37500000       0.37500000       0.12500000 </v>
   <v>       0.50000000       0.37500000       0.12500000 </v>
   <v>       0.50000000       0.50000000       0.12500000 </v>
   <v>       0.25000000       0.25000000       0.25000000 </v>
   <v>       0.37500000       0.25000000       0.25000000 </v>
   <v>       0.50000000       0.25000000       0.25000000 </v>
   <v>       0.37500000       0.37500000       0.25000000 </v>
   <v>       0.50000000       0.37500000       0.25000000 </v>
   <v>       0.50000000       0.50000000       0.25000000 </v>
   <v>       0.37500000       0.37500000       0.37500000 </v>
   <v>       0.50000000       0.37500000       0.37500000 </v>
   <v>       0.50000000       0.50000000       0.37500000 </v>
   <v>       0.50000000       0.50000000       0.50000000 </v>
  </varray>
  <varray name="weights" >
   <v>       0.00195312 </v>
   <v>       0.01171875 </v>
   <v>       0.01171875 </v>
   <v>       0.01171875 </v>
   <v>       0.00585938 </v>
   <v>       0.02343750 </v>
   <v>       0.04687500 </v>
   <v>       0.04687500 </v>
   <v>       0.02343750 </v>
   <v>       0.02343750 </v>
   <v>       0.04687500 </v>
   <v>       0.02343750 </v>
   <v>       0.02343750 </v>
   <v>       0.02343750 </v>
   <v>       0.00585938 </v>
   <v>       0.01562500 </v>
   <v>       0.04687500 </v>
   <v>       0.04687500 </v>
   <v>       0.02343750 </v>
   <v>       0.04687500 </v>
   <v>       0.09375000 </v>
   <v>       0.04687500 </v>
   <v>       0.04687500 </v>
   <v>       0.04687500 </v>
   <v>       0.01171875 </v>
   <v>       0.01562500 </v>
   <v>       0.04687500 </v>
   <v>       0.02343750 </v>
   <v>       0.04687500 </v>
   <v>       0.04687500 </v>
   <v>       0.01171875 </v>
   <v>       0.01562500 </v>
   <v>       0.02343750 </v>
   <v>       0.01171875 </v>
   <v>       0.00195312 </v>
  </varray>
 </kpoints>
 <parameters>
  <separator name="general" >
   <i type="string" name="SYSTEM">unknown system</i>
   <i type="logical" name="LCOMPAT"> F  </i>
  </separator>
  <separator name="electronic" >
   <i type="string" name="PREC">accura</i>
   <i name="ENMAX">    520.00000000</i>
   <i name="ENAUG">    644.87300000</i>
   <i name="EDIFF">      0.00000100</i>
   <i type="int" name="IALGO">    38</i>
   <i type="int" name="IWAVPR">    10</i>
   <i type="int" name="NBANDS">    24</i>
   <i name="NELECT">     32.00000000</i>
   <i type="int" name="TURBO">     0</i>
   <i type="int" name="IRESTART">     0</i>
   <i type="int" name="NREBOOT">     0</i>
   <i type="int" name="NMIN">     0</i>
   <i name="EREF">      0.00000000</i>
   <separator name="electronic smearing" >
    <i type="int" name="ISMEAR">     0</i>
    <i name="SIGMA">      0.10000000</i>
    <i name="KSPACING">      0.50000000</i>
    <i type="logical" name="KGAMMA"> T  </i>
   </separator>
   <separator name="electronic projectors" >
    <i type="logical" name="LREAL"> F  </i>
    <v name="ROPT">      0.00000000      0.00000000</v>
    <i type="int" name="LMAXPAW">  -100</i>
    <i type="int" name="LMAXMIX">     2</i>
    <i type="logical" name="NLSPLINE"> F  </i>
   </separator>
   <separator name="electronic startup" >
    <i type="int" name="ISTART">     0</i>
    <i type="int" name="ICHARG">     2</i>
    <i type="int" name="INIWAV">     1</i>
   </separator>
   <separator name="electronic spin" >
    <i type="int" name="ISPIN">     1</i>
    <i type="logical" name="LNONCOLLINEAR"> F  </i>
    <v name="MAGMOM">      1.00000000      1.00000000      1.00000000      1.00000000      1.00000000      1.00000000      1.00000000      1.00000000</v>
    <i name="NUPDOWN">     -1.00000000</i>
    <i type="logical" name="LSORBIT"> F  </i>
    <v name="SAXIS">      0.00000000      0.00000000      1.00000000</v>
    <i type="logical" name="LSPIRAL"> F  </i>
    <v name="QSPIRAL">      0.00000000      0.00000000      0.00000000</v>
    <i type="logical" name="LZEROZ"> F  </i>
   </separator>
   <separator name="electronic exchange-correlation" >
    <i type="logical" name="LASPH"> F  </i>
    <i type="logical" name="LMETAGGA"> F  </i>
   </separator>
   <separator name="electronic convergence" >
    <i type="int" name="NELM">    60</i>
    <i type="int" name="NELMDL">    -5</i>
    <i type="int" name="NELMIN">     2</i>
    <i name="ENINI">    520.00000000</i>
    <separator name="electronic convergence detail" >
     <i type="logical" name="LDIAG"> T  </i>
     <i type="logical" name="LSUBROT"> F  </i>
     <i name="WEIMIN">      0.00000000</i>
     <i name="EBREAK">      0.00000001</i>
     <i name="DEPER">      0.30000000</i>
     <i type="int" name="NRMM">     4</i>
     <i name="TIME">      0.40000000</i>
    </separator>
   </separator>
   <separator name="electronic mixer" >
    <i name="AMIX">      0.40000000</i>
    <i name="BMIX">      1.00000000</i>
    <i name="AMIN">      0.10000000</i>
    <i name="AMIX_MAG">      1.60000000</i>
    <i name="BMIX_MAG">      1.00000000</i>
    <separator name="electronic mixer details" >
     <i type="int" name="IMIX">     4</i>
     <i type="logical" name="MIXFIRST"> F  </i>
     <i type="int" name="MAXMIX">   -45</i>
     <i name="WC">    100.00000000</i>
     <i type="int" name="INIMIX">     1</i>
     <i type="int" name="MIXPRE">     1</i>
     <i type="int" name="MREMOVE">     5</i>
    </separator>
   </separator>
   <separator name="electronic dipolcorrection" >
    <i type="logical" name="LDIPOL"> F  </i>
    <i type="logical" name="LMONO"> F  </i>
    <i type="int" name="IDIPOL">     0</i>
    <i name="EPSILON">      1.00000000</i>
    <v name="DIPOL">   -100.00000000   -100.00000000   -100.00000000</v>
    <i name="EFIELD">      0.00000000</i>
   </separator>
  </separator>
  <separator name="grids" >
   <i type="int" name="NGX">    36</i>
   <i type="int" name="NGY">    36</i>
   <i type="int" name="NGZ">    36</i>
   <i type="int" name="NGXF">    72</i>
   <i type="int" name="NGYF">    72</i>
   <i type="int" name="NGZF">    72</i>
   <i type="logical" name="ADDGRID"> T  </i>
  </separator>
  <separator name="ionic" >
   <i type="int" name="NSW">     0</i>
   <i type="int" name="IBRION">    -1</i>
   <i type="int" name="MDALGO">     0</i>
   <i type="int" name="ISIF">     2</i>
   <i name="PSTRESS">      0.00000000</i>
   <i name="EDIFFG">     -0.02000000</i>
   <i type="int" name="NFREE">     0</i>
   <i name="POTIM">      0.50000000</i>
   <i name="SMASS">     -3.00000000</i>
   <i name="SCALEE">      1.00000000</i>
  </separator>
  <separator name="ionic md" >
   <i name="TEBEG">      0.00010000</i>
   <i name="TEEND">      0.00010000</i>
   <i type="int" name="NBLOCK">     1</i>
   <i type="int" name="KBLOCK">     1</i>
   <i type="int" name="NPACO">   256</i>
   <i name="APACO">     16.00000000</i>
  </separator>
  <separator name="symmetry" >
   <i type="int" name="ISYM">     2</i>
   <i name="SYMPREC">      0.00001000</i>
  </separator>
  <separator name="dos" >
   <i type="int" name="LORBIT">     0</i>
   <v name="RWIGS">     -1.00000000     -1.00000000</v>
   <i type="int" name="NEDOS">   301</i>
   <i name="EMIN">     10.00000000</i>
   <i name="EMAX">    -10.00000000</i>
   <i name="EFERMI">      0.00000000</i>
  </separator>
  <separator name="writing" >
   <i type="int" name="NWRITE">     2</i>
   <i type="logical" name="LWAVE"> T  </i>
   <i type="logical" name="LDOWNSAMPLE"> F  </i>
   <i type="logical" name="LCHARG"> T  </i>
   <i type="logical" name="LPARD"> F  </i>
   <i type="logical" name="LVTOT"> F  </i>
   <i type="logical" name="LVHAR"> F  </i>
   <i type="logical" name="LELF"> F  </i>
   <i type="logical" name="LOPTICS"> F  </i>
   <v name="STM">      0.00000000      0.00000000      0.00000000      0.00000000      0.00000000      0.00000000      0.00000000</v>
  </separator>
  <separator name="performance" >
   <i type="int" name="NPAR">     4</i>
   <i type="int" name="NSIM">     4</i>
   <i type="int" name="NBLK">    -1</i>
   <i type="logical" name="LPLANE"> T  </i>
   <i type="logical" name="LSCALAPACK"> T  </i>
   <i type="logical" name="LSCAAWARE"> F  </i>
   <i type="logical" name="LSCALU"> F  </i>
   <i type="logical" name="LASYNC"> F  </i>
   <i type="logical" name="LORBITALREAL"> F  </i>
  </separator>
  <separator name="miscellaneous" >
   <i type="int" name="IDIOT">     3</i>
   <i type="int" name="ISPECIAL">     0</i>
   <i type="logical" name="LMUSIC"> F  </i>
   <v name="POMASS">     28.08500000     12.01100000</v>
   <v name="DARWINR">      0.00000000      0.00000000</v>
   <v name="DARWINV">      1.00000000      1.00000000</v>
   <i type="logical" name="LCORR"> T  </i>
  </separator>
  <i type="logical" name="GGA_COMPAT"> T  </i>
  <i type="logical" name="LBERRY"> F  </i>
  <i type="int" name="ICORELEVEL">     0</i>
  <i type="logical" name="LDAU"> F  </i>
  <i type="int" name="I_CONSTRAINED_M">     0</i>
  <separator name="electronic exchange-correlation" >
   <i type="string" name="GGA">--</i>
   <i type="int" name="VOSKOWN">     0</i>
   <i type="logical" name="LHFCALC"> F  </i>
   <i type="string" name="PRECFOCK"></i>
   <i type="logical" name="LSYMGRAD"> F  </i>
   <i type="logical" name="LHFONE"> F  </i>
   <i type="logical" name="LRHFCALC"> F  </i>
   <i type="logical" name="LTHOMAS"> F  </i>
   <i type="logical" name="LMODELHF"> F  </i>
   <i name="ENCUT4O">     -1.00000000</i>
   <i type="int" name="EXXOEP">     0</i>
   <i type="int" name="FOURORBIT">     0</i>
   <i name="AEXX">      0.00000000</i>
   <i name="HFALPHA">      0.00000000</i>
   <i name="MCALPHA">      0.00000000</i>
   <i name="ALDAX">      1.00000000</i>
   <i name="AGGAX">      1.00000000</i>
   <i name="ALDAC">      1.00000000</i>
   <i name="AGGAC">      1.00000000</i>
   <i type="int" name="NKREDX">     1</i>
   <i type="int" name="NKREDY">     1</i>
   <i type="int" name="NKREDZ">     1</i>
   <i type="logical" name="SHIFTRED"> F  </i>
   <i type="logical" name="ODDONLY"> F  </i>
   <i type="logical" name="EVENONLY"> F  </i>
   <i type="int" name="LMAXFOCK">     0</i>
   <i type="int" name="NMAXFOCKAE">     0</i>
   <i type="logical" name="LFOCKAEDFT"> F  </i>
   <i name="HFSCREEN">      0.00000000</i>
   <i name="HFSCREENC">      0.00000000</i>
   <i type="int" name="NBANDSGWLOW">     0</i>
  </separator>
  <separator name="vdW DFT" >
   <i type="logical" name="LUSE_VDW"> F  </i>
   <i name="Zab_VDW">     -0.84910000</i>
   <i name="PARAM1">      0.12340000</i>
   <i name="PARAM2">      1.00000000</i>
   <i name="PARAM3">      0.00000000</i>
  </separator>
  <separator name="model GW" >
   <i type="int" name="MODEL_GW">     0</i>
   <i name="MODEL_EPS0">      6.30017634</i>
   <i name="MODEL_ALPHA">      1.00000000</i>
  </separator>
  <separator name="linear response parameters" >
   <i type="logical" name="LEPSILON"> F  </i>
   <i type="logical" name="LRPA"> F  </i>
   <i type="logical" name="LNABLA"> F  </i>
   <i type="logical" name="LVEL"> F  </i>
   <i type="int" name="KINTER">     0</i>
   <i name="CSHIFT">      0.10000000</i>
   <i name="OMEGAMAX">     -1.00000000</i>
   <i name="DEG_THRESHOLD">      0.00200000</i>
   <i name="RTIME">     -0.10000000</i>
   <i name="WPLASMAI">      0.00000000</i>
   <v name="DFIELD">      0.00000000      0.00000000      0.00000000</v>
   <v name="WPLASMA">      0.00000000      0.00000000      0.00000000      0.00000000      0.00000000      0.00000000      0.00000000      0.00000000      0.00000000</v>
  </separator>
  <separator name="orbital magnetization" >
   <i type="logical" name="NUCIND"> F  </i>
   <v name="MAGPOS">      0.00000000      0.00000000      0.00000000</v>
   <i type="logical" name="LNICSALL"> T  </i>
   <i type="logical" name="ORBITALMAG"> F  </i>
   <i type="logical" name="LMAGBLOCH"> F  </i>
   <i type="logical" name="LCHIMAG"> F  </i>
   <i type="logical" name="LGAUGE"> T  </i>
   <i type="int" name="MAGATOM">     0</i>
   <v name="MAGDIPOL">      0.00000000      0.00000000      0.00000000</v>
   <v name="AVECCONST">      0.00000000      0.00000000      0.00000000</v>
  </separator>
  <separator name="response functions" >
   <i type="logical" name="LADDER"> F  </i>
   <i type="logical" name="LRPAFORCE"> F  </i>
   <i type="logical" name="LFXC"> F  </i>
   <i type="logical" name="LHARTREE"> T  </i>
   <i type="int" name="IBSE">     0</i>
   <v type="int" name="KPOINT">    -1     0     0     0</v>
   <i type="logical" name="LTCTE"> F  </i>
   <i type="logical" name="LTETE"> F  </i>
   <i type="logical" name="LTRIPLET"> F  </i>
   <i type="logical" name="LFXCEPS"> F  </i>
   <i type="logical" name="LFXHEG"> F  </i>
   <i type="int" name="NATURALO">     2</i>
   <i type="logical" name="L2ORDER"> F  </i>
   <i type="logical" name="LMP2LT"> F  </i>
   <i type="logical" name="LUSEW"> F  </i>
   <i name="ENCUTGW">     -2.00000000</i>
   <i name="ENCUTGWSOFT">     -2.00000000</i>
   <i name="ENCUTLF">     -1.00000000</i>
   <i type="int" name="LMAXMP2">    -1</i>
   <i name="SCISSOR">      0.00000000</i>
   <i type="int" name="NOMEGA">     0</i>
   <i type="int" name="NOMEGAR">     0</i>
   <i type="int" name="NBANDSGW">    -1</i>
   <i type="int" name="NBANDSO">    -1</i>
   <i type="int" name="NBANDSV">    -1</i>
   <i type="int" name="NELM">    60</i>
   <i type="int" name="NELMHF">     1</i>
   <i type="int" name="DIM">     3</i>
   <i type="int" name="ANTIRES">     0</i>
   <i name="OMEGAMAX">    -30.00000000</i>
   <i name="OMEGAMIN">    -30.00000000</i>
   <i name="OMEGATL">   -200.00000000</i>
   <i type="int" name="OMEGAGRID">   140</i>
   <i name="CSHIFT">     -0.10000000</i>
   <i type="logical" name="SELFENERGY"> F  </i>
   <i type="logical" name="LSPECTRAL"> F  </i>
   <i type="logical" name="LSPECTRALGW"> F  </i>
   <i type="logical" name="LSINGLES"> F  </i>
   <i type="logical" name="LFERMIGW"> F  </i>
   <i type="logical" name="ODDONLYGW"> F  </i>
   <i type="logical" name="EVENONLYGW"> F  </i>
   <i type="int" name="NKREDLFX">     1</i>
   <i type="int" name="NKREDLFY">     1</i>
   <i type="int" name="NKREDLFZ">     1</i>
   <i type="int" name="MAXMEM">  2800</i>
   <i type="int" name="TELESCOPE">     0</i>
   <i type="int" name="TAUPAR">     1</i>
   <i type="int" name="OMEGAPAR">    -1</i>
   <i name="LAMBDA">      1.00000000</i>
  </separator>
  <separator name="External order field" >
   <i name="OFIELD_KAPPA">      0.00000000</i>
   <v name="OFIELD_K">      0.00000000      0.00000000      0.00000000</v>
   <i name="OFIELD_Q6_NEAR">      0.00000000</i>
   <i name="OFIELD_Q6_FAR">      0.00000000</i>
   <i name="OFIELD_A">      0.00000000</i>
  </separator>
 </parameters>
 <atominfo>
  <atoms>       8 </atoms>
  <types>       2 </types>
  <array name="atoms" >
   <dimension dim="1">ion</dimension>
   <field type="string">element</field>
   <field type="int">atomtype</field>
   <set>
    <rc><c>Si</c><c>   1</c></rc>
    <rc><c>Si</c><c>   1</c></rc>
    <rc><c>Si</c><c>   1</c></rc>
    <rc><c>Si</c><c>   1</c></rc>
    <rc><c>C </c><c>   2</c></rc>
    <rc><c>C </c><c>   2</c></rc>
    <rc><c>C </c><c>   2</c></rc>
    <rc><c>C </c><c>   2</c></rc>
   </set>
  </array>
  <array name="atomtypes" >
   <dimension dim="1">type</dimension>
   <field type="int">atomspertype</field>
   <field type="string">element</field>
   <field>mass</field>
   <field>valence</field>
   <field type="string">pseudopotential</field>
   <set>
    <rc><c>   4</c><c>Si</c><c>     28.08500000</c><c>      4.00000000</c><c>  PAW_PBE Si 05Jan2001                  </c></rc>
    <rc><c>   4</c><c>C </c><c>     12.01100000</c><c>      4.00000000</c><c>  PAW_PBE C 08Apr2002                   </c></rc>
   </set>
  </array>
 </atominfo>
 <structure name="initialpos" >
  <crystal>
   <varray name="basis" >
    <v>       4.37956000       0.00000000       0.00000000 </v>
    <v>       0.00000000       4.37956000       0.00000000 </v>
    <v>       0.00000000       0.00000000       4.37956000 </v>
   </varray>
   <i name="volume">     84.00235114 </i>
   <varray name="rec_basis" >
    <v>       0.22833344      -0.00000000       0.00000000 </v>
    <v>       0.00000000       0.22833344       0.00000000 </v>
    <v>      -0.00000000      -0.00000000       0.22833344 </v>
   </varray>
  </crystal>
  <varray name="positions" >
   <v>       0.25000000       0.25000000       0.75000000 </v>
   <v>       0.25000000       0.75000000       0.25000000 </v>
   <v>       0.75000000       0.25000000       0.25000000 </v>
   <v>       0.75000000       0.75000000       0.75000000 </v>
   <v>       0.00000000       0.00000000       0.00000000 </v>
   <v>       0.00000000       0.50000000       0.50000000 </v>
   <v>       0.50000000       0.00000000       0.50000000 </v>
   <v>       0.50000000       0.50000000       0.00000000 </v>
  </varray>
 </structure>
 <calculation>
  <scstep>
   <time name="dav">    1.55    1.55</time>
   <time name="total">    1.64    1.64</time>
   <energy>
    <i name="alphaZ">     44.11680206 </i>
    <i name="ewald">  -1133.53851522 </i>
    <i name="hartreedc">    -84.16848913 </i>
    <i name="XCdc">     18.11747152 </i>
    <i name="pawpsdc">    786.58338398 </i>
    <i name="pawaedc">   -718.48787991 </i>
    <i name="eentropy">     -0.01008842 </i>
    <i name="bandstr">    161.66474252 </i>
    <i name="atom">   1000.86097872 </i>
    <i name="e_fr_energy">     75.13840612 </i>
    <i name="e_wo_entrp">     75.14849454 </i>
    <i name="e_0_energy">     75.14345033 </i>
   </energy>
  </scstep>
  <scstep>
   <time name="dav">    1.87    1.87</time>
   <time name="total">    1.87    1.87</time>
   <energy>
    <i name="e_fr_energy">    -60.53672169 </i>
    <i name="e_wo_entrp">    -60.53672169 </i>
    <i name="e_0_energy">    -60.53672169 </i>
   </energy>
  </scstep>
  <scstep>
   <time name="dav">    1.79    1.79</time>
   <time name="total">    1.79    1.79</time>
   <energy>
    <i name="e_fr_energy">    -67.40484670 </i>
    <i name="e_wo_entrp">    -67.40484670 </i>
    <i name="e_0_energy">    -67.40484670 </i>
   </energy>
  </scstep>
  <scstep>
   <time name="dav">    1.85    1.85</time>
   <time name="total">    1.85    1.85</time>
   <energy>
    <i name="e_fr_energy">    -67.49799098 </i>
    <i name="e_wo_entrp">    -67.49799098 </i>
    <i name="e_0_energy">    -67.49799098 </i>
   </energy>
  </scstep>
  <scstep>
   <time name="dav">    1.81    1.81</time>
   <time name="total">    1.98    1.98</time>
   <energy>
    <i name="e_fr_energy">    -67.49982473 </i>
    <i name="e_wo_entrp">    -67.49982473 </i>
    <i name="e_0_energy">    -67.49982473 </i>
   </energy>
  </scstep>
  <scstep>
   <time name="dav">    1.80    1.80</time>
   <time name="total">    2.05    2.05</time>
   <energy>
    <i name="e_fr_energy">    -60.41863555 </i>
    <i name="e_wo_entrp">    -60.41863555 </i>
    <i name="e_0_energy">    -60.41863555 </i>
   </energy>
  </scstep>
  <scstep>
   <time name="dav">    1.92    1.92</time>
   <time name="total">    2.21    2.22</time>
   <energy>
    <i name="e_fr_energy">    -60.27719849 </i>
    <i name="e_wo_entrp">    -60.27719849 </i>
    <i name="e_0_energy">    -60.27719849 </i>
   </energy>
  </scstep>
  <scstep>
   <time name="dav">    1.66    1.66</time>
   <time name="total">    1.92    1.92</time>
   <energy>
    <i name="e_fr_energy">    -60.24626538 </i>
    <i name="e_wo_entrp">    -60.24626538 </i>
    <i name="e_0_energy">    -60.24626538 </i>
   </energy>
  </scstep>
  <scstep>
   <time name="dav">    1.70    1.71</time>
   <time name="total">    1.96    1.97</time>
   <energy>
    <i name="e_fr_energy">    -60.24345399 </i>
    <i name="e_wo_entrp">    -60.24345399 </i>
    <i name="e_0_energy">    -60.24345399 </i>
   </energy>
  </scstep>
  <scstep>
   <time name="dav">    1.82    1.82</time>
   <time name="total">    2.06    2.06</time>
   <energy>
    <i name="e_fr_energy">    -60.24391668 </i>
    <i name="e_wo_entrp">    -60.24391668 </i>
    <i name="e_0_energy">    -60.24391668 </i>
   </energy>
  </scstep>
  <scstep>
   <time name="dav">    1.64    1.64</time>
   <time name="total">    1.90    1.91</time>
   <energy>
    <i name="e_fr_energy">    -60.24396006 </i>
    <i name="e_wo_entrp">    -60.24396006 </i>
    <i name="e_0_energy">    -60.24396006 </i>
   </energy>
  </scstep>
  <scstep>
   <time name="dav">    1.75    1.75</time>
   <time name="total">    1.96    1.96</time>
   <energy>
    <i name="e_fr_energy">    -60.24396287 </i>
    <i name="e_wo_entrp">    -60.24396287 </i>
    <i name="e_0_energy">    -60.24396287 </i>
   </energy>
  </scstep>
  <scstep>
   <time name="dav">    1.38    1.38</time>
   <time name="total">    1.47    1.47</time>
   <energy>
    <i name="alphaZ">     44.11680206 </i>
    <i name="ewald">  -1133.53851522 </i>
    <i name="hartreedc">   -128.12131443 </i>
    <i name="XCdc">     22.27431906 </i>
    <i name="pawpsdc">   4053.72874835 </i>
    <i name="pawaedc">  -3986.36598247 </i>
    <i name="eentropy">     -0.00000000 </i>
    <i name="bandstr">     66.80100036 </i>
    <i name="atom">   1000.86097872 </i>
    <i name="e_fr_energy">    -60.24396357 </i>
    <i name="e_wo_entrp">    -60.24396357 </i>
    <i name="e_0_energy">    -60.24396357 </i>
   </energy>
  </scstep>
  <structure>
   <crystal>
    <varray name="basis" >
     <v>       4.37956000       0.00000000       0.00000000 </v>
     <v>       0.00000000       4.37956000       0.00000000 </v>
     <v>       0.00000000       0.00000000       4.37956000 </v>
    </varray>
    <i name="volume">     84.00235114 </i>
    <varray name="rec_basis" >
     <v>       0.22833344      -0.00000000       0.00000000 </v>
     <v>       0.00000000       0.22833344       0.00000000 </v>
     <v>      -0.00000000      -0.00000000       0.22833344 </v>
    </varray>
   </crystal>
   <varray name="positions" >
    <v>       0.25000000       0.25000000       0.75000000 </v>
    <v>       0.25000000       0.75000000       0.25000000 </v>
    <v>       0.75000000       0.25000000       0.25000000 </v>
    <v>       0.75000000       0.75000000       0.75000000 </v>
    <v>       0.00000000       0.00000000       0.00000000 </v>
    <v>       0.00000000       0.50000000       0.50000000 </v>
    <v>       0.50000000       0.00000000       0.50000000 </v>
    <v>       0.50000000       0.50000000       0.00000000 </v>
   </varray>
  </structure>
  <varray name="forces" >
   <v>       0.00000000       0.00000000       0.00000000 </v>
   <v>       0.00000000      -0.00000000       0.00000000 </v>
   <v>       0.00000000      -0.00000000       0.00000000 </v>
   <v>       0.00000000      -0.00000000       0.00000000 </v>
   <v>      -0.00000000      -0.00000000      -0.00000000 </v>
   <v>      -0.00000000       0.00000000      -0.00000000 </v>
   <v>      -0.00000000       0.00000000       0.00000000 </v>
   <v>      -0.00000000       0.00000000      -0.00000000 </v>
  </varray>
  <varray name="stress" >
   <v>      -0.24423874       0.00000000      -0.00000000 </v>
   <v>      -0.00000000      -0.24423874      -0.00000000 </v>
   <v>       0.00000000       0.00000000      -0.24423874 </v>
  </varray>
  <energy>
   <i name="e_fr_energy">    -60.24396357 </i>
   <i name="e_wo_entrp">    -60.24396357 </i>
   <i name="e_0_energy">     -0.00000000 </i>
  </energy>
  <time name="totalsc">   27.06   27.09</time>
  <eigenvalues>
   <array>
    <dimension dim="1">band</dimension>
    <dimension dim="2">kpoint</dimension>
    <dimension dim="3">spin</dimension>
    <field>eigene</field>
    <field>occ</field>
    <set>
     <set comment="spin 1">
      <set comment="kpoint 1">
       <r>   -7.3460    1.0000 </r>
       <r>   -2.3984    1.0000 </r>
       <r>   -2.3984    1.0000 </r>
       <r>   -2.3984    1.0000 </r>
       <r>    0.1933    1.0000 </r>
       <r>    0.1933    1.0000 </r>
       <r>    0.1933    1.0000 </r>
       <r>    4.7853    1.0000 </r>
       <r>    4.7853    1.0000 </r>
       <r>    4.7853    1.0000 </r>
       <r>    4.7853    1.0000 </r>
       <r>    4.7853    1.0000 </r>
       <r>    4.7853    1.0000 </r>
       <r>    7.9414    1.0000 </r>
       <r>    7.9414    1.0000 </r>
       <r>    7.9414    1.0000 </r>
       <r>    9.3122    0.0000 </r>
       <r>    9.3122    0.0000 </r>
       <r>    9.3122    0.0000 </r>
       <r>   12.2124    0.0000 </r>
       <r>   12.2124    0.0000 </r>
       <r>   12.2124    0.0000 </r>
       <r>   14.0021    0.0000 </r>
       <r>   15.1469    0.0000 </r>
      </set>
      <set comment="kpoint 2">
       <r>   -7.2453    1.0000 </r>
       <r>   -2.9503    1.0000 </r>
       <r>   -2.3681    1.0000 </r>
       <r>   -2.3681    1.0000 </r>
       <r>    0.2725    1.0000 </r>
       <r>    0.2725    1.0000 </r>
       <r>    0.8204    1.0000 </r>
       <r>    4.5021    1.0000 </r>
       <r>    4.5021    1.0000 </r>
       <r>    4.5235    1.0000 </r>
       <r>    4.5235    1.0000 </r>
       <r>    4.8676    1.0000 </r>
       <r>    4.8676    1.0000 </r>
       <r>    7.6211    1.0000 </r>
       <r>    7.7450    1.0000 </r>
       <r>    7.7450    1.0000 </r>
       <r>    9.4929    0.0000 </r>
       <r>    9.8093    0.0000 </r>
       <r>    9.8093    0.0000 </r>
       <r>   12.3353    0.0000 </r>
       <r>   12.6725    0.0000 </r>
       <r>   12.6725    0.0000 </r>
       <r>   14.2738    0.0000 </r>
       <r>   14.8932    0.0000 </r>
      </set>
      <set comment="kpoint 3">
       <r>   -6.9445    1.0000 </r>
       <r>   -3.9434    1.0000 </r>
       <r>   -2.2917    1.0000 </r>
       <r>   -2.2917    1.0000 </r>
       <r>    0.4934    1.0000 </r>
       <r>    0.4934    1.0000 </r>
       <r>    2.0273    1.0000 </r>
       <r>    3.9193    1.0000 </r>
       <r>    3.9193    1.0000 </r>
       <r>    3.9441    1.0000 </r>
       <r>    3.9441    1.0000 </r>
       <r>    5.1114    1.0000 </r>
       <r>    5.1114    1.0000 </r>
       <r>    6.8203    1.0000 </r>
       <r>    7.2508    1.0000 </r>
       <r>    7.2508    1.0000 </r>
       <r>   10.0291    0.0000 </r>
       <r>   10.9911    0.0000 </r>
       <r>   10.9911    0.0000 </r>
       <r>   12.7076    0.0000 </r>
       <r>   13.8782    0.0000 </r>
       <r>   13.8782    0.0000 </r>
       <r>   14.0359    0.0000 </r>
       <r>   15.0028    0.0000 </r>
      </set>
      <set comment="kpoint 4">
       <r>   -6.4487    1.0000 </r>
       <r>   -4.9196    1.0000 </r>
       <r>   -2.2102    1.0000 </r>
       <r>   -2.2102    1.0000 </r>
       <r>    0.7837    1.0000 </r>
       <r>    0.7837    1.0000 </r>
       <r>    3.3032    1.0000 </r>
       <r>    3.3032    1.0000 </r>
       <r>    3.3295    1.0000 </r>
       <r>    3.4852    1.0000 </r>
       <r>    3.4852    1.0000 </r>
       <r>    5.5052    1.0000 </r>
       <r>    5.5052    1.0000 </r>
       <r>    5.7725    1.0000 </r>
       <r>    6.6341    1.0000 </r>
       <r>    6.6341    1.0000 </r>
       <r>   10.8844    0.0000 </r>
       <r>   12.3640    0.0000 </r>
       <r>   12.3640    0.0000 </r>
       <r>   13.0596    0.0000 </r>
       <r>   13.3398    0.0000 </r>
       <r>   15.0424    0.0000 </r>
       <r>   15.5351    0.0000 </r>
       <r>   15.5351    0.0000 </r>
      </set>
      <set comment="kpoint 5">
       <r>   -5.7676    1.0000 </r>
       <r>   -5.7676    1.0000 </r>
       <r>   -2.1747    1.0000 </r>
       <r>   -2.1747    1.0000 </r>
       <r>    0.9429    1.0000 </r>
       <r>    0.9429    1.0000 </r>
       <r>    3.0215    1.0000 </r>
       <r>    3.0215    1.0000 </r>
       <r>    3.3129    1.0000 </r>
       <r>    3.3129    1.0000 </r>
       <r>    4.5940    1.0000 </r>
       <r>    4.5940    1.0000 </r>
       <r>    6.0268    1.0000 </r>
       <r>    6.0268    1.0000 </r>
       <r>    6.0268    1.0000 </r>
       <r>    6.0268    1.0000 </r>
       <r>   11.9525    0.0000 </r>
       <r>   11.9525    0.0000 </r>
       <r>   13.1288    0.0000 </r>
       <r>   13.1288    0.0000 </r>
       <r>   14.2154    0.0000 </r>
       <r>   14.2154    0.0000 </r>
       <r>   17.2424    0.0000 </r>
       <r>   17.2424    0.0000 </r>
      </set>
      <set comment="kpoint 6">
       <r>   -7.1449    1.0000 </r>
       <r>   -2.8977    1.0000 </r>
       <r>   -2.8977    1.0000 </r>
       <r>   -2.3493    1.0000 </r>
       <r>    0.3476    1.0000 </r>
       <r>    0.8561    1.0000 </r>
       <r>    0.8561    1.0000 </r>
       <r>    3.7661    1.0000 </r>
       <r>    4.5743    1.0000 </r>
       <r>    4.5743    1.0000 </r>
       <r>    4.6512    1.0000 </r>
       <r>    4.6512    1.0000 </r>
       <r>    4.9362    1.0000 </r>
       <r>    7.0315    1.0000 </r>
       <r>    7.5385    1.0000 </r>
       <r>    7.9178    1.0000 </r>
       <r>    9.9770    0.0000 </r>
       <r>    9.9770    0.0000 </r>
       <r>   10.0418    0.0000 </r>
       <r>   12.7898    0.0000 </r>
       <r>   12.7898    0.0000 </r>
       <r>   13.1840    0.0000 </r>
       <r>   14.4074    0.0000 </r>
       <r>   15.0839    0.0000 </r>
      </set>
      <set comment="kpoint 7">
       <r>   -6.8454    1.0000 </r>
       <r>   -3.8694    1.0000 </r>
       <r>   -2.7539    1.0000 </r>
       <r>   -2.3122    1.0000 </r>
       <r>    0.5530    1.0000 </r>
       <r>    0.9390    1.0000 </r>
       <r>    1.9709    1.0000 </r>
       <r>    3.0555    1.0000 </r>
       <r>    3.9224    1.0000 </r>
       <r>    4.2302    1.0000 </r>
       <r>    4.8175    1.0000 </r>
       <r>    4.8214    1.0000 </r>
       <r>    5.0035    1.0000 </r>
       <r>    6.1671    1.0000 </r>
       <r>    7.0223    1.0000 </r>
       <r>    7.6510    1.0000 </r>
       <r>   10.4783    0.0000 </r>
       <r>   10.8755    0.0000 </r>
       <r>   11.1356    0.0000 </r>
       <r>   13.1443    0.0000 </r>
       <r>   13.9829    0.0000 </r>
       <r>   14.3409    0.0000 </r>
       <r>   14.4273    0.0000 </r>
       <r>   14.9811    0.0000 </r>
      </set>
      <set comment="kpoint 8">
       <r>   -6.3520    1.0000 </r>
       <r>   -4.8337    1.0000 </r>
       <r>   -2.5624    1.0000 </r>
       <r>   -2.3091    1.0000 </r>
       <r>    0.8107    1.0000 </r>
       <r>    1.0037    1.0000 </r>
       <r>    2.6450    1.0000 </r>
       <r>    3.1300    1.0000 </r>
       <r>    3.2233    1.0000 </r>
       <r>    3.9735    1.0000 </r>
       <r>    4.4127    1.0000 </r>
       <r>    5.2143    1.0000 </r>
       <r>    5.2196    1.0000 </r>
       <r>    5.5674    1.0000 </r>
       <r>    6.3824    1.0000 </r>
       <r>    7.0377    1.0000 </r>
       <r>   11.2909    0.0000 </r>
       <r>   12.1369    0.0000 </r>
       <r>   12.4707    0.0000 </r>
       <r>   13.4103    0.0000 </r>
       <r>   13.7423    0.0000 </r>
       <r>   15.2333    0.0000 </r>
       <r>   15.6222    0.0000 </r>
       <r>   15.9235    0.0000 </r>
      </set>
      <set comment="kpoint 9">
       <r>   -5.6750    1.0000 </r>
       <r>   -5.6750    1.0000 </r>
       <r>   -2.3932    1.0000 </r>
       <r>   -2.3932    1.0000 </r>
       <r>    0.9788    1.0000 </r>
       <r>    0.9788    1.0000 </r>
       <r>    2.7186    1.0000 </r>
       <r>    2.7186    1.0000 </r>
       <r>    4.0552    1.0000 </r>
       <r>    4.0552    1.0000 </r>
       <r>    4.2097    1.0000 </r>
       <r>    4.2097    1.0000 </r>
       <r>    5.7555    1.0000 </r>
       <r>    5.7555    1.0000 </r>
       <r>    6.2862    1.0000 </r>
       <r>    6.2862    1.0000 </r>
       <r>   12.3260    0.0000 </r>
       <r>   12.3260    0.0000 </r>
       <r>   13.0704    0.0000 </r>
       <r>   13.0704    0.0000 </r>
       <r>   14.5588    0.0000 </r>
       <r>   14.5588    0.0000 </r>
       <r>   16.5474    0.0000 </r>
       <r>   16.5474    0.0000 </r>
      </set>
      <set comment="kpoint 10">
       <r>   -6.5500    1.0000 </r>
       <r>   -3.6559    1.0000 </r>
       <r>   -3.6559    1.0000 </r>
       <r>   -2.4028    1.0000 </r>
       <r>    0.7052    1.0000 </r>
       <r>    1.7815    1.0000 </r>
       <r>    1.7815    1.0000 </r>
       <r>    2.4733    1.0000 </r>
       <r>    4.1434    1.0000 </r>
       <r>    4.1434    1.0000 </r>
       <r>    4.8575    1.0000 </r>
       <r>    4.8575    1.0000 </r>
       <r>    5.2563    1.0000 </r>
       <r>    5.3700    1.0000 </r>
       <r>    6.4591    1.0000 </r>
       <r>    7.7821    1.0000 </r>
       <r>   11.0367    0.0000 </r>
       <r>   11.5719    0.0000 </r>
       <r>   11.5719    0.0000 </r>
       <r>   14.2965    0.0000 </r>
       <r>   14.2965    0.0000 </r>
       <r>   14.9151    0.0000 </r>
       <r>   15.0894    0.0000 </r>
       <r>   15.6231    0.0000 </r>
      </set>
      <set comment="kpoint 11">
       <r>   -6.0643    1.0000 </r>
       <r>   -4.5813    1.0000 </r>
       <r>   -3.3319    1.0000 </r>
       <r>   -2.6184    1.0000 </r>
       <r>    0.8965    1.0000 </r>
       <r>    1.4709    1.0000 </r>
       <r>    2.3771    1.0000 </r>
       <r>    2.6354    1.0000 </r>
       <r>    3.3877    1.0000 </r>
       <r>    4.3441    1.0000 </r>
       <r>    4.5509    1.0000 </r>
       <r>    4.9029    1.0000 </r>
       <r>    5.3983    1.0000 </r>
       <r>    5.7413    1.0000 </r>
       <r>    5.7727    1.0000 </r>
       <r>    7.4210    1.0000 </r>
       <r>   11.8761    0.0000 </r>
       <r>   12.2968    0.0000 </r>
       <r>   12.7908    0.0000 </r>
       <r>   14.2883    0.0000 </r>
       <r>   14.8142    0.0000 </r>
       <r>   15.4008    0.0000 </r>
       <r>   15.8772    0.0000 </r>
       <r>   16.4234    0.0000 </r>
      </set>
      <set comment="kpoint 12">
       <r>   -5.4004    1.0000 </r>
       <r>   -5.4004    1.0000 </r>
       <r>   -2.9557    1.0000 </r>
       <r>   -2.9557    1.0000 </r>
       <r>    1.1447    1.0000 </r>
       <r>    1.1447    1.0000 </r>
       <r>    2.7433    1.0000 </r>
       <r>    2.7433    1.0000 </r>
       <r>    3.4743    1.0000 </r>
       <r>    3.4743    1.0000 </r>
       <r>    5.1096    1.0000 </r>
       <r>    5.1096    1.0000 </r>
       <r>    5.1416    1.0000 </r>
       <r>    5.1416    1.0000 </r>
       <r>    6.6742    1.0000 </r>
       <r>    6.6742    1.0000 </r>
       <r>   12.9462    0.0000 </r>
       <r>   12.9462    0.0000 </r>
       <r>   13.2572    0.0000 </r>
       <r>   13.2572    0.0000 </r>
       <r>   15.4639    0.0000 </r>
       <r>   15.4639    0.0000 </r>
       <r>   16.2078    0.0000 </r>
       <r>   16.2108    0.0000 </r>
      </set>
      <set comment="kpoint 13">
       <r>   -5.5933    1.0000 </r>
       <r>   -4.1796    1.0000 </r>
       <r>   -4.1796    1.0000 </r>
       <r>   -3.1075    1.0000 </r>
       <r>    1.1064    1.0000 </r>
       <r>    2.0407    1.0000 </r>
       <r>    2.0407    1.0000 </r>
       <r>    2.5753    1.0000 </r>
       <r>    3.4866    1.0000 </r>
       <r>    3.7818    1.0000 </r>
       <r>    3.7818    1.0000 </r>
       <r>    5.0439    1.0000 </r>
       <r>    5.9759    1.0000 </r>
       <r>    5.9759    1.0000 </r>
       <r>    6.0225    1.0000 </r>
       <r>    7.4043    1.0000 </r>
       <r>   12.1324    0.0000 </r>
       <r>   13.3169    0.0000 </r>
       <r>   13.3169    0.0000 </r>
       <r>   14.6311    0.0000 </r>
       <r>   15.6515    0.0000 </r>
       <r>   15.8445    0.0000 </r>
       <r>   15.8445    0.0000 </r>
       <r>   16.2631    0.0000 </r>
      </set>
      <set comment="kpoint 14">
       <r>   -4.9548    1.0000 </r>
       <r>   -4.9548    1.0000 </r>
       <r>   -3.6651    1.0000 </r>
       <r>   -3.6651    1.0000 </r>
       <r>    1.4991    1.0000 </r>
       <r>    1.4991    1.0000 </r>
       <r>    2.7112    1.0000 </r>
       <r>    2.7112    1.0000 </r>
       <r>    3.0858    1.0000 </r>
       <r>    3.0858    1.0000 </r>
       <r>    4.3520    1.0000 </r>
       <r>    4.3520    1.0000 </r>
       <r>    6.1474    1.0000 </r>
       <r>    6.1474    1.0000 </r>
       <r>    6.8932    1.0000 </r>
       <r>    6.8932    1.0000 </r>
       <r>   12.9723    0.0000 </r>
       <r>   12.9723    0.0000 </r>
       <r>   13.9955    0.0000 </r>
       <r>   13.9955    0.0000 </r>
       <r>   15.5813    0.0000 </r>
       <r>   15.5813    0.0000 </r>
       <r>   16.3049    0.0000 </r>
       <r>   16.3049    0.0000 </r>
      </set>
      <set comment="kpoint 15">
       <r>   -4.3612    1.0000 </r>
       <r>   -4.3612    1.0000 </r>
       <r>   -4.3612    1.0000 </r>
       <r>   -4.3612    1.0000 </r>
       <r>    2.0335    1.0000 </r>
       <r>    2.0335    1.0000 </r>
       <r>    2.0335    1.0000 </r>
       <r>    2.0335    1.0000 </r>
       <r>    3.6467    1.0000 </r>
       <r>    3.6467    1.0000 </r>
       <r>    3.6467    1.0000 </r>
       <r>    3.6467    1.0000 </r>
       <r>    6.7650    1.0000 </r>
       <r>    6.7650    1.0000 </r>
       <r>    6.7650    1.0000 </r>
       <r>    6.7650    1.0000 </r>
       <r>   13.4187    0.0000 </r>
       <r>   13.4187    0.0000 </r>
       <r>   13.4187    0.0000 </r>
       <r>   13.4187    0.0000 </r>
       <r>   16.5815    0.0000 </r>
       <r>   16.5815    0.0000 </r>
       <r>   16.5815    0.0000 </r>
       <r>   16.5815    0.0000 </r>
      </set>
      <set comment="kpoint 16">
       <r>   -7.0450    1.0000 </r>
       <r>   -2.8530    1.0000 </r>
       <r>   -2.8530    1.0000 </r>
       <r>   -2.8530    1.0000 </r>
       <r>    0.8730    1.0000 </r>
       <r>    0.8730    1.0000 </r>
       <r>    0.8730    1.0000 </r>
       <r>    3.9216    1.0000 </r>
       <r>    3.9216    1.0000 </r>
       <r>    3.9216    1.0000 </r>
       <r>    5.0163    1.0000 </r>
       <r>    5.0163    1.0000 </r>
       <r>    5.0163    1.0000 </r>
       <r>    6.4619    1.0000 </r>
       <r>    7.7411    1.0000 </r>
       <r>    7.7411    1.0000 </r>
       <r>   10.2068    0.0000 </r>
       <r>   10.2068    0.0000 </r>
       <r>   10.2068    0.0000 </r>
       <r>   13.2952    0.0000 </r>
       <r>   13.2952    0.0000 </r>
       <r>   13.2952    0.0000 </r>
       <r>   14.2714    0.0000 </r>
       <r>   15.4959    0.0000 </r>
      </set>
      <set comment="kpoint 17">
       <r>   -6.7469    1.0000 </r>
       <r>   -3.7992    1.0000 </r>
       <r>   -2.7371    1.0000 </r>
       <r>   -2.7371    1.0000 </r>
       <r>    0.8888    1.0000 </r>
       <r>    0.8888    1.0000 </r>
       <r>    1.8567    1.0000 </r>
       <r>    3.3123    1.0000 </r>
       <r>    3.3123    1.0000 </r>
       <r>    4.3953    1.0000 </r>
       <r>    4.9209    1.0000 </r>
       <r>    4.9209    1.0000 </r>
       <r>    5.2530    1.0000 </r>
       <r>    5.5684    1.0000 </r>
       <r>    7.2888    1.0000 </r>
       <r>    7.5759    1.0000 </r>
       <r>   10.7006    0.0000 </r>
       <r>   11.0256    0.0000 </r>
       <r>   11.0256    0.0000 </r>
       <r>   13.6301    0.0000 </r>
       <r>   14.2359    0.0000 </r>
       <r>   14.5220    0.0000 </r>
       <r>   14.5220    0.0000 </r>
       <r>   15.1902    0.0000 </r>
      </set>
      <set comment="kpoint 18">
       <r>   -6.2561    1.0000 </r>
       <r>   -4.7499    1.0000 </r>
       <r>   -2.6075    1.0000 </r>
       <r>   -2.6075    1.0000 </r>
       <r>    0.8477    1.0000 </r>
       <r>    0.8477    1.0000 </r>
       <r>    2.8323    1.0000 </r>
       <r>    3.0042    1.0000 </r>
       <r>    3.0042    1.0000 </r>
       <r>    4.5849    1.0000 </r>
       <r>    4.5849    1.0000 </r>
       <r>    4.6443    1.0000 </r>
       <r>    5.1611    1.0000 </r>
       <r>    5.6340    1.0000 </r>
       <r>    6.7123    1.0000 </r>
       <r>    6.9532    1.0000 </r>
       <r>   11.5038    0.0000 </r>
       <r>   12.2568    0.0000 </r>
       <r>   12.2568    0.0000 </r>
       <r>   13.5724    0.0000 </r>
       <r>   14.1903    0.0000 </r>
       <r>   15.4139    0.0000 </r>
       <r>   15.9381    0.0000 </r>
       <r>   15.9381    0.0000 </r>
      </set>
      <set comment="kpoint 19">
       <r>   -5.5835    1.0000 </r>
       <r>   -5.5835    1.0000 </r>
       <r>   -2.5488    1.0000 </r>
       <r>   -2.5488    1.0000 </r>
       <r>    0.8071    1.0000 </r>
       <r>    0.8071    1.0000 </r>
       <r>    2.9458    1.0000 </r>
       <r>    2.9458    1.0000 </r>
       <r>    3.7412    1.0000 </r>
       <r>    3.7412    1.0000 </r>
       <r>    4.4064    1.0000 </r>
       <r>    4.4064    1.0000 </r>
       <r>    6.0804    1.0000 </r>
       <r>    6.0804    1.0000 </r>
       <r>    6.1351    1.0000 </r>
       <r>    6.1351    1.0000 </r>
       <r>   12.5291    0.0000 </r>
       <r>   12.5291    0.0000 </r>
       <r>   13.0509    0.0000 </r>
       <r>   13.0509    0.0000 </r>
       <r>   14.9393    0.0000 </r>
       <r>   14.9393    0.0000 </r>
       <r>   16.0852    0.0000 </r>
       <r>   16.0852    0.0000 </r>
      </set>
      <set comment="kpoint 20">
       <r>   -6.4532    1.0000 </r>
       <r>   -3.5996    1.0000 </r>
       <r>   -3.5996    1.0000 </r>
       <r>   -2.7193    1.0000 </r>
       <r>    0.7290    1.0000 </r>
       <r>    1.5137    1.0000 </r>
       <r>    1.5137    1.0000 </r>
       <r>    2.9527    1.0000 </r>
       <r>    4.0116    1.0000 </r>
       <r>    4.0116    1.0000 </r>
       <r>    4.6396    1.0000 </r>
       <r>    5.2329    1.0000 </r>
       <r>    5.2329    1.0000 </r>
       <r>    5.4422    1.0000 </r>
       <r>    6.9282    1.0000 </r>
       <r>    7.6622    1.0000 </r>
       <r>   11.1897    0.0000 </r>
       <r>   11.4776    0.0000 </r>
       <r>   11.4776    0.0000 </r>
       <r>   14.2191    0.0000 </r>
       <r>   14.8014    0.0000 </r>
       <r>   14.8014    0.0000 </r>
       <r>   15.6814    0.0000 </r>
       <r>   15.7216    0.0000 </r>
      </set>
      <set comment="kpoint 21">
       <r>   -5.9708    1.0000 </r>
       <r>   -4.5045    1.0000 </r>
       <r>   -3.3081    1.0000 </r>
       <r>   -2.7867    1.0000 </r>
       <r>    0.5898    1.0000 </r>
       <r>    1.0541    1.0000 </r>
       <r>    2.1759    1.0000 </r>
       <r>    3.0209    1.0000 </r>
       <r>    3.7076    1.0000 </r>
       <r>    3.7286    1.0000 </r>
       <r>    4.8759    1.0000 </r>
       <r>    5.1487    1.0000 </r>
       <r>    5.4827    1.0000 </r>
       <r>    5.8069    1.0000 </r>
       <r>    6.3146    1.0000 </r>
       <r>    7.3261    1.0000 </r>
       <r>   12.0133    0.0000 </r>
       <r>   12.2218    0.0000 </r>
       <r>   12.6177    0.0000 </r>
       <r>   14.0443    0.0000 </r>
       <r>   15.2384    0.0000 </r>
       <r>   15.4061    0.0000 </r>
       <r>   15.8328    0.0000 </r>
       <r>   16.4689    0.0000 </r>
      </set>
      <set comment="kpoint 22">
       <r>   -5.3128    1.0000 </r>
       <r>   -5.3128    1.0000 </r>
       <r>   -3.0011    1.0000 </r>
       <r>   -3.0011    1.0000 </r>
       <r>    0.6922    1.0000 </r>
       <r>    0.6922    1.0000 </r>
       <r>    2.9037    1.0000 </r>
       <r>    2.9037    1.0000 </r>
       <r>    3.3406    1.0000 </r>
       <r>    3.3406    1.0000 </r>
       <r>    5.2752    1.0000 </r>
       <r>    5.2752    1.0000 </r>
       <r>    5.6356    1.0000 </r>
       <r>    5.6356    1.0000 </r>
       <r>    6.6067    1.0000 </r>
       <r>    6.6067    1.0000 </r>
       <r>   13.0059    0.0000 </r>
       <r>   13.0059    0.0000 </r>
       <r>   13.1797    0.0000 </r>
       <r>   13.1797    0.0000 </r>
       <r>   15.6186    0.0000 </r>
       <r>   15.6186    0.0000 </r>
       <r>   15.7035    0.0000 </r>
       <r>   15.7035    0.0000 </r>
      </set>
      <set comment="kpoint 23">
       <r>   -5.5047    1.0000 </r>
       <r>   -4.1185    1.0000 </r>
       <r>   -4.1185    1.0000 </r>
       <r>   -3.1523    1.0000 </r>
       <r>    0.5758    1.0000 </r>
       <r>    1.4723    1.0000 </r>
       <r>    1.4723    1.0000 </r>
       <r>    2.8449    1.0000 </r>
       <r>    3.3286    1.0000 </r>
       <r>    4.3724    1.0000 </r>
       <r>    4.3724    1.0000 </r>
       <r>    5.6803    1.0000 </r>
       <r>    6.0352    1.0000 </r>
       <r>    6.0352    1.0000 </r>
       <r>    6.0769    1.0000 </r>
       <r>    7.3600    1.0000 </r>
       <r>   12.2710    0.0000 </r>
       <r>   13.2114    0.0000 </r>
       <r>   13.2114    0.0000 </r>
       <r>   14.3632    0.0000 </r>
       <r>   15.4298    0.0000 </r>
       <r>   15.4298    0.0000 </r>
       <r>   15.4355    0.0000 </r>
       <r>   15.8537    0.0000 </r>
      </set>
      <set comment="kpoint 24">
       <r>   -4.8755    1.0000 </r>
       <r>   -4.8755    1.0000 </r>
       <r>   -3.6382    1.0000 </r>
       <r>   -3.6382    1.0000 </r>
       <r>    0.8982    1.0000 </r>
       <r>    0.8982    1.0000 </r>
       <r>    2.0790    1.0000 </r>
       <r>    2.0790    1.0000 </r>
       <r>    3.8121    1.0000 </r>
       <r>    3.8121    1.0000 </r>
       <r>    5.0159    1.0000 </r>
       <r>    5.0159    1.0000 </r>
       <r>    6.1998    1.0000 </r>
       <r>    6.1998    1.0000 </r>
       <r>    6.8838    1.0000 </r>
       <r>    6.8838    1.0000 </r>
       <r>   13.0788    0.0000 </r>
       <r>   13.0788    0.0000 </r>
       <r>   13.9410    0.0000 </r>
       <r>   13.9410    0.0000 </r>
       <r>   15.1799    0.0000 </r>
       <r>   15.1799    0.0000 </r>
       <r>   15.7419    0.0000 </r>
       <r>   15.7419    0.0000 </r>
      </set>
      <set comment="kpoint 25">
       <r>   -4.2989    1.0000 </r>
       <r>   -4.2989    1.0000 </r>
       <r>   -4.2989    1.0000 </r>
       <r>   -4.2989    1.0000 </r>
       <r>    1.3860    1.0000 </r>
       <r>    1.3860    1.0000 </r>
       <r>    1.3860    1.0000 </r>
       <r>    1.3860    1.0000 </r>
       <r>    4.3806    1.0000 </r>
       <r>    4.3806    1.0000 </r>
       <r>    4.3806    1.0000 </r>
       <r>    4.3806    1.0000 </r>
       <r>    6.7831    1.0000 </r>
       <r>    6.7831    1.0000 </r>
       <r>    6.7831    1.0000 </r>
       <r>    6.7831    1.0000 </r>
       <r>   13.5114    0.0000 </r>
       <r>   13.5114    0.0000 </r>
       <r>   13.5114    0.0000 </r>
       <r>   13.5114    0.0000 </r>
       <r>   15.8838    0.0000 </r>
       <r>   15.8838    0.0000 </r>
       <r>   15.8838    0.0000 </r>
       <r>   15.8838    0.0000 </r>
      </set>
      <set comment="kpoint 26">
       <r>   -6.1651    1.0000 </r>
       <r>   -3.4505    1.0000 </r>
       <r>   -3.4505    1.0000 </r>
       <r>   -3.4505    1.0000 </r>
       <r>    0.9288    1.0000 </r>
       <r>    0.9288    1.0000 </r>
       <r>    0.9288    1.0000 </r>
       <r>    3.6761    1.0000 </r>
       <r>    4.0199    1.0000 </r>
       <r>    4.0199    1.0000 </r>
       <r>    4.0199    1.0000 </r>
       <r>    5.6540    1.0000 </r>
       <r>    5.6540    1.0000 </r>
       <r>    5.6540    1.0000 </r>
       <r>    7.3377    1.0000 </r>
       <r>    7.3377    1.0000 </r>
       <r>   11.6476    0.0000 </r>
       <r>   11.6476    0.0000 </r>
       <r>   11.6476    0.0000 </r>
       <r>   13.8003    0.0000 </r>
       <r>   15.7578    0.0000 </r>
       <r>   15.8190    0.0000 </r>
       <r>   15.8208    0.0000 </r>
       <r>   15.8208    0.0000 </r>
      </set>
      <set comment="kpoint 27">
       <r>   -5.6936    1.0000 </r>
       <r>   -4.2839    1.0000 </r>
       <r>   -3.2762    1.0000 </r>
       <r>   -3.2762    1.0000 </r>
       <r>    0.3961    1.0000 </r>
       <r>    0.3961    1.0000 </r>
       <r>    1.3527    1.0000 </r>
       <r>    2.7600    1.0000 </r>
       <r>    4.1668    1.0000 </r>
       <r>    4.1668    1.0000 </r>
       <r>    5.2416    1.0000 </r>
       <r>    5.7428    1.0000 </r>
       <r>    5.7428    1.0000 </r>
       <r>    5.9895    1.0000 </r>
       <r>    6.8926    1.0000 </r>
       <r>    7.1366    1.0000 </r>
       <r>   12.3877    0.0000 </r>
       <r>   12.4227    0.0000 </r>
       <r>   12.4227    0.0000 </r>
       <r>   13.7581    0.0000 </r>
       <r>   15.3141    0.0000 </r>
       <r>   15.8430    0.0000 </r>
       <r>   15.9267    0.0000 </r>
       <r>   15.9268    0.0000 </r>
      </set>
      <set comment="kpoint 28">
       <r>   -5.0555    1.0000 </r>
       <r>   -5.0555    1.0000 </r>
       <r>   -3.1936    1.0000 </r>
       <r>   -3.1936    1.0000 </r>
       <r>    0.1815    1.0000 </r>
       <r>    0.1815    1.0000 </r>
       <r>    1.9728    1.0000 </r>
       <r>    1.9728    1.0000 </r>
       <r>    4.2578    1.0000 </r>
       <r>    4.2578    1.0000 </r>
       <r>    5.7048    1.0000 </r>
       <r>    5.7048    1.0000 </r>
       <r>    6.3578    1.0000 </r>
       <r>    6.3578    1.0000 </r>
       <r>    6.4189    1.0000 </r>
       <r>    6.4189    1.0000 </r>
       <r>   13.1584    0.0000 </r>
       <r>   13.1584    0.0000 </r>
       <r>   13.2716    0.0000 </r>
       <r>   13.2716    0.0000 </r>
       <r>   15.1140    0.0000 </r>
       <r>   15.1140    0.0000 </r>
       <r>   15.4271    0.0000 </r>
       <r>   15.4271    0.0000 </r>
      </set>
      <set comment="kpoint 29">
       <r>   -5.2441    1.0000 </r>
       <r>   -3.9553    1.0000 </r>
       <r>   -3.9553    1.0000 </r>
       <r>   -3.3465    1.0000 </r>
       <r>    0.0171    1.0000 </r>
       <r>    0.6003    1.0000 </r>
       <r>    0.6003    1.0000 </r>
       <r>    1.8573    1.0000 </r>
       <r>    4.5832    1.0000 </r>
       <r>    5.2497    1.0000 </r>
       <r>    5.2497    1.0000 </r>
       <r>    6.2111    1.0000 </r>
       <r>    6.2111    1.0000 </r>
       <r>    6.2327    1.0000 </r>
       <r>    6.5663    1.0000 </r>
       <r>    7.2266    1.0000 </r>
       <r>   12.6737    0.0000 </r>
       <r>   13.0721    0.0000 </r>
       <r>   13.0721    0.0000 </r>
       <r>   13.7389    0.0000 </r>
       <r>   15.2430    0.0000 </r>
       <r>   15.2430    0.0000 </r>
       <r>   15.4464    0.0000 </r>
       <r>   15.5419    0.0000 </r>
      </set>
      <set comment="kpoint 30">
       <r>   -4.6473    1.0000 </r>
       <r>   -4.6473    1.0000 </r>
       <r>   -3.5990    1.0000 </r>
       <r>   -3.5990    1.0000 </r>
       <r>    0.1036    1.0000 </r>
       <r>    0.1036    1.0000 </r>
       <r>    1.1159    1.0000 </r>
       <r>    1.1159    1.0000 </r>
       <r>    4.9745    1.0000 </r>
       <r>    4.9745    1.0000 </r>
       <r>    6.0178    1.0000 </r>
       <r>    6.0178    1.0000 </r>
       <r>    6.3521    1.0000 </r>
       <r>    6.3521    1.0000 </r>
       <r>    6.8414    1.0000 </r>
       <r>    6.8414    1.0000 </r>
       <r>   13.3640    0.0000 </r>
       <r>   13.3640    0.0000 </r>
       <r>   13.7045    0.0000 </r>
       <r>   13.7045    0.0000 </r>
       <r>   14.9088    0.0000 </r>
       <r>   14.9088    0.0000 </r>
       <r>   14.9551    0.0000 </r>
       <r>   14.9551    0.0000 </r>
      </set>
      <set comment="kpoint 31">
       <r>   -4.1317    1.0000 </r>
       <r>   -4.1317    1.0000 </r>
       <r>   -4.1317    1.0000 </r>
       <r>   -4.1317    1.0000 </r>
       <r>    0.4570    1.0000 </r>
       <r>    0.4570    1.0000 </r>
       <r>    0.4570    1.0000 </r>
       <r>    0.4570    1.0000 </r>
       <r>    5.5367    1.0000 </r>
       <r>    5.5367    1.0000 </r>
       <r>    5.5367    1.0000 </r>
       <r>    5.5367    1.0000 </r>
       <r>    6.8276    1.0000 </r>
       <r>    6.8276    1.0000 </r>
       <r>    6.8276    1.0000 </r>
       <r>    6.8276    1.0000 </r>
       <r>   13.6779    0.0000 </r>
       <r>   13.6779    0.0000 </r>
       <r>   13.6779    0.0000 </r>
       <r>   13.6779    0.0000 </r>
       <r>   15.0433    0.0000 </r>
       <r>   15.0433    0.0000 </r>
       <r>   15.0433    0.0000 </r>
       <r>   15.0433    0.0000 </r>
      </set>
      <set comment="kpoint 32">
       <r>   -4.8301    1.0000 </r>
       <r>   -3.7609    1.0000 </r>
       <r>   -3.7609    1.0000 </r>
       <r>   -3.7609    1.0000 </r>
       <r>   -0.0714    1.0000 </r>
       <r>   -0.0714    1.0000 </r>
       <r>   -0.0714    1.0000 </r>
       <r>    0.9683    1.0000 </r>
       <r>    5.8052    1.0000 </r>
       <r>    5.8052    1.0000 </r>
       <r>    5.8052    1.0000 </r>
       <r>    6.4673    1.0000 </r>
       <r>    6.4673    1.0000 </r>
       <r>    6.4673    1.0000 </r>
       <r>    7.0117    1.0000 </r>
       <r>    7.0117    1.0000 </r>
       <r>   13.2414    0.0000 </r>
       <r>   13.2414    0.0000 </r>
       <r>   13.2414    0.0000 </r>
       <r>   13.3854    0.0000 </r>
       <r>   15.0580    0.0000 </r>
       <r>   15.0580    0.0000 </r>
       <r>   15.0580    0.0000 </r>
       <r>   15.3542    0.0000 </r>
      </set>
      <set comment="kpoint 33">
       <r>   -4.3053    1.0000 </r>
       <r>   -4.3053    1.0000 </r>
       <r>   -3.6671    1.0000 </r>
       <r>   -3.6671    1.0000 </r>
       <r>   -0.3300    1.0000 </r>
       <r>   -0.3300    1.0000 </r>
       <r>    0.2904    1.0000 </r>
       <r>    0.2904    1.0000 </r>
       <r>    5.9672    1.0000 </r>
       <r>    5.9672    1.0000 </r>
       <r>    6.6005    1.0000 </r>
       <r>    6.6005    1.0000 </r>
       <r>    6.7181    1.0000 </r>
       <r>    6.7181    1.0000 </r>
       <r>    6.7431    1.0000 </r>
       <r>    6.7431    1.0000 </r>
       <r>   13.4713    0.0000 </r>
       <r>   13.4713    0.0000 </r>
       <r>   13.5864    0.0000 </r>
       <r>   13.5864    0.0000 </r>
       <r>   14.6117    0.0000 </r>
       <r>   14.6117    0.0000 </r>
       <r>   14.9028    0.0000 </r>
       <r>   14.9028    0.0000 </r>
      </set>
      <set comment="kpoint 34">
       <r>   -3.9316    1.0000 </r>
       <r>   -3.9316    1.0000 </r>
       <r>   -3.9316    1.0000 </r>
       <r>   -3.9316    1.0000 </r>
       <r>   -0.2434    1.0000 </r>
       <r>   -0.2434    1.0000 </r>
       <r>   -0.2434    1.0000 </r>
       <r>   -0.2434    1.0000 </r>
       <r>    6.5004    1.0000 </r>
       <r>    6.5004    1.0000 </r>
       <r>    6.5004    1.0000 </r>
       <r>    6.5004    1.0000 </r>
       <r>    6.8736    1.0000 </r>
       <r>    6.8736    1.0000 </r>
       <r>    6.8736    1.0000 </r>
       <r>    6.8736    1.0000 </r>
       <r>   13.4739    0.0000 </r>
       <r>   13.4739    0.0000 </r>
       <r>   13.4739    0.0000 </r>
       <r>   13.4739    0.0000 </r>
       <r>   14.9187    0.0000 </r>
       <r>   14.9187    0.0000 </r>
       <r>   14.9187    0.0000 </r>
       <r>   14.9187    0.0000 </r>
      </set>
      <set comment="kpoint 35">
       <r>   -3.8345    1.0000 </r>
       <r>   -3.8345    1.0000 </r>
       <r>   -3.8345    1.0000 </r>
       <r>   -3.8345    1.0000 </r>
       <r>   -0.5118    1.0000 </r>
       <r>   -0.5118    1.0000 </r>
       <r>   -0.5118    1.0000 </r>
       <r>   -0.5118    1.0000 </r>
       <r>    6.8931    1.0000 </r>
       <r>    6.8931    1.0000 </r>
       <r>    6.8931    1.0000 </r>
       <r>    6.8931    1.0000 </r>
       <r>    6.8931    1.0000 </r>
       <r>    6.8931    1.0000 </r>
       <r>    6.8931    1.0000 </r>
       <r>    6.8931    1.0000 </r>
       <r>   13.2420    0.0000 </r>
       <r>   13.2420    0.0000 </r>
       <r>   13.2420    0.0000 </r>
       <r>   13.2420    0.0000 </r>
       <r>   15.1088    0.0000 </r>
       <r>   15.1088    0.0000 </r>
       <r>   15.1088    0.0000 </r>
       <r>   15.1088    0.0000 </r>
      </set>
     </set>
    </set>
   </array>
  </eigenvalues>
  <separator name="orbital magnetization" >
   <v name="MAGDIPOLOUT">      0.00000000      0.00000000      0.00000000</v>
  </separator>
  <dos>
   <i name="efermi">      8.37562334 </i>
   <total>
    <array>
     <dimension dim="1">gridpoints</dimension>
     <dimension dim="2">spin</dimension>
     <field>energy</field>
     <field>total</field>
     <field>integrated</field>
     <set>
      <set comment="spin 1">
       <r>    -8.5754     0.0000     0.0000 </r>
       <r>    -8.4852     0.0000     0.0000 </r>
       <r>    -8.3951     0.0000     0.0000 </r>
       <r>    -8.3049     0.0000     0.0000 </r>
       <r>    -8.2148     0.0000     0.0000 </r>
       <r>    -8.1246     0.0000     0.0000 </r>
       <r>    -8.0344     0.0000     0.0000 </r>
       <r>    -7.9443     0.0000     0.0000 </r>
       <r>    -7.8541     0.0000     0.0000 </r>
       <r>    -7.7640     0.0000     0.0000 </r>
       <r>    -7.6738     0.0000     0.0000 </r>
       <r>    -7.5837     0.0000     0.0000 </r>
       <r>    -7.4935     0.0008     0.0001 </r>
       <r>    -7.4033     0.0115     0.0011 </r>
       <r>    -7.3132     0.0653     0.0070 </r>
       <r>    -7.2230     0.1980     0.0249 </r>
       <r>    -7.1329     0.3462     0.0561 </r>
       <r>    -7.0427     0.3641     0.0889 </r>
       <r>    -6.9526     0.3365     0.1192 </r>
       <r>    -6.8624     0.5480     0.1686 </r>
       <r>    -6.7722     0.8154     0.2421 </r>
       <r>    -6.6821     0.6426     0.3001 </r>
       <r>    -6.5919     0.3417     0.3309 </r>
       <r>    -6.5018     0.5629     0.3816 </r>
       <r>    -6.4116     0.9377     0.4662 </r>
       <r>    -6.3215     0.9994     0.5563 </r>
       <r>    -6.2313     0.8845     0.6360 </r>
       <r>    -6.1411     0.6786     0.6972 </r>
       <r>    -6.0510     0.8665     0.7753 </r>
       <r>    -5.9608     1.2779     0.8905 </r>
       <r>    -5.8707     0.8594     0.9680 </r>
       <r>    -5.7805     0.4310     1.0069 </r>
       <r>    -5.6904     1.0173     1.0986 </r>
       <r>    -5.6002     1.5362     1.2371 </r>
       <r>    -5.5100     1.3773     1.3613 </r>
       <r>    -5.4199     1.1297     1.4631 </r>
       <r>    -5.3297     1.4140     1.5906 </r>
       <r>    -5.2396     1.5185     1.7275 </r>
       <r>    -5.1494     0.7959     1.7993 </r>
       <r>    -5.0593     0.5989     1.8533 </r>
       <r>    -4.9691     1.0734     1.9501 </r>
       <r>    -4.8789     1.8498     2.1168 </r>
       <r>    -4.7888     2.0357     2.3004 </r>
       <r>    -4.6986     1.5513     2.4402 </r>
       <r>    -4.6085     1.7139     2.5947 </r>
       <r>    -4.5183     1.7823     2.7554 </r>
       <r>    -4.4281     1.3362     2.8759 </r>
       <r>    -4.3380     1.3117     2.9941 </r>
       <r>    -4.2478     1.9374     3.1688 </r>
       <r>    -4.1577     2.0533     3.3539 </r>
       <r>    -4.0675     2.0352     3.5374 </r>
       <r>    -3.9774     1.7290     3.6933 </r>
       <r>    -3.8872     2.1586     3.8879 </r>
       <r>    -3.7970     1.9909     4.0674 </r>
       <r>    -3.7069     2.4676     4.2899 </r>
       <r>    -3.6167     4.1663     4.6655 </r>
       <r>    -3.5266     3.4211     4.9740 </r>
       <r>    -3.4364     1.5053     5.1097 </r>
       <r>    -3.3463     2.0636     5.2957 </r>
       <r>    -3.2561     3.1248     5.5774 </r>
       <r>    -3.1659     2.3258     5.7871 </r>
       <r>    -3.0758     1.5330     5.9253 </r>
       <r>    -2.9856     1.7705     6.0850 </r>
       <r>    -2.8955     2.2141     6.2846 </r>
       <r>    -2.8053     2.6337     6.5220 </r>
       <r>    -2.7152     3.3915     6.8278 </r>
       <r>    -2.6250     3.0833     7.1058 </r>
       <r>    -2.5348     2.6107     7.3411 </r>
       <r>    -2.4447     1.6532     7.4902 </r>
       <r>    -2.3545     1.9729     7.6681 </r>
       <r>    -2.2644     2.1797     7.8646 </r>
       <r>    -2.1742     1.1266     7.9662 </r>
       <r>    -2.0841     0.3278     7.9957 </r>
       <r>    -1.9939     0.0457     7.9998 </r>
       <r>    -1.9037     0.0019     8.0000 </r>
       <r>    -1.8136     0.0000     8.0000 </r>
       <r>    -1.7234     0.0000     8.0000 </r>
       <r>    -1.6333     0.0000     8.0000 </r>
       <r>    -1.5431     0.0000     8.0000 </r>
       <r>    -1.4530     0.0000     8.0000 </r>
       <r>    -1.3628     0.0000     8.0000 </r>
       <r>    -1.2726     0.0000     8.0000 </r>
       <r>    -1.1825     0.0000     8.0000 </r>
       <r>    -1.0923     0.0000     8.0000 </r>
       <r>    -1.0022     0.0000     8.0000 </r>
       <r>    -0.9120     0.0000     8.0000 </r>
       <r>    -0.8218     0.0000     8.0000 </r>
       <r>    -0.7317     0.0002     8.0000 </r>
       <r>    -0.6415     0.0056     8.0005 </r>
       <r>    -0.5514     0.0450     8.0046 </r>
       <r>    -0.4612     0.1155     8.0150 </r>
       <r>    -0.3711     0.3318     8.0449 </r>
       <r>    -0.2809     0.7730     8.1146 </r>
       <r>    -0.1907     0.7686     8.1839 </r>
       <r>    -0.1006     0.5978     8.2378 </r>
       <r>    -0.0104     0.9303     8.3217 </r>
       <r>     0.0797     1.4060     8.4484 </r>
       <r>     0.1699     1.6487     8.5971 </r>
       <r>     0.2600     1.4567     8.7284 </r>
       <r>     0.3502     1.6616     8.8782 </r>
       <r>     0.4404     2.0646     9.0643 </r>
       <r>     0.5305     2.5669     9.2958 </r>
       <r>     0.6207     3.6605     9.6258 </r>
       <r>     0.7108     3.5792     9.9485 </r>
       <r>     0.8010     4.0712    10.3155 </r>
       <r>     0.8911     6.2534    10.8793 </r>
       <r>     0.9813     5.9769    11.4182 </r>
       <r>     1.0715     3.9606    11.7752 </r>
       <r>     1.1616     2.7858    12.0264 </r>
       <r>     1.2518     1.1965    12.1343 </r>
       <r>     1.3419     0.8901    12.2145 </r>
       <r>     1.4321     2.1465    12.4080 </r>
       <r>     1.5222     3.2051    12.6970 </r>
       <r>     1.6124     1.8140    12.8605 </r>
       <r>     1.7026     0.4462    12.9008 </r>
       <r>     1.7927     0.8194    12.9746 </r>
       <r>     1.8829     1.5721    13.1164 </r>
       <r>     1.9730     1.9962    13.2964 </r>
       <r>     2.0632     2.5926    13.5301 </r>
       <r>     2.1533     2.3358    13.7407 </r>
       <r>     2.2435     1.3603    13.8633 </r>
       <r>     2.3337     0.6119    13.9185 </r>
       <r>     2.4238     0.6456    13.9767 </r>
       <r>     2.5140     0.6577    14.0360 </r>
       <r>     2.6041     1.1137    14.1364 </r>
       <r>     2.6943     2.2748    14.3415 </r>
       <r>     2.7845     2.8896    14.6020 </r>
       <r>     2.8746     2.9346    14.8666 </r>
       <r>     2.9648     3.6903    15.1993 </r>
       <r>     3.0549     4.1185    15.5706 </r>
       <r>     3.1451     2.7911    15.8223 </r>
       <r>     3.2352     1.8948    15.9931 </r>
       <r>     3.3254     3.1585    16.2778 </r>
       <r>     3.4156     3.3519    16.5800 </r>
       <r>     3.5057     1.8965    16.7510 </r>
       <r>     3.5959     1.0833    16.8487 </r>
       <r>     3.6860     2.1100    17.0389 </r>
       <r>     3.7762     3.9234    17.3926 </r>
       <r>     3.8663     3.4231    17.7013 </r>
       <r>     3.9565     3.1709    17.9871 </r>
       <r>     4.0467     3.4473    18.2979 </r>
       <r>     4.1368     2.8858    18.5581 </r>
       <r>     4.2270     2.9983    18.8284 </r>
       <r>     4.3171     3.2769    19.1239 </r>
       <r>     4.4073     4.2238    19.5047 </r>
       <r>     4.4974     3.6146    19.8306 </r>
       <r>     4.5876     3.8165    20.1747 </r>
       <r>     4.6778     3.6664    20.5052 </r>
       <r>     4.7679     2.1612    20.7001 </r>
       <r>     4.8581     3.3858    21.0053 </r>
       <r>     4.9482     5.2213    21.4761 </r>
       <r>     5.0384     5.1349    21.9390 </r>
       <r>     5.1285     4.6714    22.3602 </r>
       <r>     5.2187     6.0368    22.9044 </r>
       <r>     5.3089     5.8798    23.4345 </r>
       <r>     5.3990     3.1751    23.7208 </r>
       <r>     5.4892     2.8669    23.9793 </r>
       <r>     5.5793     3.6805    24.3111 </r>
       <r>     5.6695     4.5855    24.7245 </r>
       <r>     5.7596     5.3420    25.2061 </r>
       <r>     5.8498     4.1824    25.5832 </r>
       <r>     5.9400     2.6619    25.8232 </r>
       <r>     6.0301     4.3453    26.2149 </r>
       <r>     6.1203     5.0765    26.6726 </r>
       <r>     6.2104     4.8778    27.1124 </r>
       <r>     6.3006     4.7321    27.5390 </r>
       <r>     6.3907     4.4122    27.9368 </r>
       <r>     6.4809     3.5066    28.2530 </r>
       <r>     6.5711     3.0220    28.5254 </r>
       <r>     6.6612     3.4187    28.8336 </r>
       <r>     6.7514     3.7617    29.1728 </r>
       <r>     6.8415     4.7775    29.6035 </r>
       <r>     6.9317     5.3890    30.0894 </r>
       <r>     7.0219     3.7865    30.4308 </r>
       <r>     7.1120     2.1661    30.6260 </r>
       <r>     7.2022     1.5171    30.7628 </r>
       <r>     7.2923     2.3056    30.9707 </r>
       <r>     7.3825     2.9452    31.2362 </r>
       <r>     7.4726     1.9191    31.4092 </r>
       <r>     7.5628     1.2640    31.5232 </r>
       <r>     7.6530     1.7085    31.6772 </r>
       <r>     7.7431     1.7081    31.8312 </r>
       <r>     7.8333     1.0330    31.9244 </r>
       <r>     7.9234     0.4990    31.9693 </r>
       <r>     8.0136     0.2740    31.9941 </r>
       <r>     8.1037     0.0623    31.9997 </r>
       <r>     8.1939     0.0036    32.0000 </r>
       <r>     8.2841     0.0000    32.0000 </r>
       <r>     8.3742     0.0000    32.0000 </r>
       <r>     8.4644     0.0000    32.0000 </r>
       <r>     8.5545     0.0000    32.0000 </r>
       <r>     8.6447     0.0000    32.0000 </r>
       <r>     8.7348     0.0000    32.0000 </r>
       <r>     8.8250     0.0000    32.0000 </r>
       <r>     8.9152     0.0000    32.0000 </r>
       <r>     9.0053     0.0000    32.0000 </r>
       <r>     9.0955     0.0001    32.0000 </r>
       <r>     9.1856     0.0046    32.0004 </r>
       <r>     9.2758     0.0349    32.0036 </r>
       <r>     9.3659     0.0706    32.0100 </r>
       <r>     9.4561     0.0952    32.0185 </r>
       <r>     9.5463     0.1258    32.0299 </r>
       <r>     9.6364     0.0569    32.0350 </r>
       <r>     9.7266     0.0648    32.0408 </r>
       <r>     9.8167     0.2317    32.0617 </r>
       <r>     9.9069     0.3746    32.0955 </r>
       <r>     9.9970     0.7079    32.1593 </r>
       <r>    10.0872     0.7590    32.2277 </r>
       <r>    10.1774     0.5344    32.2759 </r>
       <r>    10.2675     0.5071    32.3216 </r>
       <r>    10.3577     0.2306    32.3424 </r>
       <r>    10.4478     0.3178    32.3711 </r>
       <r>    10.5380     0.4973    32.4159 </r>
       <r>    10.6282     0.3374    32.4463 </r>
       <r>    10.7183     0.4970    32.4912 </r>
       <r>    10.8085     0.5554    32.5412 </r>
       <r>    10.8986     0.7857    32.6121 </r>
       <r>    10.9888     1.3159    32.7307 </r>
       <r>    11.0789     1.7755    32.8908 </r>
       <r>    11.1691     1.4792    33.0241 </r>
       <r>    11.2593     1.1190    33.1250 </r>
       <r>    11.3494     0.7724    33.1947 </r>
       <r>    11.4396     0.9556    33.2808 </r>
       <r>    11.5297     1.7865    33.4419 </r>
       <r>    11.6199     1.5589    33.5824 </r>
       <r>    11.7100     0.8196    33.6563 </r>
       <r>    11.8002     0.3527    33.6881 </r>
       <r>    11.8904     0.6005    33.7423 </r>
       <r>    11.9805     1.0912    33.8407 </r>
       <r>    12.0707     1.4312    33.9697 </r>
       <r>    12.1608     1.7996    34.1319 </r>
       <r>    12.2510     3.1621    34.4170 </r>
       <r>    12.3411     3.8032    34.7599 </r>
       <r>    12.4313     3.1590    35.0447 </r>
       <r>    12.5215     2.3279    35.2546 </r>
       <r>    12.6116     1.9582    35.4311 </r>
       <r>    12.7018     2.0497    35.6159 </r>
       <r>    12.7919     1.6720    35.7667 </r>
       <r>    12.8821     1.3139    35.8851 </r>
       <r>    12.9722     2.2134    36.0847 </r>
       <r>    13.0624     4.5546    36.4953 </r>
       <r>    13.1526     5.6638    37.0060 </r>
       <r>    13.2427     5.5282    37.5044 </r>
       <r>    13.3329     4.6883    37.9271 </r>
       <r>    13.4230     3.7029    38.2609 </r>
       <r>    13.5132     3.0254    38.5337 </r>
       <r>    13.6033     2.7270    38.7795 </r>
       <r>    13.6935     3.1814    39.0664 </r>
       <r>    13.7837     3.2089    39.3557 </r>
       <r>    13.8738     1.9720    39.5334 </r>
       <r>    13.9640     2.2847    39.7394 </r>
       <r>    14.0541     2.7500    39.9874 </r>
       <r>    14.1443     1.8923    40.1580 </r>
       <r>    14.2345     2.3444    40.3693 </r>
       <r>    14.3246     3.1466    40.6530 </r>
       <r>    14.4148     2.6264    40.8898 </r>
       <r>    14.5049     2.1175    41.0807 </r>
       <r>    14.5951     2.1262    41.2724 </r>
       <r>    14.6852     1.4276    41.4011 </r>
       <r>    14.7754     1.3785    41.5254 </r>
       <r>    14.8656     3.0707    41.8023 </r>
       <r>    14.9557     4.8424    42.2388 </r>
       <r>    15.0459     4.4247    42.6378 </r>
       <r>    15.1360     3.7222    42.9733 </r>
       <r>    15.2262     4.3917    43.3693 </r>
       <r>    15.3163     4.3077    43.7576 </r>
       <r>    15.4065     4.8489    44.1948 </r>
       <r>    15.4967     5.5509    44.6953 </r>
       <r>    15.5868     4.2619    45.0795 </r>
       <r>    15.6770     4.6199    45.4960 </r>
       <r>    15.7671     5.0765    45.9537 </r>
       <r>    15.8573     5.7424    46.4714 </r>
       <r>    15.9474     5.5342    46.9704 </r>
       <r>    16.0376     2.7238    47.2160 </r>
       <r>    16.1278     1.0084    47.3069 </r>
       <r>    16.2179     0.9396    47.3916 </r>
       <r>    16.3081     1.1637    47.4965 </r>
       <r>    16.3982     1.2558    47.6097 </r>
       <r>    16.4884     1.7622    47.7686 </r>
       <r>    16.5785     1.5545    47.9087 </r>
       <r>    16.6687     0.6457    47.9670 </r>
       <r>    16.7589     0.1020    47.9761 </r>
       <r>    16.8490     0.0046    47.9766 </r>
       <r>    16.9392     0.0001    47.9766 </r>
       <r>    17.0293     0.0003    47.9766 </r>
       <r>    17.1195     0.0103    47.9775 </r>
       <r>    17.2096     0.0729    47.9841 </r>
       <r>    17.2998     0.1222    47.9951 </r>
       <r>    17.3900     0.0494    47.9996 </r>
       <r>    17.4801     0.0047    48.0000 </r>
       <r>    17.5703     0.0001    48.0000 </r>
       <r>    17.6604     0.0000    48.0000 </r>
       <r>    17.7506     0.0000    48.0000 </r>
       <r>    17.8408     0.0000    48.0000 </r>
       <r>    17.9309     0.0000    48.0000 </r>
       <r>    18.0211     0.0000    48.0000 </r>
       <r>    18.1112     0.0000    48.0000 </r>
       <r>    18.2014     0.0000    48.0000 </r>
       <r>    18.2915     0.0000    48.0000 </r>
       <r>    18.3817     0.0000    48.0000 </r>
       <r>    18.4719     0.0000    48.0000 </r>
      </set>
     </set>
    </array>
   </total>
  </dos>
 </calculation>
 <structure name="finalpos" >
  <crystal>
   <varray name="basis" >
    <v>       4.37956000       0.00000000       0.00000000 </v>
    <v>       0.00000000       4.37956000       0.00000000 </v>
    <v>       0.00000000       0.00000000       4.37956000 </v>
   </varray>
   <i name="volume">     84.00235114 </i>
   <varray name="rec_basis" >
    <v>       0.22833344      -0.00000000       0.00000000 </v>
    <v>       0.00000000       0.22833344       0.00000000 </v>
    <v>      -0.00000000      -0.00000000       0.22833344 </v>
   </varray>
  </crystal>
  <varray name="positions" >
   <v>       0.25000000       0.25000000       0.75000000 </v>
   <v>       0.25000000       0.75000000       0.25000000 </v>
   <v>       0.75000000       0.25000000       0.25000000 </v>
   <v>       0.75000000       0.75000000       0.75000000 </v>
   <v>       0.00000000       0.00000000       0.00000000 </v>
   <v>       0.00000000       0.50000000       0.50000000 </v>
   <v>       0.50000000       0.00000000       0.50000000 </v>
   <v>       0.50000000       0.50000000       0.00000000 </v>
  </varray>
 </structure>
</modeling>
