Global Parameters
 ISTART =  0            (Read existing wavefunction; if there)
 # ISPIN =  1            (Spin polarised DFT)
 ICHARG =  2         (Non-self-consistent: GGA/LDA band structures)
 LREAL  = .FALSE.       (Projection operators: automatic)
 ENCUT  =  520        (Cut-off energy for plane wave basis set, in eV)
 PREC   =  Accurate       (Precision level)
 #LWAVE  = .TRUE.        (Write WAVECAR or not)
 #LCHARG = .TRUE.        (Write CHGCAR or not)
 ADDGRID= .TRUE.        (Increase grid; helps GGA convergence)
 # LVTOT  = .TRUE.      (Write total electrostatic potential into LOCPOT or not)
 # LVHAR  = .TRUE.      (Write ionic + Hartree electrostatic potential into LOCPOT or not)
 # NELECT =             (No. of electrons: charged cells; be careful)
 # LPLANE = .TRUE.      (Real space distribution; supercells)
 #NPAR   = 4           (Max is no. nodes; don't set for hybrids)
 # NWRITE = 2           (Medium-level output)
 # KPAR   = 2           (Divides k-grid into separate groups)
 # NGX    = 500         (FFT grid mesh density for nice charge/potential plots)
 # NGY    = 500         (FFT grid mesh density for nice charge/potential plots)
 # NGZ    = 500         (FFT grid mesh density for nice charge/potential plots)

#Lattice Atomic Relaxtion													
ISMEAR =  0            (gaussian smearing method)              
SIGMA  =  0.1          (please check the width of the smearing)
NSW    =  300          (number of ionic steps)                             
ISMEAR =  0            (gaussian smearing method )                         
SIGMA  =  0.05         (please check the width of the smearing)            
IBRION =  2            (Algorithm: 0-MD; 1-Quasi-New; 2-CG)                
ISIF   =  3            (optimize atomic coordinates and lattice parameters)
        (SCF energy convergence; in eV)         
EDIFFG = -2E-2         (Ionic convergence; eV/AA)                          
EDIFF  =  1E-06                                                           
PREC   =  Accurate     (Precision level)                                   

