KMesh	60	60	1 
	3600
Reciprocal lattice
	-0.500000	-0.500000	0.000000	1
	-0.483051	-0.500000	0.000000	1
	-0.466102	-0.500000	0.000000	1
	-0.449153	-0.500000	0.000000	1
	-0.432203	-0.500000	0.000000	1
	-0.415254	-0.500000	0.000000	1
	-0.398305	-0.500000	0.000000	1
	-0.381356	-0.500000	0.000000	1
	-0.364407	-0.500000	0.000000	1
	-0.347458	-0.500000	0.000000	1
	-0.330508	-0.500000	0.000000	1
	-0.313559	-0.500000	0.000000	1
	-0.296610	-0.500000	0.000000	1
	-0.279661	-0.500000	0.000000	1
	-0.262712	-0.500000	0.000000	1
	-0.245763	-0.500000	0.000000	1
	-0.228814	-0.500000	0.000000	1
	-0.211864	-0.500000	0.000000	1
	-0.194915	-0.500000	0.000000	1
	-0.177966	-0.500000	0.000000	1
	-0.161017	-0.500000	0.000000	1
	-0.144068	-0.500000	0.000000	1
	-0.127119	-0.500000	0.000000	1
	-0.110169	-0.500000	0.000000	1
	-0.093220	-0.500000	0.000000	1
	-0.076271	-0.500000	0.000000	1
	-0.059322	-0.500000	0.000000	1
	-0.042373	-0.500000	0.000000	1
	-0.025424	-0.500000	0.000000	1
	-0.008475	-0.500000	0.000000	1
	0.008475	-0.500000	0.000000	1
	0.025424	-0.500000	0.000000	1
	0.042373	-0.500000	0.000000	1
	0.059322	-0.500000	0.000000	1
	0.076271	-0.500000	0.000000	1
	0.093220	-0.500000	0.000000	1
	0.110169	-0.500000	0.000000	1
	0.127119	-0.500000	0.000000	1
	0.144068	-0.500000	0.000000	1
	0.161017	-0.500000	0.000000	1
	0.177966	-0.500000	0.000000	1
	0.194915	-0.500000	0.000000	1
	0.211864	-0.500000	0.000000	1
	0.228814	-0.500000	0.000000	1
	0.245763	-0.500000	0.000000	1
	0.262712	-0.500000	0.000000	1
	0.279661	-0.500000	0.000000	1
	0.296610	-0.500000	0.000000	1
	0.313559	-0.500000	0.000000	1
	0.330508	-0.500000	0.000000	1
	0.347458	-0.500000	0.000000	1
	0.364407	-0.500000	0.000000	1
	0.381356	-0.500000	0.000000	1
	0.398305	-0.500000	0.000000	1
	0.415254	-0.500000	0.000000	1
	0.432203	-0.500000	0.000000	1
	0.449153	-0.500000	0.000000	1
	0.466102	-0.500000	0.000000	1
	0.483051	-0.500000	0.000000	1
	0.500000	-0.500000	0.000000	0
	-0.500000	-0.483051	0.000000	1
	-0.483051	-0.483051	0.000000	1
	-0.466102	-0.483051	0.000000	1
	-0.449153	-0.483051	0.000000	1
	-0.432203	-0.483051	0.000000	1
	-0.415254	-0.483051	0.000000	1
	-0.398305	-0.483051	0.000000	1
	-0.381356	-0.483051	0.000000	1
	-0.364407	-0.483051	0.000000	1
	-0.347458	-0.483051	0.000000	1
	-0.330508	-0.483051	0.000000	1
	-0.313559	-0.483051	0.000000	1
	-0.296610	-0.483051	0.000000	1
	-0.279661	-0.483051	0.000000	1
	-0.262712	-0.483051	0.000000	1
	-0.245763	-0.483051	0.000000	1
	-0.228814	-0.483051	0.000000	1
	-0.211864	-0.483051	0.000000	1
	-0.194915	-0.483051	0.000000	1
	-0.177966	-0.483051	0.000000	1
	-0.161017	-0.483051	0.000000	1
	-0.144068	-0.483051	0.000000	1
	-0.127119	-0.483051	0.000000	1
	-0.110169	-0.483051	0.000000	1
	-0.093220	-0.483051	0.000000	1
	-0.076271	-0.483051	0.000000	1
	-0.059322	-0.483051	0.000000	1
	-0.042373	-0.483051	0.000000	1
	-0.025424	-0.483051	0.000000	1
	-0.008475	-0.483051	0.000000	1
	0.008475	-0.483051	0.000000	1
	0.025424	-0.483051	0.000000	1
	0.042373	-0.483051	0.000000	1
	0.059322	-0.483051	0.000000	1
	0.076271	-0.483051	0.000000	1
	0.093220	-0.483051	0.000000	1
	0.110169	-0.483051	0.000000	1
	0.127119	-0.483051	0.000000	1
	0.144068	-0.483051	0.000000	1
	0.161017	-0.483051	0.000000	1
	0.177966	-0.483051	0.000000	1
	0.194915	-0.483051	0.000000	1
	0.211864	-0.483051	0.000000	1
	0.228814	-0.483051	0.000000	1
	0.245763	-0.483051	0.000000	1
	0.262712	-0.483051	0.000000	1
	0.279661	-0.483051	0.000000	1
	0.296610	-0.483051	0.000000	1
	0.313559	-0.483051	0.000000	1
	0.330508	-0.483051	0.000000	1
	0.347458	-0.483051	0.000000	1
	0.364407	-0.483051	0.000000	1
	0.381356	-0.483051	0.000000	1
	0.398305	-0.483051	0.000000	1
	0.415254	-0.483051	0.000000	1
	0.432203	-0.483051	0.000000	1
	0.449153	-0.483051	0.000000	1
	0.466102	-0.483051	0.000000	1
	0.483051	-0.483051	0.000000	1
	0.500000	-0.483051	0.000000	0
	-0.500000	-0.466102	0.000000	1
	-0.483051	-0.466102	0.000000	1
	-0.466102	-0.466102	0.000000	1
	-0.449153	-0.466102	0.000000	1
	-0.432203	-0.466102	0.000000	1
	-0.415254	-0.466102	0.000000	1
	-0.398305	-0.466102	0.000000	1
	-0.381356	-0.466102	0.000000	1
	-0.364407	-0.466102	0.000000	1
	-0.347458	-0.466102	0.000000	1
	-0.330508	-0.466102	0.000000	1
	-0.313559	-0.466102	0.000000	1
	-0.296610	-0.466102	0.000000	1
	-0.279661	-0.466102	0.000000	1
	-0.262712	-0.466102	0.000000	1
	-0.245763	-0.466102	0.000000	1
	-0.228814	-0.466102	0.000000	1
	-0.211864	-0.466102	0.000000	1
	-0.194915	-0.466102	0.000000	1
	-0.177966	-0.466102	0.000000	1
	-0.161017	-0.466102	0.000000	1
	-0.144068	-0.466102	0.000000	1
	-0.127119	-0.466102	0.000000	1
	-0.110169	-0.466102	0.000000	1
	-0.093220	-0.466102	0.000000	1
	-0.076271	-0.466102	0.000000	1
	-0.059322	-0.466102	0.000000	1
	-0.042373	-0.466102	0.000000	1
	-0.025424	-0.466102	0.000000	1
	-0.008475	-0.466102	0.000000	1
	0.008475	-0.466102	0.000000	1
	0.025424	-0.466102	0.000000	1
	0.042373	-0.466102	0.000000	1
	0.059322	-0.466102	0.000000	1
	0.076271	-0.466102	0.000000	1
	0.093220	-0.466102	0.000000	1
	0.110169	-0.466102	0.000000	1
	0.127119	-0.466102	0.000000	1
	0.144068	-0.466102	0.000000	1
	0.161017	-0.466102	0.000000	1
	0.177966	-0.466102	0.000000	1
	0.194915	-0.466102	0.000000	1
	0.211864	-0.466102	0.000000	1
	0.228814	-0.466102	0.000000	1
	0.245763	-0.466102	0.000000	1
	0.262712	-0.466102	0.000000	1
	0.279661	-0.466102	0.000000	1
	0.296610	-0.466102	0.000000	1
	0.313559	-0.466102	0.000000	1
	0.330508	-0.466102	0.000000	1
	0.347458	-0.466102	0.000000	1
	0.364407	-0.466102	0.000000	1
	0.381356	-0.466102	0.000000	1
	0.398305	-0.466102	0.000000	1
	0.415254	-0.466102	0.000000	1
	0.432203	-0.466102	0.000000	1
	0.449153	-0.466102	0.000000	1
	0.466102	-0.466102	0.000000	1
	0.483051	-0.466102	0.000000	1
	0.500000	-0.466102	0.000000	0
	-0.500000	-0.449153	0.000000	1
	-0.483051	-0.449153	0.000000	1
	-0.466102	-0.449153	0.000000	1
	-0.449153	-0.449153	0.000000	1
	-0.432203	-0.449153	0.000000	1
	-0.415254	-0.449153	0.000000	1
	-0.398305	-0.449153	0.000000	1
	-0.381356	-0.449153	0.000000	1
	-0.364407	-0.449153	0.000000	1
	-0.347458	-0.449153	0.000000	1
	-0.330508	-0.449153	0.000000	1
	-0.313559	-0.449153	0.000000	1
	-0.296610	-0.449153	0.000000	1
	-0.279661	-0.449153	0.000000	1
	-0.262712	-0.449153	0.000000	1
	-0.245763	-0.449153	0.000000	1
	-0.228814	-0.449153	0.000000	1
	-0.211864	-0.449153	0.000000	1
	-0.194915	-0.449153	0.000000	1
	-0.177966	-0.449153	0.000000	1
	-0.161017	-0.449153	0.000000	1
	-0.144068	-0.449153	0.000000	1
	-0.127119	-0.449153	0.000000	1
	-0.110169	-0.449153	0.000000	1
	-0.093220	-0.449153	0.000000	1
	-0.076271	-0.449153	0.000000	1
	-0.059322	-0.449153	0.000000	1
	-0.042373	-0.449153	0.000000	1
	-0.025424	-0.449153	0.000000	1
	-0.008475	-0.449153	0.000000	1
	0.008475	-0.449153	0.000000	1
	0.025424	-0.449153	0.000000	1
	0.042373	-0.449153	0.000000	1
	0.059322	-0.449153	0.000000	1
	0.076271	-0.449153	0.000000	1
	0.093220	-0.449153	0.000000	1
	0.110169	-0.449153	0.000000	1
	0.127119	-0.449153	0.000000	1
	0.144068	-0.449153	0.000000	1
	0.161017	-0.449153	0.000000	1
	0.177966	-0.449153	0.000000	1
	0.194915	-0.449153	0.000000	1
	0.211864	-0.449153	0.000000	1
	0.228814	-0.449153	0.000000	1
	0.245763	-0.449153	0.000000	1
	0.262712	-0.449153	0.000000	1
	0.279661	-0.449153	0.000000	1
	0.296610	-0.449153	0.000000	1
	0.313559	-0.449153	0.000000	1
	0.330508	-0.449153	0.000000	1
	0.347458	-0.449153	0.000000	1
	0.364407	-0.449153	0.000000	1
	0.381356	-0.449153	0.000000	1
	0.398305	-0.449153	0.000000	1
	0.415254	-0.449153	0.000000	1
	0.432203	-0.449153	0.000000	1
	0.449153	-0.449153	0.000000	1
	0.466102	-0.449153	0.000000	1
	0.483051	-0.449153	0.000000	1
	0.500000	-0.449153	0.000000	0
	-0.500000	-0.432203	0.000000	1
	-0.483051	-0.432203	0.000000	1
	-0.466102	-0.432203	0.000000	1
	-0.449153	-0.432203	0.000000	1
	-0.432203	-0.432203	0.000000	1
	-0.415254	-0.432203	0.000000	1
	-0.398305	-0.432203	0.000000	1
	-0.381356	-0.432203	0.000000	1
	-0.364407	-0.432203	0.000000	1
	-0.347458	-0.432203	0.000000	1
	-0.330508	-0.432203	0.000000	1
	-0.313559	-0.432203	0.000000	1
	-0.296610	-0.432203	0.000000	1
	-0.279661	-0.432203	0.000000	1
	-0.262712	-0.432203	0.000000	1
	-0.245763	-0.432203	0.000000	1
	-0.228814	-0.432203	0.000000	1
	-0.211864	-0.432203	0.000000	1
	-0.194915	-0.432203	0.000000	1
	-0.177966	-0.432203	0.000000	1
	-0.161017	-0.432203	0.000000	1
	-0.144068	-0.432203	0.000000	1
	-0.127119	-0.432203	0.000000	1
	-0.110169	-0.432203	0.000000	1
	-0.093220	-0.432203	0.000000	1
	-0.076271	-0.432203	0.000000	1
	-0.059322	-0.432203	0.000000	1
	-0.042373	-0.432203	0.000000	1
	-0.025424	-0.432203	0.000000	1
	-0.008475	-0.432203	0.000000	1
	0.008475	-0.432203	0.000000	1
	0.025424	-0.432203	0.000000	1
	0.042373	-0.432203	0.000000	1
	0.059322	-0.432203	0.000000	1
	0.076271	-0.432203	0.000000	1
	0.093220	-0.432203	0.000000	1
	0.110169	-0.432203	0.000000	1
	0.127119	-0.432203	0.000000	1
	0.144068	-0.432203	0.000000	1
	0.161017	-0.432203	0.000000	1
	0.177966	-0.432203	0.000000	1
	0.194915	-0.432203	0.000000	1
	0.211864	-0.432203	0.000000	1
	0.228814	-0.432203	0.000000	1
	0.245763	-0.432203	0.000000	1
	0.262712	-0.432203	0.000000	1
	0.279661	-0.432203	0.000000	1
	0.296610	-0.432203	0.000000	1
	0.313559	-0.432203	0.000000	1
	0.330508	-0.432203	0.000000	1
	0.347458	-0.432203	0.000000	1
	0.364407	-0.432203	0.000000	1
	0.381356	-0.432203	0.000000	1
	0.398305	-0.432203	0.000000	1
	0.415254	-0.432203	0.000000	1
	0.432203	-0.432203	0.000000	1
	0.449153	-0.432203	0.000000	1
	0.466102	-0.432203	0.000000	1
	0.483051	-0.432203	0.000000	1
	0.500000	-0.432203	0.000000	0
	-0.500000	-0.415254	0.000000	1
	-0.483051	-0.415254	0.000000	1
	-0.466102	-0.415254	0.000000	1
	-0.449153	-0.415254	0.000000	1
	-0.432203	-0.415254	0.000000	1
	-0.415254	-0.415254	0.000000	1
	-0.398305	-0.415254	0.000000	1
	-0.381356	-0.415254	0.000000	1
	-0.364407	-0.415254	0.000000	1
	-0.347458	-0.415254	0.000000	1
	-0.330508	-0.415254	0.000000	1
	-0.313559	-0.415254	0.000000	1
	-0.296610	-0.415254	0.000000	1
	-0.279661	-0.415254	0.000000	1
	-0.262712	-0.415254	0.000000	1
	-0.245763	-0.415254	0.000000	1
	-0.228814	-0.415254	0.000000	1
	-0.211864	-0.415254	0.000000	1
	-0.194915	-0.415254	0.000000	1
	-0.177966	-0.415254	0.000000	1
	-0.161017	-0.415254	0.000000	1
	-0.144068	-0.415254	0.000000	1
	-0.127119	-0.415254	0.000000	1
	-0.110169	-0.415254	0.000000	1
	-0.093220	-0.415254	0.000000	1
	-0.076271	-0.415254	0.000000	1
	-0.059322	-0.415254	0.000000	1
	-0.042373	-0.415254	0.000000	1
	-0.025424	-0.415254	0.000000	1
	-0.008475	-0.415254	0.000000	1
	0.008475	-0.415254	0.000000	1
	0.025424	-0.415254	0.000000	1
	0.042373	-0.415254	0.000000	1
	0.059322	-0.415254	0.000000	1
	0.076271	-0.415254	0.000000	1
	0.093220	-0.415254	0.000000	1
	0.110169	-0.415254	0.000000	1
	0.127119	-0.415254	0.000000	1
	0.144068	-0.415254	0.000000	1
	0.161017	-0.415254	0.000000	1
	0.177966	-0.415254	0.000000	1
	0.194915	-0.415254	0.000000	1
	0.211864	-0.415254	0.000000	1
	0.228814	-0.415254	0.000000	1
	0.245763	-0.415254	0.000000	1
	0.262712	-0.415254	0.000000	1
	0.279661	-0.415254	0.000000	1
	0.296610	-0.415254	0.000000	1
	0.313559	-0.415254	0.000000	1
	0.330508	-0.415254	0.000000	1
	0.347458	-0.415254	0.000000	1
	0.364407	-0.415254	0.000000	1
	0.381356	-0.415254	0.000000	1
	0.398305	-0.415254	0.000000	1
	0.415254	-0.415254	0.000000	1
	0.432203	-0.415254	0.000000	1
	0.449153	-0.415254	0.000000	1
	0.466102	-0.415254	0.000000	1
	0.483051	-0.415254	0.000000	1
	0.500000	-0.415254	0.000000	0
	-0.500000	-0.398305	0.000000	1
	-0.483051	-0.398305	0.000000	1
	-0.466102	-0.398305	0.000000	1
	-0.449153	-0.398305	0.000000	1
	-0.432203	-0.398305	0.000000	1
	-0.415254	-0.398305	0.000000	1
	-0.398305	-0.398305	0.000000	1
	-0.381356	-0.398305	0.000000	1
	-0.364407	-0.398305	0.000000	1
	-0.347458	-0.398305	0.000000	1
	-0.330508	-0.398305	0.000000	1
	-0.313559	-0.398305	0.000000	1
	-0.296610	-0.398305	0.000000	1
	-0.279661	-0.398305	0.000000	1
	-0.262712	-0.398305	0.000000	1
	-0.245763	-0.398305	0.000000	1
	-0.228814	-0.398305	0.000000	1
	-0.211864	-0.398305	0.000000	1
	-0.194915	-0.398305	0.000000	1
	-0.177966	-0.398305	0.000000	1
	-0.161017	-0.398305	0.000000	1
	-0.144068	-0.398305	0.000000	1
	-0.127119	-0.398305	0.000000	1
	-0.110169	-0.398305	0.000000	1
	-0.093220	-0.398305	0.000000	1
	-0.076271	-0.398305	0.000000	1
	-0.059322	-0.398305	0.000000	1
	-0.042373	-0.398305	0.000000	1
	-0.025424	-0.398305	0.000000	1
	-0.008475	-0.398305	0.000000	1
	0.008475	-0.398305	0.000000	1
	0.025424	-0.398305	0.000000	1
	0.042373	-0.398305	0.000000	1
	0.059322	-0.398305	0.000000	1
	0.076271	-0.398305	0.000000	1
	0.093220	-0.398305	0.000000	1
	0.110169	-0.398305	0.000000	1
	0.127119	-0.398305	0.000000	1
	0.144068	-0.398305	0.000000	1
	0.161017	-0.398305	0.000000	1
	0.177966	-0.398305	0.000000	1
	0.194915	-0.398305	0.000000	1
	0.211864	-0.398305	0.000000	1
	0.228814	-0.398305	0.000000	1
	0.245763	-0.398305	0.000000	1
	0.262712	-0.398305	0.000000	1
	0.279661	-0.398305	0.000000	1
	0.296610	-0.398305	0.000000	1
	0.313559	-0.398305	0.000000	1
	0.330508	-0.398305	0.000000	1
	0.347458	-0.398305	0.000000	1
	0.364407	-0.398305	0.000000	1
	0.381356	-0.398305	0.000000	1
	0.398305	-0.398305	0.000000	1
	0.415254	-0.398305	0.000000	1
	0.432203	-0.398305	0.000000	1
	0.449153	-0.398305	0.000000	1
	0.466102	-0.398305	0.000000	1
	0.483051	-0.398305	0.000000	1
	0.500000	-0.398305	0.000000	0
	-0.500000	-0.381356	0.000000	1
	-0.483051	-0.381356	0.000000	1
	-0.466102	-0.381356	0.000000	1
	-0.449153	-0.381356	0.000000	1
	-0.432203	-0.381356	0.000000	1
	-0.415254	-0.381356	0.000000	1
	-0.398305	-0.381356	0.000000	1
	-0.381356	-0.381356	0.000000	1
	-0.364407	-0.381356	0.000000	1
	-0.347458	-0.381356	0.000000	1
	-0.330508	-0.381356	0.000000	1
	-0.313559	-0.381356	0.000000	1
	-0.296610	-0.381356	0.000000	1
	-0.279661	-0.381356	0.000000	1
	-0.262712	-0.381356	0.000000	1
	-0.245763	-0.381356	0.000000	1
	-0.228814	-0.381356	0.000000	1
	-0.211864	-0.381356	0.000000	1
	-0.194915	-0.381356	0.000000	1
	-0.177966	-0.381356	0.000000	1
	-0.161017	-0.381356	0.000000	1
	-0.144068	-0.381356	0.000000	1
	-0.127119	-0.381356	0.000000	1
	-0.110169	-0.381356	0.000000	1
	-0.093220	-0.381356	0.000000	1
	-0.076271	-0.381356	0.000000	1
	-0.059322	-0.381356	0.000000	1
	-0.042373	-0.381356	0.000000	1
	-0.025424	-0.381356	0.000000	1
	-0.008475	-0.381356	0.000000	1
	0.008475	-0.381356	0.000000	1
	0.025424	-0.381356	0.000000	1
	0.042373	-0.381356	0.000000	1
	0.059322	-0.381356	0.000000	1
	0.076271	-0.381356	0.000000	1
	0.093220	-0.381356	0.000000	1
	0.110169	-0.381356	0.000000	1
	0.127119	-0.381356	0.000000	1
	0.144068	-0.381356	0.000000	1
	0.161017	-0.381356	0.000000	1
	0.177966	-0.381356	0.000000	1
	0.194915	-0.381356	0.000000	1
	0.211864	-0.381356	0.000000	1
	0.228814	-0.381356	0.000000	1
	0.245763	-0.381356	0.000000	1
	0.262712	-0.381356	0.000000	1
	0.279661	-0.381356	0.000000	1
	0.296610	-0.381356	0.000000	1
	0.313559	-0.381356	0.000000	1
	0.330508	-0.381356	0.000000	1
	0.347458	-0.381356	0.000000	1
	0.364407	-0.381356	0.000000	1
	0.381356	-0.381356	0.000000	1
	0.398305	-0.381356	0.000000	1
	0.415254	-0.381356	0.000000	1
	0.432203	-0.381356	0.000000	1
	0.449153	-0.381356	0.000000	1
	0.466102	-0.381356	0.000000	1
	0.483051	-0.381356	0.000000	1
	0.500000	-0.381356	0.000000	0
	-0.500000	-0.364407	0.000000	1
	-0.483051	-0.364407	0.000000	1
	-0.466102	-0.364407	0.000000	1
	-0.449153	-0.364407	0.000000	1
	-0.432203	-0.364407	0.000000	1
	-0.415254	-0.364407	0.000000	1
	-0.398305	-0.364407	0.000000	1
	-0.381356	-0.364407	0.000000	1
	-0.364407	-0.364407	0.000000	1
	-0.347458	-0.364407	0.000000	1
	-0.330508	-0.364407	0.000000	1
	-0.313559	-0.364407	0.000000	1
	-0.296610	-0.364407	0.000000	1
	-0.279661	-0.364407	0.000000	1
	-0.262712	-0.364407	0.000000	1
	-0.245763	-0.364407	0.000000	1
	-0.228814	-0.364407	0.000000	1
	-0.211864	-0.364407	0.000000	1
	-0.194915	-0.364407	0.000000	1
	-0.177966	-0.364407	0.000000	1
	-0.161017	-0.364407	0.000000	1
	-0.144068	-0.364407	0.000000	1
	-0.127119	-0.364407	0.000000	1
	-0.110169	-0.364407	0.000000	1
	-0.093220	-0.364407	0.000000	1
	-0.076271	-0.364407	0.000000	1
	-0.059322	-0.364407	0.000000	1
	-0.042373	-0.364407	0.000000	1
	-0.025424	-0.364407	0.000000	1
	-0.008475	-0.364407	0.000000	1
	0.008475	-0.364407	0.000000	1
	0.025424	-0.364407	0.000000	1
	0.042373	-0.364407	0.000000	1
	0.059322	-0.364407	0.000000	1
	0.076271	-0.364407	0.000000	1
	0.093220	-0.364407	0.000000	1
	0.110169	-0.364407	0.000000	1
	0.127119	-0.364407	0.000000	1
	0.144068	-0.364407	0.000000	1
	0.161017	-0.364407	0.000000	1
	0.177966	-0.364407	0.000000	1
	0.194915	-0.364407	0.000000	1
	0.211864	-0.364407	0.000000	1
	0.228814	-0.364407	0.000000	1
	0.245763	-0.364407	0.000000	1
	0.262712	-0.364407	0.000000	1
	0.279661	-0.364407	0.000000	1
	0.296610	-0.364407	0.000000	1
	0.313559	-0.364407	0.000000	1
	0.330508	-0.364407	0.000000	1
	0.347458	-0.364407	0.000000	1
	0.364407	-0.364407	0.000000	1
	0.381356	-0.364407	0.000000	1
	0.398305	-0.364407	0.000000	1
	0.415254	-0.364407	0.000000	1
	0.432203	-0.364407	0.000000	1
	0.449153	-0.364407	0.000000	1
	0.466102	-0.364407	0.000000	1
	0.483051	-0.364407	0.000000	1
	0.500000	-0.364407	0.000000	0
	-0.500000	-0.347458	0.000000	1
	-0.483051	-0.347458	0.000000	1
	-0.466102	-0.347458	0.000000	1
	-0.449153	-0.347458	0.000000	1
	-0.432203	-0.347458	0.000000	1
	-0.415254	-0.347458	0.000000	1
	-0.398305	-0.347458	0.000000	1
	-0.381356	-0.347458	0.000000	1
	-0.364407	-0.347458	0.000000	1
	-0.347458	-0.347458	0.000000	1
	-0.330508	-0.347458	0.000000	1
	-0.313559	-0.347458	0.000000	1
	-0.296610	-0.347458	0.000000	1
	-0.279661	-0.347458	0.000000	1
	-0.262712	-0.347458	0.000000	1
	-0.245763	-0.347458	0.000000	1
	-0.228814	-0.347458	0.000000	1
	-0.211864	-0.347458	0.000000	1
	-0.194915	-0.347458	0.000000	1
	-0.177966	-0.347458	0.000000	1
	-0.161017	-0.347458	0.000000	1
	-0.144068	-0.347458	0.000000	1
	-0.127119	-0.347458	0.000000	1
	-0.110169	-0.347458	0.000000	1
	-0.093220	-0.347458	0.000000	1
	-0.076271	-0.347458	0.000000	1
	-0.059322	-0.347458	0.000000	1
	-0.042373	-0.347458	0.000000	1
	-0.025424	-0.347458	0.000000	1
	-0.008475	-0.347458	0.000000	1
	0.008475	-0.347458	0.000000	1
	0.025424	-0.347458	0.000000	1
	0.042373	-0.347458	0.000000	1
	0.059322	-0.347458	0.000000	1
	0.076271	-0.347458	0.000000	1
	0.093220	-0.347458	0.000000	1
	0.110169	-0.347458	0.000000	1
	0.127119	-0.347458	0.000000	1
	0.144068	-0.347458	0.000000	1
	0.161017	-0.347458	0.000000	1
	0.177966	-0.347458	0.000000	1
	0.194915	-0.347458	0.000000	1
	0.211864	-0.347458	0.000000	1
	0.228814	-0.347458	0.000000	1
	0.245763	-0.347458	0.000000	1
	0.262712	-0.347458	0.000000	1
	0.279661	-0.347458	0.000000	1
	0.296610	-0.347458	0.000000	1
	0.313559	-0.347458	0.000000	1
	0.330508	-0.347458	0.000000	1
	0.347458	-0.347458	0.000000	1
	0.364407	-0.347458	0.000000	1
	0.381356	-0.347458	0.000000	1
	0.398305	-0.347458	0.000000	1
	0.415254	-0.347458	0.000000	1
	0.432203	-0.347458	0.000000	1
	0.449153	-0.347458	0.000000	1
	0.466102	-0.347458	0.000000	1
	0.483051	-0.347458	0.000000	1
	0.500000	-0.347458	0.000000	0
	-0.500000	-0.330508	0.000000	1
	-0.483051	-0.330508	0.000000	1
	-0.466102	-0.330508	0.000000	1
	-0.449153	-0.330508	0.000000	1
	-0.432203	-0.330508	0.000000	1
	-0.415254	-0.330508	0.000000	1
	-0.398305	-0.330508	0.000000	1
	-0.381356	-0.330508	0.000000	1
	-0.364407	-0.330508	0.000000	1
	-0.347458	-0.330508	0.000000	1
	-0.330508	-0.330508	0.000000	1
	-0.313559	-0.330508	0.000000	1
	-0.296610	-0.330508	0.000000	1
	-0.279661	-0.330508	0.000000	1
	-0.262712	-0.330508	0.000000	1
	-0.245763	-0.330508	0.000000	1
	-0.228814	-0.330508	0.000000	1
	-0.211864	-0.330508	0.000000	1
	-0.194915	-0.330508	0.000000	1
	-0.177966	-0.330508	0.000000	1
	-0.161017	-0.330508	0.000000	1
	-0.144068	-0.330508	0.000000	1
	-0.127119	-0.330508	0.000000	1
	-0.110169	-0.330508	0.000000	1
	-0.093220	-0.330508	0.000000	1
	-0.076271	-0.330508	0.000000	1
	-0.059322	-0.330508	0.000000	1
	-0.042373	-0.330508	0.000000	1
	-0.025424	-0.330508	0.000000	1
	-0.008475	-0.330508	0.000000	1
	0.008475	-0.330508	0.000000	1
	0.025424	-0.330508	0.000000	1
	0.042373	-0.330508	0.000000	1
	0.059322	-0.330508	0.000000	1
	0.076271	-0.330508	0.000000	1
	0.093220	-0.330508	0.000000	1
	0.110169	-0.330508	0.000000	1
	0.127119	-0.330508	0.000000	1
	0.144068	-0.330508	0.000000	1
	0.161017	-0.330508	0.000000	1
	0.177966	-0.330508	0.000000	1
	0.194915	-0.330508	0.000000	1
	0.211864	-0.330508	0.000000	1
	0.228814	-0.330508	0.000000	1
	0.245763	-0.330508	0.000000	1
	0.262712	-0.330508	0.000000	1
	0.279661	-0.330508	0.000000	1
	0.296610	-0.330508	0.000000	1
	0.313559	-0.330508	0.000000	1
	0.330508	-0.330508	0.000000	1
	0.347458	-0.330508	0.000000	1
	0.364407	-0.330508	0.000000	1
	0.381356	-0.330508	0.000000	1
	0.398305	-0.330508	0.000000	1
	0.415254	-0.330508	0.000000	1
	0.432203	-0.330508	0.000000	1
	0.449153	-0.330508	0.000000	1
	0.466102	-0.330508	0.000000	1
	0.483051	-0.330508	0.000000	1
	0.500000	-0.330508	0.000000	0
	-0.500000	-0.313559	0.000000	1
	-0.483051	-0.313559	0.000000	1
	-0.466102	-0.313559	0.000000	1
	-0.449153	-0.313559	0.000000	1
	-0.432203	-0.313559	0.000000	1
	-0.415254	-0.313559	0.000000	1
	-0.398305	-0.313559	0.000000	1
	-0.381356	-0.313559	0.000000	1
	-0.364407	-0.313559	0.000000	1
	-0.347458	-0.313559	0.000000	1
	-0.330508	-0.313559	0.000000	1
	-0.313559	-0.313559	0.000000	1
	-0.296610	-0.313559	0.000000	1
	-0.279661	-0.313559	0.000000	1
	-0.262712	-0.313559	0.000000	1
	-0.245763	-0.313559	0.000000	1
	-0.228814	-0.313559	0.000000	1
	-0.211864	-0.313559	0.000000	1
	-0.194915	-0.313559	0.000000	1
	-0.177966	-0.313559	0.000000	1
	-0.161017	-0.313559	0.000000	1
	-0.144068	-0.313559	0.000000	1
	-0.127119	-0.313559	0.000000	1
	-0.110169	-0.313559	0.000000	1
	-0.093220	-0.313559	0.000000	1
	-0.076271	-0.313559	0.000000	1
	-0.059322	-0.313559	0.000000	1
	-0.042373	-0.313559	0.000000	1
	-0.025424	-0.313559	0.000000	1
	-0.008475	-0.313559	0.000000	1
	0.008475	-0.313559	0.000000	1
	0.025424	-0.313559	0.000000	1
	0.042373	-0.313559	0.000000	1
	0.059322	-0.313559	0.000000	1
	0.076271	-0.313559	0.000000	1
	0.093220	-0.313559	0.000000	1
	0.110169	-0.313559	0.000000	1
	0.127119	-0.313559	0.000000	1
	0.144068	-0.313559	0.000000	1
	0.161017	-0.313559	0.000000	1
	0.177966	-0.313559	0.000000	1
	0.194915	-0.313559	0.000000	1
	0.211864	-0.313559	0.000000	1
	0.228814	-0.313559	0.000000	1
	0.245763	-0.313559	0.000000	1
	0.262712	-0.313559	0.000000	1
	0.279661	-0.313559	0.000000	1
	0.296610	-0.313559	0.000000	1
	0.313559	-0.313559	0.000000	1
	0.330508	-0.313559	0.000000	1
	0.347458	-0.313559	0.000000	1
	0.364407	-0.313559	0.000000	1
	0.381356	-0.313559	0.000000	1
	0.398305	-0.313559	0.000000	1
	0.415254	-0.313559	0.000000	1
	0.432203	-0.313559	0.000000	1
	0.449153	-0.313559	0.000000	1
	0.466102	-0.313559	0.000000	1
	0.483051	-0.313559	0.000000	1
	0.500000	-0.313559	0.000000	0
	-0.500000	-0.296610	0.000000	1
	-0.483051	-0.296610	0.000000	1
	-0.466102	-0.296610	0.000000	1
	-0.449153	-0.296610	0.000000	1
	-0.432203	-0.296610	0.000000	1
	-0.415254	-0.296610	0.000000	1
	-0.398305	-0.296610	0.000000	1
	-0.381356	-0.296610	0.000000	1
	-0.364407	-0.296610	0.000000	1
	-0.347458	-0.296610	0.000000	1
	-0.330508	-0.296610	0.000000	1
	-0.313559	-0.296610	0.000000	1
	-0.296610	-0.296610	0.000000	1
	-0.279661	-0.296610	0.000000	1
	-0.262712	-0.296610	0.000000	1
	-0.245763	-0.296610	0.000000	1
	-0.228814	-0.296610	0.000000	1
	-0.211864	-0.296610	0.000000	1
	-0.194915	-0.296610	0.000000	1
	-0.177966	-0.296610	0.000000	1
	-0.161017	-0.296610	0.000000	1
	-0.144068	-0.296610	0.000000	1
	-0.127119	-0.296610	0.000000	1
	-0.110169	-0.296610	0.000000	1
	-0.093220	-0.296610	0.000000	1
	-0.076271	-0.296610	0.000000	1
	-0.059322	-0.296610	0.000000	1
	-0.042373	-0.296610	0.000000	1
	-0.025424	-0.296610	0.000000	1
	-0.008475	-0.296610	0.000000	1
	0.008475	-0.296610	0.000000	1
	0.025424	-0.296610	0.000000	1
	0.042373	-0.296610	0.000000	1
	0.059322	-0.296610	0.000000	1
	0.076271	-0.296610	0.000000	1
	0.093220	-0.296610	0.000000	1
	0.110169	-0.296610	0.000000	1
	0.127119	-0.296610	0.000000	1
	0.144068	-0.296610	0.000000	1
	0.161017	-0.296610	0.000000	1
	0.177966	-0.296610	0.000000	1
	0.194915	-0.296610	0.000000	1
	0.211864	-0.296610	0.000000	1
	0.228814	-0.296610	0.000000	1
	0.245763	-0.296610	0.000000	1
	0.262712	-0.296610	0.000000	1
	0.279661	-0.296610	0.000000	1
	0.296610	-0.296610	0.000000	1
	0.313559	-0.296610	0.000000	1
	0.330508	-0.296610	0.000000	1
	0.347458	-0.296610	0.000000	1
	0.364407	-0.296610	0.000000	1
	0.381356	-0.296610	0.000000	1
	0.398305	-0.296610	0.000000	1
	0.415254	-0.296610	0.000000	1
	0.432203	-0.296610	0.000000	1
	0.449153	-0.296610	0.000000	1
	0.466102	-0.296610	0.000000	1
	0.483051	-0.296610	0.000000	1
	0.500000	-0.296610	0.000000	0
	-0.500000	-0.279661	0.000000	1
	-0.483051	-0.279661	0.000000	1
	-0.466102	-0.279661	0.000000	1
	-0.449153	-0.279661	0.000000	1
	-0.432203	-0.279661	0.000000	1
	-0.415254	-0.279661	0.000000	1
	-0.398305	-0.279661	0.000000	1
	-0.381356	-0.279661	0.000000	1
	-0.364407	-0.279661	0.000000	1
	-0.347458	-0.279661	0.000000	1
	-0.330508	-0.279661	0.000000	1
	-0.313559	-0.279661	0.000000	1
	-0.296610	-0.279661	0.000000	1
	-0.279661	-0.279661	0.000000	1
	-0.262712	-0.279661	0.000000	1
	-0.245763	-0.279661	0.000000	1
	-0.228814	-0.279661	0.000000	1
	-0.211864	-0.279661	0.000000	1
	-0.194915	-0.279661	0.000000	1
	-0.177966	-0.279661	0.000000	1
	-0.161017	-0.279661	0.000000	1
	-0.144068	-0.279661	0.000000	1
	-0.127119	-0.279661	0.000000	1
	-0.110169	-0.279661	0.000000	1
	-0.093220	-0.279661	0.000000	1
	-0.076271	-0.279661	0.000000	1
	-0.059322	-0.279661	0.000000	1
	-0.042373	-0.279661	0.000000	1
	-0.025424	-0.279661	0.000000	1
	-0.008475	-0.279661	0.000000	1
	0.008475	-0.279661	0.000000	1
	0.025424	-0.279661	0.000000	1
	0.042373	-0.279661	0.000000	1
	0.059322	-0.279661	0.000000	1
	0.076271	-0.279661	0.000000	1
	0.093220	-0.279661	0.000000	1
	0.110169	-0.279661	0.000000	1
	0.127119	-0.279661	0.000000	1
	0.144068	-0.279661	0.000000	1
	0.161017	-0.279661	0.000000	1
	0.177966	-0.279661	0.000000	1
	0.194915	-0.279661	0.000000	1
	0.211864	-0.279661	0.000000	1
	0.228814	-0.279661	0.000000	1
	0.245763	-0.279661	0.000000	1
	0.262712	-0.279661	0.000000	1
	0.279661	-0.279661	0.000000	1
	0.296610	-0.279661	0.000000	1
	0.313559	-0.279661	0.000000	1
	0.330508	-0.279661	0.000000	1
	0.347458	-0.279661	0.000000	1
	0.364407	-0.279661	0.000000	1
	0.381356	-0.279661	0.000000	1
	0.398305	-0.279661	0.000000	1
	0.415254	-0.279661	0.000000	1
	0.432203	-0.279661	0.000000	1
	0.449153	-0.279661	0.000000	1
	0.466102	-0.279661	0.000000	1
	0.483051	-0.279661	0.000000	1
	0.500000	-0.279661	0.000000	0
	-0.500000	-0.262712	0.000000	1
	-0.483051	-0.262712	0.000000	1
	-0.466102	-0.262712	0.000000	1
	-0.449153	-0.262712	0.000000	1
	-0.432203	-0.262712	0.000000	1
	-0.415254	-0.262712	0.000000	1
	-0.398305	-0.262712	0.000000	1
	-0.381356	-0.262712	0.000000	1
	-0.364407	-0.262712	0.000000	1
	-0.347458	-0.262712	0.000000	1
	-0.330508	-0.262712	0.000000	1
	-0.313559	-0.262712	0.000000	1
	-0.296610	-0.262712	0.000000	1
	-0.279661	-0.262712	0.000000	1
	-0.262712	-0.262712	0.000000	1
	-0.245763	-0.262712	0.000000	1
	-0.228814	-0.262712	0.000000	1
	-0.211864	-0.262712	0.000000	1
	-0.194915	-0.262712	0.000000	1
	-0.177966	-0.262712	0.000000	1
	-0.161017	-0.262712	0.000000	1
	-0.144068	-0.262712	0.000000	1
	-0.127119	-0.262712	0.000000	1
	-0.110169	-0.262712	0.000000	1
	-0.093220	-0.262712	0.000000	1
	-0.076271	-0.262712	0.000000	1
	-0.059322	-0.262712	0.000000	1
	-0.042373	-0.262712	0.000000	1
	-0.025424	-0.262712	0.000000	1
	-0.008475	-0.262712	0.000000	1
	0.008475	-0.262712	0.000000	1
	0.025424	-0.262712	0.000000	1
	0.042373	-0.262712	0.000000	1
	0.059322	-0.262712	0.000000	1
	0.076271	-0.262712	0.000000	1
	0.093220	-0.262712	0.000000	1
	0.110169	-0.262712	0.000000	1
	0.127119	-0.262712	0.000000	1
	0.144068	-0.262712	0.000000	1
	0.161017	-0.262712	0.000000	1
	0.177966	-0.262712	0.000000	1
	0.194915	-0.262712	0.000000	1
	0.211864	-0.262712	0.000000	1
	0.228814	-0.262712	0.000000	1
	0.245763	-0.262712	0.000000	1
	0.262712	-0.262712	0.000000	1
	0.279661	-0.262712	0.000000	1
	0.296610	-0.262712	0.000000	1
	0.313559	-0.262712	0.000000	1
	0.330508	-0.262712	0.000000	1
	0.347458	-0.262712	0.000000	1
	0.364407	-0.262712	0.000000	1
	0.381356	-0.262712	0.000000	1
	0.398305	-0.262712	0.000000	1
	0.415254	-0.262712	0.000000	1
	0.432203	-0.262712	0.000000	1
	0.449153	-0.262712	0.000000	1
	0.466102	-0.262712	0.000000	1
	0.483051	-0.262712	0.000000	1
	0.500000	-0.262712	0.000000	0
	-0.500000	-0.245763	0.000000	1
	-0.483051	-0.245763	0.000000	1
	-0.466102	-0.245763	0.000000	1
	-0.449153	-0.245763	0.000000	1
	-0.432203	-0.245763	0.000000	1
	-0.415254	-0.245763	0.000000	1
	-0.398305	-0.245763	0.000000	1
	-0.381356	-0.245763	0.000000	1
	-0.364407	-0.245763	0.000000	1
	-0.347458	-0.245763	0.000000	1
	-0.330508	-0.245763	0.000000	1
	-0.313559	-0.245763	0.000000	1
	-0.296610	-0.245763	0.000000	1
	-0.279661	-0.245763	0.000000	1
	-0.262712	-0.245763	0.000000	1
	-0.245763	-0.245763	0.000000	1
	-0.228814	-0.245763	0.000000	1
	-0.211864	-0.245763	0.000000	1
	-0.194915	-0.245763	0.000000	1
	-0.177966	-0.245763	0.000000	1
	-0.161017	-0.245763	0.000000	1
	-0.144068	-0.245763	0.000000	1
	-0.127119	-0.245763	0.000000	1
	-0.110169	-0.245763	0.000000	1
	-0.093220	-0.245763	0.000000	1
	-0.076271	-0.245763	0.000000	1
	-0.059322	-0.245763	0.000000	1
	-0.042373	-0.245763	0.000000	1
	-0.025424	-0.245763	0.000000	1
	-0.008475	-0.245763	0.000000	1
	0.008475	-0.245763	0.000000	1
	0.025424	-0.245763	0.000000	1
	0.042373	-0.245763	0.000000	1
	0.059322	-0.245763	0.000000	1
	0.076271	-0.245763	0.000000	1
	0.093220	-0.245763	0.000000	1
	0.110169	-0.245763	0.000000	1
	0.127119	-0.245763	0.000000	1
	0.144068	-0.245763	0.000000	1
	0.161017	-0.245763	0.000000	1
	0.177966	-0.245763	0.000000	1
	0.194915	-0.245763	0.000000	1
	0.211864	-0.245763	0.000000	1
	0.228814	-0.245763	0.000000	1
	0.245763	-0.245763	0.000000	1
	0.262712	-0.245763	0.000000	1
	0.279661	-0.245763	0.000000	1
	0.296610	-0.245763	0.000000	1
	0.313559	-0.245763	0.000000	1
	0.330508	-0.245763	0.000000	1