   2   2   0   0
  0.1050029E+02  0.3096817E-09  0.3096817E-09  0.3096817E-09  0.5000000E-15
  1.000000000000000E-004
  CAR 
 unknown system                          
     23.16392618     -8.79886041  301      8.35616645      1.00000000
     -8.799  0.0000E+00  0.0000E+00
     -8.692  0.0000E+00  0.0000E+00
     -8.586  0.0000E+00  0.0000E+00
     -8.479  0.0000E+00  0.0000E+00
     -8.373  0.0000E+00  0.0000E+00
     -8.266  0.0000E+00  0.0000E+00
     -8.160  0.0000E+00  0.0000E+00
     -8.053  0.0000E+00  0.0000E+00
     -7.947  0.0000E+00  0.0000E+00
     -7.840  0.1210E-13  0.1289E-14
     -7.733  0.1827E-09  0.1947E-10
     -7.627  0.3047E-06  0.3248E-07
     -7.520  0.5975E-04  0.6399E-05
     -7.414  0.1771E-02  0.1951E-03
     -7.307  0.1673E-01  0.1977E-02
     -7.201  0.6038E-01  0.8411E-02
     -7.094  0.6903E-01  0.1576E-01
     -6.988  0.1071E+00  0.2718E-01
     -6.881  0.1672E+00  0.4499E-01
     -6.775  0.9635E-01  0.5526E-01
     -6.668  0.1170E+00  0.6772E-01
     -6.561  0.2356E+00  0.9283E-01
     -6.455  0.1880E+00  0.1129E+00
     -6.348  0.2037E+00  0.1346E+00
     -6.242  0.1633E+00  0.1520E+00
     -6.135  0.1220E+00  0.1650E+00
     -6.029  0.3219E+00  0.1992E+00
     -5.922  0.3291E+00  0.2343E+00
     -5.816  0.2154E+00  0.2573E+00
     -5.709  0.2656E+00  0.2856E+00
     -5.603  0.1744E+00  0.3041E+00
     -5.496  0.2088E+00  0.3264E+00
     -5.389  0.3786E+00  0.3667E+00
     -5.283  0.3773E+00  0.4069E+00
     -5.176  0.4503E+00  0.4549E+00
     -5.070  0.2552E+00  0.4821E+00
     -4.963  0.1782E+00  0.5011E+00
     -4.857  0.3493E+00  0.5383E+00
     -4.750  0.3560E+00  0.5762E+00
     -4.644  0.4905E+00  0.6285E+00
     -4.537  0.3539E+00  0.6662E+00
     -4.431  0.4618E+00  0.7154E+00
     -4.324  0.6309E+00  0.7826E+00
     -4.218  0.2996E+00  0.8145E+00
     -4.111  0.3252E+00  0.8492E+00
     -4.004  0.4826E+00  0.9006E+00
     -3.898  0.5185E+00  0.9559E+00
     -3.791  0.7431E+00  0.1035E+01
     -3.685  0.8331E+00  0.1124E+01
     -3.578  0.7570E+00  0.1204E+01
     -3.472  0.4730E+00  0.1255E+01
     -3.365  0.3573E+00  0.1293E+01
     -3.259  0.6915E+00  0.1367E+01
     -3.152  0.7316E+00  0.1445E+01
     -3.046  0.5903E+00  0.1507E+01
     -2.939  0.6743E+00  0.1579E+01
     -2.832  0.6002E+00  0.1643E+01
     -2.726  0.4521E+00  0.1691E+01
     -2.619  0.5115E+00  0.1746E+01
     -2.513  0.7220E+00  0.1823E+01
     -2.406  0.7389E+00  0.1902E+01
     -2.300  0.5042E+00  0.1955E+01
     -2.193  0.3389E+00  0.1991E+01
     -2.087  0.7789E-01  0.2000E+01
     -1.980  0.3329E-02  0.2000E+01
     -1.874  0.2062E-04  0.2000E+01
     -1.767  0.1595E-07  0.2000E+01
     -1.661  0.1417E-11  0.2000E+01
     -1.554  0.0000E+00  0.2000E+01
     -1.447  0.0000E+00  0.2000E+01
     -1.341  0.0000E+00  0.2000E+01
     -1.234  0.0000E+00  0.2000E+01
     -1.128  0.0000E+00  0.2000E+01
     -1.021  0.0000E+00  0.2000E+01
     -0.915  0.3077E-13  0.2000E+01
     -0.808  0.7323E-09  0.2000E+01
     -0.702  0.1914E-05  0.2000E+01
     -0.595  0.5726E-03  0.2000E+01
     -0.489  0.2139E-01  0.2002E+01
     -0.382  0.1167E+00  0.2015E+01
     -0.275  0.1173E+00  0.2027E+01
     -0.169  0.1088E+00  0.2039E+01
     -0.062  0.3106E+00  0.2072E+01
      0.044  0.3432E+00  0.2109E+01
      0.151  0.3326E+00  0.2144E+01
      0.257  0.2576E+00  0.2171E+01
      0.364  0.3279E+00  0.2206E+01
      0.470  0.6777E+00  0.2279E+01
      0.577  0.1005E+01  0.2386E+01
      0.683  0.9620E+00  0.2488E+01
      0.790  0.9294E+00  0.2587E+01
      0.897  0.1210E+01  0.2716E+01
      1.003  0.1214E+01  0.2845E+01
      1.110  0.1053E+01  0.2958E+01
      1.216  0.6193E+00  0.3024E+01
      1.323  0.3289E+00  0.3059E+01
      1.429  0.4636E+00  0.3108E+01
      1.536  0.5133E+00  0.3163E+01
      1.642  0.5158E+00  0.3218E+01
      1.749  0.5088E+00  0.3272E+01
      1.855  0.3267E+00  0.3307E+01
      1.962  0.1866E+00  0.3327E+01
      2.068  0.2939E+00  0.3358E+01
      2.175  0.4911E+00  0.3410E+01
      2.282  0.2379E+00  0.3436E+01
      2.388  0.2391E+00  0.3461E+01
      2.495  0.4978E+00  0.3514E+01
      2.601  0.6190E+00  0.3580E+01
      2.708  0.4892E+00  0.3632E+01
      2.814  0.5669E+00  0.3693E+01
      2.921  0.6827E+00  0.3765E+01
      3.027  0.6697E+00  0.3837E+01
      3.134  0.8651E+00  0.3929E+01
      3.240  0.7499E+00  0.4009E+01
      3.347  0.5154E+00  0.4064E+01
      3.454  0.4313E+00  0.4110E+01
      3.560  0.7234E+00  0.4187E+01
      3.667  0.1033E+01  0.4297E+01
      3.773  0.1079E+01  0.4412E+01
      3.880  0.6318E+00  0.4479E+01
      3.986  0.4457E+00  0.4526E+01
      4.093  0.5193E+00  0.4582E+01
      4.199  0.5314E+00  0.4638E+01
      4.306  0.7033E+00  0.4713E+01
      4.412  0.1386E+01  0.4861E+01
      4.519  0.1407E+01  0.5011E+01
      4.626  0.8926E+00  0.5106E+01
      4.732  0.7074E+00  0.5181E+01
      4.839  0.7699E+00  0.5263E+01
      4.945  0.1089E+01  0.5379E+01
      5.052  0.1021E+01  0.5488E+01
      5.158  0.9853E+00  0.5593E+01
      5.265  0.1578E+01  0.5761E+01
      5.371  0.1383E+01  0.5909E+01
      5.478  0.8735E+00  0.6002E+01
      5.584  0.8390E+00  0.6091E+01
      5.691  0.1083E+01  0.6207E+01
      5.797  0.1235E+01  0.6338E+01
      5.904  0.1208E+01  0.6467E+01
      6.011  0.1061E+01  0.6580E+01
      6.117  0.7926E+00  0.6664E+01
      6.224  0.8163E+00  0.6751E+01
      6.330  0.1197E+01  0.6879E+01
      6.437  0.1153E+01  0.7002E+01
      6.543  0.8844E+00  0.7096E+01
      6.650  0.1252E+01  0.7229E+01
      6.756  0.1258E+01  0.7363E+01
      6.863  0.7630E+00  0.7445E+01
      6.969  0.8074E+00  0.7531E+01
      7.076  0.9069E+00  0.7627E+01
      7.183  0.4790E+00  0.7678E+01
      7.289  0.5146E+00  0.7733E+01
      7.396  0.7413E+00  0.7812E+01
      7.502  0.5276E+00  0.7868E+01
      7.609  0.4244E+00  0.7913E+01
      7.715  0.3281E+00  0.7948E+01
      7.822  0.2281E+00  0.7973E+01
      7.928  0.1806E+00  0.7992E+01
      8.035  0.6929E-01  0.7999E+01
      8.141  0.6209E-02  0.8000E+01
      8.248  0.9884E-04  0.8000E+01
      8.355  0.2360E-06  0.8000E+01
      8.461  0.7318E-10  0.8000E+01
      8.568  0.2658E-14  0.8000E+01
      8.674  0.0000E+00  0.8000E+01
      8.781  0.0000E+00  0.8000E+01
      8.887  0.7635E-13  0.8000E+01
      8.994  0.1141E-08  0.8000E+01
      9.100  0.1878E-05  0.8000E+01
      9.207  0.3557E-03  0.8000E+01
      9.313  0.8389E-02  0.8001E+01
      9.420  0.2773E-01  0.8004E+01
      9.526  0.1735E-01  0.8006E+01
      9.633  0.3629E-01  0.8010E+01
      9.740  0.5341E-01  0.8015E+01
      9.846  0.5045E-01  0.8021E+01
      9.953  0.1409E+00  0.8036E+01
     10.059  0.1261E+00  0.8049E+01
     10.166  0.1186E+00  0.8062E+01
     10.272  0.7045E-01  0.8069E+01
     10.379  0.1130E+00  0.8081E+01
     10.485  0.6681E-01  0.8088E+01
     10.592  0.1133E+00  0.8100E+01
     10.698  0.2494E+00  0.8127E+01
     10.805  0.2926E+00  0.8158E+01
     10.912  0.2970E+00  0.8190E+01
     11.018  0.3263E+00  0.8225E+01
     11.125  0.2005E+00  0.8246E+01
     11.231  0.9046E-01  0.8256E+01
     11.338  0.5038E-01  0.8261E+01
     11.444  0.2186E+00  0.8284E+01
     11.551  0.3426E+00  0.8321E+01
     11.657  0.4756E+00  0.8371E+01
     11.764  0.4790E+00  0.8423E+01
     11.870  0.5559E+00  0.8482E+01
     11.977  0.4764E+00  0.8532E+01
     12.083  0.3670E+00  0.8572E+01
     12.190  0.3704E+00  0.8611E+01
     12.297  0.3269E+00  0.8646E+01
     12.403  0.2668E+00  0.8674E+01
     12.510  0.3432E+00  0.8711E+01
     12.616  0.4645E+00  0.8760E+01
     12.723  0.8034E+00  0.8846E+01
     12.829  0.1147E+01  0.8968E+01
     12.936  0.1152E+01  0.9091E+01
     13.042  0.1326E+01  0.9232E+01
     13.149  0.9571E+00  0.9334E+01
     13.255  0.5262E+00  0.9390E+01
     13.362  0.7247E+00  0.9467E+01
     13.469  0.6429E+00  0.9536E+01
     13.575  0.7530E+00  0.9616E+01
     13.682  0.8064E+00  0.9702E+01
     13.788  0.8491E+00  0.9793E+01
     13.895  0.9242E+00  0.9891E+01
     14.001  0.9274E+00  0.9990E+01
     14.108  0.9946E+00  0.1010E+02
     14.214  0.5422E+00  0.1015E+02
     14.321  0.3193E+00  0.1019E+02
     14.427  0.3040E+00  0.1022E+02
     14.534  0.5601E+00  0.1028E+02
     14.641  0.5618E+00  0.1034E+02
     14.747  0.5082E+00  0.1039E+02
     14.854  0.4779E+00  0.1044E+02
     14.960  0.7485E+00  0.1052E+02
     15.067  0.7198E+00  0.1060E+02
     15.173  0.6743E+00  0.1067E+02
     15.280  0.1480E+01  0.1083E+02
     15.386  0.2296E+01  0.1108E+02
     15.493  0.2264E+01  0.1132E+02
     15.599  0.2224E+01  0.1155E+02
     15.706  0.1566E+01  0.1172E+02
     15.812  0.9098E+00  0.1182E+02
     15.919  0.6701E+00  0.1189E+02
     16.026  0.7013E+00  0.1196E+02
     16.132  0.7272E+00  0.1204E+02
     16.239  0.9239E+00  0.1214E+02
     16.345  0.1732E+01  0.1232E+02
     16.452  0.1333E+01  0.1247E+02
     16.558  0.1096E+01  0.1258E+02
     16.665  0.1602E+01  0.1275E+02
     16.771  0.1302E+01  0.1289E+02
     16.878  0.7864E+00  0.1298E+02
     16.984  0.8923E+00  0.1307E+02
     17.091  0.9765E+00  0.1317E+02
     17.198  0.1136E+01  0.1330E+02
     17.304  0.9444E+00  0.1340E+02
     17.411  0.6747E+00  0.1347E+02
     17.517  0.8228E+00  0.1356E+02
     17.624  0.9581E+00  0.1366E+02
     17.730  0.6194E+00  0.1372E+02
     17.837  0.7417E+00  0.1380E+02
     17.943  0.1425E+01  0.1395E+02
     18.050  0.1291E+01  0.1409E+02
     18.156  0.1528E+01  0.1426E+02
     18.263  0.1298E+01  0.1439E+02
     18.370  0.1126E+01  0.1451E+02
     18.476  0.8457E+00  0.1460E+02
     18.583  0.5178E+00  0.1466E+02
     18.689  0.4004E+00  0.1470E+02
     18.796  0.1028E+01  0.1481E+02
     18.902  0.1264E+01  0.1495E+02
     19.009  0.6257E+00  0.1501E+02
     19.115  0.2804E+00  0.1504E+02
     19.222  0.6411E+00  0.1511E+02
     19.328  0.1124E+01  0.1523E+02
     19.435  0.9165E+00  0.1533E+02
     19.541  0.6777E+00  0.1540E+02
     19.648  0.7567E+00  0.1548E+02
     19.755  0.4832E+00  0.1553E+02
     19.861  0.2105E+00  0.1555E+02
     19.968  0.2122E+00  0.1558E+02
     20.074  0.3024E+00  0.1561E+02
     20.181  0.2422E+00  0.1564E+02
     20.287  0.4537E-01  0.1564E+02
     20.394  0.1075E+00  0.1565E+02
     20.500  0.3131E+00  0.1568E+02
     20.607  0.3591E+00  0.1572E+02
     20.713  0.4827E+00  0.1577E+02
     20.820  0.4465E+00  0.1582E+02
     20.927  0.3685E+00  0.1586E+02
     21.033  0.4146E+00  0.1591E+02
     21.140  0.1615E+00  0.1592E+02
     21.246  0.7375E-01  0.1593E+02
     21.353  0.1092E+00  0.1594E+02
     21.459  0.4420E-01  0.1595E+02
     21.566  0.8619E-01  0.1596E+02
     21.672  0.1867E+00  0.1598E+02
     21.779  0.1818E+00  0.1600E+02
     21.885  0.4185E-01  0.1600E+02
     21.992  0.1561E-02  0.1600E+02
     22.098  0.7706E-05  0.1600E+02
     22.205  0.4503E-08  0.1600E+02
     22.312  0.2942E-12  0.1600E+02
     22.418  0.0000E+00  0.1600E+02
     22.525  0.0000E+00  0.1600E+02
     22.631  0.0000E+00  0.1600E+02
     22.738  0.0000E+00  0.1600E+02
     22.844  0.0000E+00  0.1600E+02
     22.951  0.0000E+00  0.1600E+02
     23.057  0.0000E+00  0.1600E+02
     23.164  0.0000E+00  0.1600E+02
