    2    2    1    1
  0.1050029E+02  0.3096817E-09  0.3096817E-09  0.3096817E-09  0.5000000E-15
  1.000000000000000E-004
  CAR 
 unknown system                          
      8     84      8
 
  0.0000000E+00  0.0000000E+00  0.0000000E+00  0.4551661E-03
    1       -7.346006   1.000000
    2        7.941337   1.000000
    3        7.941337   1.000000
    4        7.941337   1.000000
    5       14.001975   0.000000
    6       15.146905   0.000000
    7       15.146905   0.000000
    8       15.146905   0.000000
 
  0.7692308E-01  0.0000000E+00  0.0000000E+00  0.3641329E-02
    1       -7.231641   1.000000
    2        7.314472   1.000000
    3        7.860113   1.000000
    4        7.860114   1.000000
    5       14.237382   0.000000
    6       15.254476   0.000000
    7       15.297303   0.000000
    8       15.297303   0.000000
 
  0.1538462E+00  0.0000000E+00  0.0000000E+00  0.3641329E-02
    1       -6.891385   1.000000
    2        5.861144   1.000000
    3        7.653770   1.000000
    4        7.653771   1.000000
    5       14.196097   0.000000
    6       15.616146   0.000000
    7       15.616146   0.000000
    8       15.992407   0.000000
 
  0.2307692E+00  0.0000000E+00  0.0000000E+00  0.3641329E-02
    1       -6.335396   1.000000
    2        4.120325   1.000000
    3        7.399939   1.000000
    4        7.399939   1.000000
    5       13.881678   0.000000
    6       15.773393   0.000000
    7       15.773393   0.000000
    8       16.956908   0.000000
 
  0.3076923E+00  0.0000000E+00  0.0000000E+00  0.3641329E-02
    1       -5.588779   1.000000
    2        2.368716   1.000000
    3        7.166298   1.000000
    4        7.166299   1.000000
    5       13.579066   0.000000
    6       15.605669   0.000000
    7       15.605669   0.000000
    8       17.626035   0.000000
 
  0.3846154E+00  0.0000000E+00  0.0000000E+00  0.3641329E-02
    1       -4.719775   1.000000
    2        0.787010   1.000000
    3        6.994304   1.000000
    4        6.994304   1.000000
    5       13.364163   0.000000
    6       15.320954   0.000000
    7       15.320954   0.000000
    8       17.880415   0.000000
 
  0.4615385E+00  0.0000000E+00  0.0000000E+00  0.3641329E-02
    1       -3.967159   1.000000
    2       -0.332889   1.000000
    3        6.904412   1.000000
    4        6.904412   1.000000
    5       13.255500   0.000000
    6       15.134021   0.000000
    7       15.134021   0.000000
    8       17.914228   0.000000
 
  0.7692308E-01  0.7692308E-01  0.0000000E+00  0.2730997E-02
    1       -7.193523   1.000000
    2        7.468848   1.000000
    3        7.650851   1.000000
    4        7.650851   1.000000
    5       14.361543   0.000000
    6       14.803330   0.000000
    7       15.574277   0.000000
    8       15.574277   0.000000
 
  0.1538462E+00  0.7692308E-01  0.0000000E+00  0.1092399E-01
    1       -6.928422   1.000000
    2        6.341795   1.000000
    3        7.352068   1.000000
    4        7.576962   1.000000
    5       14.303823   0.000000
    6       14.959398   0.000000
    7       16.027460   0.000000
    8       16.112427   0.000000
 
  0.2307692E+00  0.7692308E-01  0.0000000E+00  0.1092399E-01
    1       -6.443856   1.000000
    2        4.719904   1.000000
    3        7.055151   1.000000
    4        7.373325   1.000000
    5       14.051702   0.000000
    6       15.326478   0.000000
    7       16.342290   0.000000
    8       16.605560   0.000000
 
  0.3076923E+00  0.7692308E-01  0.0000000E+00  0.1092399E-01
    1       -5.758602   1.000000
    2        2.989916   1.000000
    3        6.825128   1.000000
    4        7.077612   1.000000
    5       13.779373   0.000000
    6       15.321595   0.000000
    7       16.270299   0.000000
    8       17.193577   0.000000
 
  0.3846154E+00  0.7692308E-01  0.0000000E+00  0.1092399E-01
    1       -4.920701   1.000000
    2        1.353998   1.000000
    3        6.696857   1.000000
    4        6.775568   1.000000
    5       13.572832   0.000000
    6       15.035295   0.000000
    7       15.939559   0.000000
    8       17.894924   0.000000
 
  0.4615385E+00  0.7692308E-01  0.0000000E+00  0.1092399E-01
    1       -4.084600   1.000000
    2        0.041555   1.000000
    3        6.523793   1.000000
    4        6.682679   1.000000
    5       13.478635   0.000000
    6       14.823036   0.000000
    7       15.604713   0.000000
    8       18.298834   0.000000
 
 -0.4615385E+00  0.7692308E-01  0.0000000E+00  0.1092399E-01
    1       -3.764938   1.000000
    2       -0.398914   1.000000
    3        6.357880   1.000000
    4        6.779115   1.000000
    5       13.505283   0.000000
    6       14.803036   0.000000
    7       15.409270   0.000000
    8       18.405449   0.000000
 
 -0.3846154E+00  0.7692308E-01  0.0000000E+00  0.1092399E-01
    1       -4.343467   1.000000
    2        0.421833   1.000000
    3        6.301013   1.000000
    4        6.970550   1.000000
    5       13.634206   0.000000
    6       15.004189   0.000000
    7       15.398985   0.000000
    8       18.287610   0.000000
 
 -0.3076923E+00  0.7692308E-01  0.0000000E+00  0.1092399E-01
    1       -5.212162   1.000000
    2        1.879436   1.000000
    3        6.366929   1.000000
    4        7.229823   1.000000
    5       13.846417   0.000000
    6       15.378916   0.000000
    7       15.537366   0.000000
    8       17.859283   0.000000
 
 -0.2307692E+00  0.7692308E-01  0.0000000E+00  0.1092399E-01
    1       -6.007913   1.000000
    2        3.562320   1.000000
    3        6.559573   1.000000
    4        7.515276   1.000000
    5       14.132128   0.000000
    6       15.667614   0.000000
    7       15.709004   0.000000
    8       17.159297   0.000000
 
 -0.1538462E+00  0.7692308E-01  0.0000000E+00  0.1092399E-01
    1       -6.629325   1.000000
    2        5.258275   1.000000
    3        6.874965   1.000000
    4        7.765295   1.000000
    5       14.455503   0.000000
    6       15.477863   0.000000
    7       15.566551   0.000000
    8       16.601613   0.000000
 
 -0.7692308E-01  0.7692308E-01  0.0000000E+00  0.5461994E-02
    1       -7.041935   1.000000
    2        6.651764   1.000000
    3        7.339312   1.000000
    4        7.901019   1.000000
    5       14.527329   0.000000
    6       15.072216   0.000000
    7       15.333612   0.000000
    8       16.022093   0.000000
 
  0.1538462E+00  0.1538462E+00  0.0000000E+00  0.2730997E-02
    1       -6.739471   1.000000
    2        6.357647   1.000000
    3        6.971815   1.000000
    4        6.971815   1.000000
    5       13.613009   0.000000
    6       15.149559   0.000000
    7       16.647936   0.000000
    8       16.647936   0.000000
 
  0.2307692E+00  0.1538462E+00  0.0000000E+00  0.1092399E-01
    1       -6.329695   1.000000
    2        5.181226   1.000000
    3        6.617343   1.000000
    4        6.760013   1.000000
    5       13.221841   0.000000
    6       15.175190   0.000000
    7       16.889465   0.000000
    8       17.186543   0.000000
 
  0.3076923E+00  0.1538462E+00  0.0000000E+00  0.1092399E-01
    1       -5.713701   1.000000
    2        3.626315   1.000000
    3        6.355993   1.000000
    4        6.422232   1.000000
    5       13.044264   0.000000
    6       15.455823   0.000000
    7       16.660605   0.000000
    8       17.331209   0.000000
 
  0.3846154E+00  0.1538462E+00  0.0000000E+00  0.1092399E-01
    1       -4.927201   1.000000
    2        2.040587   1.000000
    3        5.981037   1.000000
    4        6.222945   1.000000
    5       12.891000   0.000000
    6       15.680297   0.000000
    7       17.032908   0.000000
    8       17.077902   0.000000
 
  0.4615385E+00  0.1538462E+00  0.0000000E+00  0.1092399E-01
    1       -4.073982   1.000000
    2        0.647751   1.000000
    3        5.557843   1.000000
    4        6.231028   1.000000
    5       12.851739   0.000000
    6       15.538591   0.000000
    7       16.685386   0.000000
    8       18.078470   0.000000
 
 -0.4615385E+00  0.1538462E+00  0.0000000E+00  0.1092399E-01
    1       -3.514928   1.000000
    2       -0.132085   1.000000
    3        5.227714   1.000000
    4        6.376385   1.000000
    5       13.006095   0.000000
    6       15.401088   0.000000
    7       16.349583   0.000000
    8       18.859434   0.000000
 
 -0.3846154E+00  0.1538462E+00  0.0000000E+00  0.1092399E-01
    1       -3.829402   1.000000
    2        0.300209   1.000000
    3        5.036553   1.000000
    4        6.639809   1.000000
    5       13.366221   0.000000
    6       15.360582   0.000000
    7       16.152160   0.000000
    8       18.823596   0.000000
 
 -0.3076923E+00  0.1538462E+00  0.0000000E+00  0.1092399E-01
    1       -4.648260   1.000000
    2        1.558649   1.000000
    3        5.019766   1.000000
    4        6.984169   1.000000
    5       13.892325   0.000000
    6       15.434848   0.000000
    7       16.086490   0.000000
    8       18.101404   0.000000
 
 -0.2307692E+00  0.1538462E+00  0.0000000E+00  0.1092399E-01
    1       -5.473384   1.000000
    2        3.065873   1.000000
    3        5.229460   1.000000
    4        7.348607   1.000000
    5       14.486123   0.000000
    6       15.545375   0.000000
    7       16.032193   0.000000
    8       17.162077   0.000000
 
 -0.1538462E+00  0.1538462E+00  0.0000000E+00  0.5461994E-02
    1       -6.150138   1.000000
    2        4.414143   1.000000
    3        5.824221   1.000000
    4        7.643627   1.000000
    5       14.967560   0.000000
    6       15.252677   0.000000
    7       15.810721   0.000000
    8       16.747221   0.000000
 
  0.2307692E+00  0.2307692E+00  0.0000000E+00  0.2730997E-02
    1       -5.996046   1.000000
    2        4.967239   1.000000
    3        6.207117   1.000000
    4        6.207117   1.000000
    5       12.297403   0.000000
    6       14.506993   0.000000
    7       18.026484   0.000000
    8       18.026484   0.000000
 
  0.3076923E+00  0.2307692E+00  0.0000000E+00  0.1092399E-01
    1       -5.454455   1.000000
    2        3.923642   1.000000
    3        5.802441   1.000000
    4        5.899100   1.000000
    5       11.878481   0.000000
    6       14.217213   0.000000
    7       18.128880   0.000000
    8       18.516063   0.000000
 
  0.3846154E+00  0.2307692E+00  0.0000000E+00  0.1092399E-01
    1       -4.733258   1.000000
    2        2.614605   1.000000
    3        5.190859   1.000000
    4        5.732288   1.000000
    5       11.784437   0.000000
    6       14.657810   0.000000
    7       17.939396   0.000000
    8       18.486943   0.000000
 
  0.4615385E+00  0.2307692E+00  0.0000000E+00  0.1092399E-01
    1       -3.907917   1.000000
    2        1.322669   1.000000
    3        4.541070   1.000000
    4        5.722643   1.000000
    5       11.815915   0.000000
    6       15.618588   0.000000
    7       17.913572   0.000000
    8       18.141872   0.000000
 
 -0.4615385E+00  0.2307692E+00  0.0000000E+00  0.1092399E-01
    1       -3.223268   1.000000
    2        0.393352   1.000000
    3        4.008753   1.000000
    4        5.869670   1.000000
    5       12.017809   0.000000
    6       16.357991   0.000000
    7       17.730637   0.000000
    8       18.427490   0.000000
 
 -0.3846154E+00  0.2307692E+00  0.0000000E+00  0.1092399E-01
    1       -3.243308   1.000000
    2        0.435559   1.000000
    3        3.670785   1.000000
    4        6.157363   1.000000
    5       12.431893   0.000000
    6       16.546142   0.000000
    7       17.366766   0.000000
    8       18.951202   0.000000
 
 -0.3076923E+00  0.2307692E+00  0.0000000E+00  0.1092399E-01
    1       -3.940203   1.000000
    2        1.384184   1.000000
    3        3.607653   1.000000
    4        6.549946   1.000000
    5       13.053473   0.000000
    6       16.543897   0.000000
    7       17.034513   0.000000
    8       18.264546   0.000000
 
 -0.2307692E+00  0.2307692E+00  0.0000000E+00  0.5461994E-02
    1       -4.759967   1.000000
    2        2.434721   1.000000
    3        4.056878   1.000000
    4        6.982273   1.000000
    5       13.826386   0.000000
    6       16.281825   0.000000
    7       16.597460   0.000000
    8       17.357585   0.000000
 
  0.3076923E+00  0.3076923E+00  0.0000000E+00  0.2730997E-02
    1       -4.990108   1.000000
    2        3.428891   1.000000
    3        5.541155   1.000000
    4        5.541155   1.000000
    5       10.960920   0.000000
    6       13.399303   0.000000
    7       19.473629   0.000000
    8       19.473629   0.000000
 
  0.3846154E+00  0.3076923E+00  0.0000000E+00  0.1092399E-01
    1       -4.345084   1.000000
    2        2.527938   1.000000
    3        4.998615   1.000000
    4        5.327654   1.000000
    5       10.686332   0.000000
    6       13.304290   0.000000
    7       19.597226   0.000000
    8       19.862300   0.000000
 
  0.4615385E+00  0.3076923E+00  0.0000000E+00  0.1092399E-01
    1       -3.581860   1.000000
    2        1.591179   1.000000
    3        4.085816   1.000000
    4        5.278889   1.000000
    5       10.827272   0.000000
    6       14.025701   0.000000
    7       19.429669   0.000000
    8       19.708462   0.000000
 
 -0.4615385E+00  0.3076923E+00  0.0000000E+00  0.1092399E-01
    1       -2.882476   1.000000
    2        0.845985   1.000000
    3        3.203138   1.000000
    4        5.398408   1.000000
    5       11.117733   0.000000
    6       15.331230   0.000000
    7       19.286284   0.000000
    8       19.309608   0.000000
 
 -0.3846154E+00  0.3076923E+00  0.0000000E+00  0.1092399E-01
    1       -2.692387   1.000000
    2        0.712379   1.000000
    3        2.617967   1.000000
    4        5.674935   1.000000
    5       11.573298   0.000000
    6       16.665274   0.000000
    7       18.737296   0.000000
    8       19.316875   0.000000
 
 -0.3076923E+00  0.3076923E+00  0.0000000E+00  0.5461994E-02
    1       -3.193018   1.000000
    2        1.154415   1.000000
    3        2.636240   1.000000
    4        6.078524   1.000000
    5       12.225403   0.000000
    6       17.225044   0.000000
    7       18.005925   0.000000
    8       18.775161   0.000000
 
  0.3846154E+00  0.3846154E+00  0.0000000E+00  0.2730997E-02
    1       -3.786839   1.000000
    2        1.829772   1.000000
    3        5.063650   1.000000
    4        5.063650   1.000000
    5        9.924319   0.000000
    6       12.633708   0.000000
    7       20.795695   0.000000
    8       20.795697   0.000000
 
  0.4615385E+00  0.3846154E+00  0.0000000E+00  0.1092399E-01
    1       -3.123896   1.000000
    2        1.087301   1.000000
    3        4.497782   1.000000
    4        4.966015   1.000000
    5        9.915294   0.000000
    6       12.759685   0.000000
    7       20.924143   0.000000
    8       21.021821   0.000000
 
 -0.4615385E+00  0.3846154E+00  0.0000000E+00  0.1092399E-01
    1       -2.535553   1.000000
    2        0.615106   1.000000
    3        3.481654   1.000000
    4        5.042572   1.000000
    5       10.337652   0.000000
    6       13.706651   0.000000
    7       20.676564   0.000000
    8       20.770184   0.000000
 
 -0.3846154E+00  0.3846154E+00  0.0000000E+00  0.5461994E-02
    1       -2.366145   1.000000
    2        0.649085   1.000000
    3        2.602840   1.000000
    4        5.286711   1.000000
    5       10.883372   0.000000
    6       15.218582   0.000000
    7       19.908397   0.000000
    8       20.437976   0.000000
 
  0.4615385E+00  0.4615385E+00  0.0000000E+00  0.2730997E-02
    1       -2.635721   1.000000
    2        0.459333   1.000000
    3        4.816476   1.000000
    4        4.816476   1.000000
    5        9.380686   0.000000
    6       12.258854   0.000000
    7       21.676010   0.000000
    8       21.676029   0.000000
 
 -0.4615385E+00  0.4615385E+00  0.0000000E+00  0.5461994E-02
    1       -2.376485   1.000000
    2        0.253294   1.000000
    3        4.330880   1.000000
    4        4.842712   1.000000
    5        9.654821   0.000000
    6       12.580301   0.000000
    7       21.535809   0.000000
    8       21.620743   0.000000
 
  0.2307692E+00  0.1538462E+00  0.7692308E-01  0.1092399E-01
    1       -6.590939   1.000000
    2        5.530394   1.000000
    3        6.619196   1.000000
    4        7.496921   1.000000
    5       14.107032   0.000000
    6       15.186718   0.000000
    7       16.339582   0.000000
    8       16.572481   0.000000
 
  0.3076923E+00  0.1538462E+00  0.7692308E-01  0.2184797E-01
    1       -6.040156   1.000000
    2        4.134059   1.000000
    3        6.074108   1.000000
    4        7.294856   1.000000
    5       13.988022   0.000000
    6       15.466707   0.000000
    7       16.470233   0.000000
    8       16.702980   0.000000
 
  0.3846154E+00  0.1538462E+00  0.7692308E-01  0.2184797E-01
    1       -5.301913   1.000000
    2        2.523444   1.000000
    3        5.778157   1.000000
    4        6.979608   1.000000
    5       13.795867   0.000000
    6       15.291485   0.000000
    7       16.582991   0.000000
    8       17.154403   0.000000
 
  0.4615385E+00  0.1538462E+00  0.7692308E-01  0.2184797E-01
    1       -4.446009   1.000000
    2        1.013052   1.000000
    3        5.635632   1.000000
    4        6.670218   1.000000
    5       13.626860   0.000000
    6       14.906955   0.000000
    7       16.415351   0.000000
    8       18.103713   0.000000
 
 -0.4615385E+00  0.1538462E+00  0.7692308E-01  0.2184797E-01
    1       -3.710935   1.000000
    2       -0.066221   1.000000
    3        5.592262   1.000000
    4        6.473520   1.000000
    5       13.542027   0.000000
    6       14.666190   0.000000
    7       16.281911   0.000000
    8       18.746735   0.000000
 
  0.3076923E+00  0.2307692E+00  0.7692308E-01  0.1092399E-01
    1       -5.853705   1.000000
    2        4.353812   1.000000
    3        5.817173   1.000000
    4        6.627128   1.000000
    5       12.839225   0.000000
    6       14.975902   0.000000
    7       16.986923   0.000000
    8       17.807577   0.000000
 
  0.3846154E+00  0.2307692E+00  0.7692308E-01  0.2184797E-01
    1       -5.183345   1.000000
    2        3.093223   1.000000
    3        5.244805   1.000000
    4        6.325023   1.000000
    5       12.752473   0.000000
    6       15.240874   0.000000
    7       16.719225   0.000000
    8       18.128524   0.000000
 
  0.4615385E+00  0.2307692E+00  0.7692308E-01  0.2184797E-01
    1       -4.369985   1.000000
    2        1.692876   1.000000
    3        4.886836   1.000000
    4        6.002497   1.000000
    5       12.714797   0.000000
    6       15.662683   0.000000
    7       16.854741   0.000000
    8       18.095755   0.000000
 
 -0.4615385E+00  0.2307692E+00  0.7692308E-01  0.2184797E-01
    1       -3.572441   1.000000
    2        0.513964   1.000000
    3        4.601763   1.000000
    4        5.863517   1.000000
    5       12.779870   0.000000
    6       15.518321   0.000000
    7       17.531431   0.000000
    8       18.320078   0.000000
 
 -0.3846154E+00  0.2307692E+00  0.7692308E-01  0.2184797E-01
    1       -3.279508   1.000000
    2        0.126841   1.000000
    3        4.375513   1.000000
    4        5.966680   1.000000
    5       13.001551   0.000000
    6       15.319691   0.000000
    7       17.555060   0.000000
    8       18.895188   0.000000
 
 -0.3076923E+00  0.2307692E+00  0.7692308E-01  0.2184797E-01
    1       -3.826806   1.000000
    2        0.879644   1.000000
    3        4.277654   1.000000
    4        6.259589   1.000000
    5       13.362193   0.000000
    6       15.266512   0.000000
    7       17.460726   0.000000
    8       18.304371   0.000000
 
 -0.2307692E+00  0.2307692E+00  0.7692308E-01  0.2184797E-01
    1       -4.660985   1.000000
    2        2.155148   1.000000
    3        4.404469   1.000000
    4        6.658589   1.000000
    5       13.771234   0.000000
    6       15.401255   0.000000
    7       16.943210   0.000000
    8       17.595238   0.000000
 
 -0.1538462E+00  0.2307692E+00  0.7692308E-01  0.1092399E-01
    1       -5.433545   1.000000
    2        3.362169   1.000000
    3        4.961058   1.000000
    4        7.052765   1.000000
    5       14.029285   0.000000
    6       15.573664   0.000000
    7       16.295206   0.000000
    8       17.210163   0.000000
 
  0.3846154E+00  0.3076923E+00  0.7692308E-01  0.1092399E-01
    1       -4.859406   1.000000
    2        3.116049   1.000000
    3        5.124742   1.000000
    4        5.655333   1.000000
    5       11.556383   0.000000
    6       13.993959   0.000000
    7       18.192125   0.000000
    8       19.362799   0.000000
 
  0.4615385E+00  0.3076923E+00  0.7692308E-01  0.2184797E-01
    1       -4.109962   1.000000
    2        2.104121   1.000000
    3        4.438541   1.000000
    4        5.332423   1.000000
    5       11.654312   0.000000
    6       14.503352   0.000000
    7       17.880638   0.000000
    8       19.660465   0.000000
 
 -0.4615385E+00  0.3076923E+00  0.7692308E-01  0.2184797E-01
    1       -3.321741   1.000000
    2        1.098694   1.000000
    3        3.766264   1.000000
    4        5.239092   1.000000
    5       11.860906   0.000000
    6       15.560164   0.000000
    7       17.640113   0.000000
    8       19.557718   0.000000
 
 -0.3846154E+00  0.3076923E+00  0.7692308E-01  0.2184797E-01
    1       -2.846285   1.000000
    2        0.545939   1.000000
    3        3.251362   1.000000
    4        5.389422   1.000000
    5       12.183409   0.000000
    6       16.302797   0.000000
    7       17.959512   0.000000
    8       19.321362   0.000000
 
 -0.3076923E+00  0.3076923E+00  0.7692308E-01  0.2184797E-01
    1       -3.143672   1.000000
    2        0.923007   1.000000
    3        3.018074   1.000000
    4        5.726971   1.000000
    5       12.658213   0.000000
    6       16.293535   0.000000
    7       18.204112   0.000000
    8       18.824399   0.000000
 
 -0.2307692E+00  0.3076923E+00  0.7692308E-01  0.1092399E-01
    1       -3.890502   1.000000
    2        1.692123   1.000000
    3        3.322259   1.000000
    4        6.185024   1.000000
    5       13.251372   0.000000
    6       15.979736   0.000000
    7       17.354222   0.000000
    8       18.379051   0.000000
 
  0.4615385E+00  0.3846154E+00  0.7692308E-01  0.1092399E-01
    1       -3.679159   1.000000
    2        1.768324   1.000000
    3        4.634834   1.000000
    4        4.883764   1.000000
    5       10.593756   0.000000
    6       13.288603   0.000000
    7       19.532020   0.000000
    8       20.779234   0.000000
 
 -0.4615385E+00  0.3846154E+00  0.7692308E-01  0.2184797E-01
    1       -2.963597   1.000000
    2        1.090058   1.000000
    3        3.740410   1.000000
    4        4.746691   1.000000
    5       10.967825   0.000000
    6       14.035799   0.000000
    7       19.173629   0.000000
    8       20.963584   0.000000
 
 -0.3846154E+00  0.3846154E+00  0.7692308E-01  0.2184797E-01
    1       -2.471731   1.000000
    2        0.748878   1.000000
    3        2.816876   1.000000
    4        4.899692   1.000000
    5       11.429182   0.000000
    6       15.373977   0.000000
    7       18.791024   0.000000
    8       20.451924   0.000000
 
 -0.3076923E+00  0.3846154E+00  0.7692308E-01  0.1092399E-01
    1       -2.576280   1.000000
    2        0.893602   1.000000
    3        2.395000   1.000000
    4        5.243371   1.000000
    5       11.982432   0.000000
    6       16.597272   0.000000
    7       18.445495   0.000000
    8       19.465103   0.000000
 
 -0.4615385E+00  0.4615385E+00  0.7692308E-01  0.1092399E-01
    1       -2.573938   1.000000
    2        0.549303   1.000000
    3        4.398143   1.000000
    4        4.467132   1.000000
    5       10.101268   0.000000
    6       12.939353   0.000000
    7       20.685655   0.000000
    8       21.711072   0.000000
 
 -0.3846154E+00  0.4615385E+00  0.7692308E-01  0.1092399E-01
    1       -2.309169   1.000000
    2        0.476440   1.000000
    3        3.470992   1.000000
    4        4.570482   1.000000
    5       10.739634   0.000000
    6       13.879015   0.000000
    7       20.021160   0.000000
    8       21.278575   0.000000
 
  0.4615385E+00  0.3076923E+00  0.1538462E+00  0.1092399E-01
    1       -4.478880   1.000000
    2        2.418612   1.000000
    3        4.233826   1.000000
    4        5.925881   1.000000
    5       12.892233   0.000000
    6       15.501548   0.000000
    7       16.355661   0.000000
    8       18.986336   0.000000
 
 -0.4615385E+00  0.3076923E+00  0.1538462E+00  0.2184797E-01
    1       -3.676878   1.000000
    2        1.459689   1.000000
    3        3.712921   1.000000
    4        5.465071   1.000000
    5       13.012885   0.000000
    6       15.762014   0.000000
    7       16.665617   0.000000
    8       19.311811   0.000000
 
 -0.3846154E+00  0.3076923E+00  0.1538462E+00  0.2184797E-01
    1       -3.012966   1.000000
    2        0.624045   1.000000
    3        3.554108   1.000000
    4        5.170411   1.000000
    5       13.048326   0.000000
    6       15.554672   0.000000
    7       17.915913   0.000000
    8       19.195062   0.000000
 
 -0.4615385E+00  0.3846154E+00  0.1538462E+00  0.1092399E-01
    1       -3.378057   1.000000
    2        1.540168   1.000000
    3        3.745905   1.000000
    4        4.709711   1.000000
    5       12.083910   0.000000
    6       14.932525   0.000000
    7       17.459461   0.000000
    8       20.592217   0.000000
 
 -0.3846154E+00  0.3846154E+00  0.1538462E+00  0.2184797E-01
    1       -2.712184   1.000000
    2        0.997548   1.000000
    3        3.154325   1.000000
    4        4.375043   1.000000
    5       12.526432   0.000000
    6       15.888359   0.000000
    7       17.223749   0.000000
    8       20.087215   0.000000
 
 -0.3076923E+00  0.3846154E+00  0.1538462E+00  0.2184797E-01
    1       -2.510522   1.000000
    2        0.856985   1.000000
    3        2.769994   1.000000
    4        4.474858   1.000000
    5       12.869670   0.000000
    6       16.281112   0.000000
    7       17.863201   0.000000
    8       18.836774   0.000000
 
 -0.2307692E+00  0.3846154E+00  0.1538462E+00  0.1092399E-01
    1       -2.960894   1.000000
    2        1.190852   1.000000
    3        2.886740   1.000000
    4        4.884181   1.000000
    5       13.093643   0.000000
    6       16.146083   0.000000
    7       17.043482   0.000000
    8       19.617072   0.000000
 
 -0.3846154E+00  0.4615385E+00  0.1538462E+00  0.1092399E-01
    1       -2.423160   1.000000
    2        0.772703   1.000000
    3        3.577809   1.000000
    4        3.874792   1.000000
    5       11.682644   0.000000
    6       14.639128   0.000000
    7       18.674755   0.000000
    8       20.613774   0.000000
 
 -0.3076923E+00  0.4615385E+00  0.1538462E+00  0.1092399E-01
    1       -2.245338   1.000000
    2        0.813534   1.000000
    3        2.858068   1.000000
    4        3.976973   1.000000
    5       12.363276   0.000000
    6       15.819758   0.000000
    7       18.082882   0.000000
    8       19.277128   0.000000
 
 -0.3076923E+00  0.4615385E+00  0.2307692E+00  0.1092399E-01
    1       -2.280531   1.000000
    2        0.952988   1.000000
    3        2.902557   1.000000
    4        3.654025   1.000000
    5       13.048142   0.000000
    6       16.836731   0.000000
    7       16.988814   0.000000
    8       18.527422   0.000000
