Automatic mesh 
0
Gamma-centeredk
13 13 13 
0 0 0 
