 vasp.5.4.4.18Apr17-6-g9f103f2a35 (build May 27 2024 22:40:15) complex          
  
 executed on             LinuxIFC date 2024.10.25  20:56:54
 running on    4 total cores
 distrk:  each k-point on    4 cores,    1 groups
 distr:  one band on NCORES_PER_BAND=   1 cores,    4 groups


--------------------------------------------------------------------------------------------------------


 INCAR:
 POTCAR:    PAW_PBE Si 05Jan2001                  
 POTCAR:    PAW_PBE C 08Apr2002                   
 POTCAR:    PAW_PBE Si 05Jan2001                  
   VRHFIN =Si: s2p2                                                             
   LEXCH  = PE                                                                  
   EATOM  =   103.0669 eV,    7.5752 Ry                                         
                                                                                
   TITEL  = PAW_PBE Si 05Jan2001                                                
   LULTRA =        F    use ultrasoft PP ?                                      
   IUNSCR =        1    unscreen: 0-lin 1-nonlin 2-no                           
   RPACOR =    1.500    partial core radius                                     
   POMASS =   28.085; ZVAL   =    4.000    mass and valenz                      
   RCORE  =    1.900    outmost cutoff radius                                   
   RWIGS  =    2.480; RWIGS  =    1.312    wigner-seitz radius (au A)           
   ENMAX  =  245.345; ENMIN  =  184.009 eV                                      
   ICORE  =        2    local potential                                         
   LCOR   =        T    correct aug charges                                     
   LPAW   =        T    paw PP                                                  
   EAUG   =  322.069                                                            
   DEXC   =    0.000                                                            
   RMAX   =    1.950    core radius for proj-oper                               
   RAUG   =    1.300    factor for augmentation sphere                          
   RDEP   =    1.993    radius for radial grids                                 
   RDEPT  =    1.837    core radius for aug-charge                              
                                                                                
   Atomic configuration                                                         
    6 entries                                                                   
     n  l   j            E        occ.                                          
     1  0  0.50     -1785.8828   2.0000                                         
     2  0  0.50      -139.4969   2.0000                                         
     2  1  1.50       -95.5546   6.0000                                         
     3  0  0.50       -10.8127   2.0000                                         
     3  1  0.50        -4.0811   2.0000                                         
     3  2  1.50        -4.0817   0.0000                                         
   Description                                                                  
     l       E           TYP  RCUT    TYP  RCUT                                 
     0    -10.8127223     23  1.900                                             
     0     -7.6451159     23  1.900                                             
     1     -4.0811372     23  1.900                                             
     1      2.4879257     23  1.900                                             
     2     -4.0817478      7  1.900                                             
  local pseudopotential read in
  partial core-charges read in
  partial kinetic energy density read in
  atomic valenz-charges read in
  non local Contribution for L=           0  read in
    real space projection operators read in
  non local Contribution for L=           0  read in
    real space projection operators read in
  non local Contribution for L=           1  read in
    real space projection operators read in
  non local Contribution for L=           1  read in
    real space projection operators read in
    PAW grid and wavefunctions read in
 
   number of l-projection  operators is LMAX  =           4
   number of lm-projection operators is LMMAX =           8
 
 POTCAR:    PAW_PBE C 08Apr2002                   
   VRHFIN =C: s2p2                                                              
   LEXCH  = PE                                                                  
   EATOM  =   147.1560 eV,   10.8157 Ry                                         
                                                                                
   TITEL  = PAW_PBE C 08Apr2002                                                 
   LULTRA =        F    use ultrasoft PP ?                                      
   IUNSCR =        1    unscreen: 0-lin 1-nonlin 2-no                           
   RPACOR =    1.200    partial core radius                                     
   POMASS =   12.011; ZVAL   =    4.000    mass and valenz                      
   RCORE  =    1.500    outmost cutoff radius                                   
   RWIGS  =    1.630; RWIGS  =    0.863    wigner-seitz radius (au A)           
   ENMAX  =  400.000; ENMIN  =  300.000 eV                                      
   ICORE  =        2    local potential                                         
   LCOR   =        T    correct aug charges                                     
   LPAW   =        T    paw PP                                                  
   EAUG   =  644.873                                                            
   DEXC   =    0.000                                                            
   RMAX   =    1.529    core radius for proj-oper                               
   RAUG   =    1.300    factor for augmentation sphere                          
   RDEP   =    1.501    radius for radial grids                                 
   RDEPT  =    1.300    core radius for aug-charge                              
                                                                                
   Atomic configuration                                                         
    4 entries                                                                   
     n  l   j            E        occ.                                          
     1  0  0.50      -273.3789   2.0000                                         
     2  0  0.50       -13.7508   2.0000                                         
     2  1  0.50        -5.2854   2.0000                                         
     3  2  1.50        -5.4423   0.0000                                         
   Description                                                                  
     l       E           TYP  RCUT    TYP  RCUT                                 
     0    -13.7508458     23  1.200                                             
     0     -8.2022199     23  1.200                                             
     1     -5.2854383     23  1.500                                             
     1     34.0145650     23  1.500                                             
     2     -5.4423304      7  1.500                                             
  local pseudopotential read in
  partial core-charges read in
  partial kinetic energy density read in
  atomic valenz-charges read in
  non local Contribution for L=           0  read in
    real space projection operators read in
  non local Contribution for L=           0  read in
    real space projection operators read in
  non local Contribution for L=           1  read in
    real space projection operators read in
  non local Contribution for L=           1  read in
    real space projection operators read in
    PAW grid and wavefunctions read in
 
   number of l-projection  operators is LMAX  =           4
   number of lm-projection operators is LMMAX =           8
 
  PAW_PBE Si 05Jan2001                  :
 energy of atom  1       EATOM= -103.0669
 kinetic energy error for atom=    0.0005 (will be added to EATOM!!)
  PAW_PBE C 08Apr2002                   :
 energy of atom  2       EATOM= -147.1560
 kinetic energy error for atom=    0.0071 (will be added to EATOM!!)
 
 
 POSCAR: Si4 C4                                  
  positions in direct lattice
  velocities in cartesian coordinates
 exchange correlation table for  LEXCH =        8
   RHO(1)=    0.500       N(1)  =     2000
   RHO(2)=  100.500       N(2)  =     4000
 


--------------------------------------------------------------------------------------------------------


 ion  position               nearest neighbor table
   1  0.250  0.250  0.250-   2 1.90   2 1.90   2 1.90   2 1.90
   2  0.000  0.000  0.000-   1 1.90   1 1.90   1 1.90   1 1.90
 
  LATTYP: Found a face centered cubic cell.
 ALAT       =     4.3795600000
  
  Lattice vectors:
  
 A1 = (   0.0000000000,   2.1897800000,   2.1897800000)
 A2 = (   2.1897800000,   0.0000000000,   2.1897800000)
 A3 = (   2.1897800000,   2.1897800000,   0.0000000000)


Analysis of symmetry for initial positions (statically):
=====================================================================
 Subroutine PRICEL returns:
 Original cell was already a primitive cell.
 

 Routine SETGRP: Setting up the symmetry group for a 
 face centered cubic supercell.


 Subroutine GETGRP returns: Found 24 space group operations
 (whereof 24 operations were pure point group operations)
 out of a pool of 48 trial point group operations.


The static configuration has the point symmetry T_d .


Analysis of symmetry for dynamics (positions and initial velocities):
=====================================================================
 Subroutine PRICEL returns:
 Original cell was already a primitive cell.
 

 Routine SETGRP: Setting up the symmetry group for a 
 face centered cubic supercell.


 Subroutine GETGRP returns: Found 24 space group operations
 (whereof 24 operations were pure point group operations)
 out of a pool of 48 trial point group operations.


The dynamic configuration has the point symmetry T_d .


 Subroutine INISYM returns: Found 24 space group operations
 (whereof 24 operations are pure point group operations),
 and found     1 'primitive' translations

 
 
 KPOINTS: Automatic mesh                          

Automatic generation of k-mesh.
Space group operators:
 irot       det(A)        alpha          n_x          n_y          n_z        tau_x        tau_y        tau_z
    1     1.000000     0.000000     1.000000     0.000000     0.000000     0.000000     0.000000     0.000000
    2     1.000000   120.000000    -0.577350    -0.577350    -0.577350     0.000000     0.000000     0.000000
    3     1.000000   120.000000     0.577350     0.577350     0.577350     0.000000     0.000000     0.000000
    4    -1.000000    90.000000     0.000000     0.000000    -1.000000     0.000000     0.000000     0.000000
    5    -1.000000   180.000000     0.000000     0.707107     0.707107     0.000000     0.000000     0.000000
    6    -1.000000    90.000000     0.000000     1.000000     0.000000     0.000000     0.000000     0.000000
    7     1.000000   179.999999     0.000000     0.000000     1.000000     0.000000     0.000000     0.000000
    8     1.000000   120.000000    -0.577350     0.577350     0.577350     0.000000     0.000000     0.000000
    9     1.000000   120.000000    -0.577350     0.577350    -0.577350     0.000000     0.000000     0.000000
   10    -1.000000    90.000000     0.000000     0.000000     1.000000     0.000000     0.000000     0.000000
   11    -1.000000    90.000000    -1.000000     0.000000     0.000000     0.000000     0.000000     0.000000
   12    -1.000000   180.000000     0.707107     0.000000     0.707107     0.000000     0.000000     0.000000
   13     1.000000   120.000000     0.577350    -0.577350     0.577350     0.000000     0.000000     0.000000
   14     1.000000   120.000000    -0.577350    -0.577350     0.577350     0.000000     0.000000     0.000000
   15     1.000000   180.000000     1.000000     0.000000     0.000000     0.000000     0.000000     0.000000
   16    -1.000000    90.000000     0.000000    -1.000000     0.000000     0.000000     0.000000     0.000000
   17    -1.000000   180.000000     0.707107     0.707107     0.000000     0.000000     0.000000     0.000000
   18    -1.000000    90.000000     1.000000     0.000000     0.000000     0.000000     0.000000     0.000000
   19     1.000000   120.000000     0.577350    -0.577350    -0.577350     0.000000     0.000000     0.000000
   20     1.000000   180.000000     0.000000     1.000000     0.000000     0.000000     0.000000     0.000000
   21     1.000000   120.000000     0.577350     0.577350    -0.577350     0.000000     0.000000     0.000000
   22    -1.000000   180.000000     0.000000    -0.707107     0.707107     0.000000     0.000000     0.000000
   23    -1.000000   180.000000     0.707107    -0.707107     0.000000     0.000000     0.000000     0.000000
   24    -1.000000   180.000000     0.707107     0.000000    -0.707107     0.000000     0.000000     0.000000
 
 Subroutine IBZKPT returns following result:
 ===========================================
 
 Found     84 irreducible k-points:
 
 Following reciprocal coordinates:
            Coordinates               Weight
  0.000000  0.000000  0.000000      1.000000
  0.076923  0.000000  0.000000      8.000000
  0.153846  0.000000  0.000000      8.000000
  0.230769  0.000000  0.000000      8.000000
  0.307692  0.000000  0.000000      8.000000
  0.384615  0.000000  0.000000      8.000000
  0.461538  0.000000  0.000000      8.000000
  0.076923  0.076923  0.000000      6.000000
  0.153846  0.076923  0.000000     24.000000
  0.230769  0.076923  0.000000     24.000000
  0.307692  0.076923  0.000000     24.000000
  0.384615  0.076923  0.000000     24.000000
  0.461538  0.076923  0.000000     24.000000
 -0.461538  0.076923  0.000000     24.000000
 -0.384615  0.076923  0.000000     24.000000
 -0.307692  0.076923  0.000000     24.000000
 -0.230769  0.076923  0.000000     24.000000
 -0.153846  0.076923  0.000000     24.000000
 -0.076923  0.076923  0.000000     12.000000
  0.153846  0.153846  0.000000      6.000000
  0.230769  0.153846  0.000000     24.000000
  0.307692  0.153846  0.000000     24.000000
  0.384615  0.153846  0.000000     24.000000
  0.461538  0.153846  0.000000     24.000000
 -0.461538  0.153846  0.000000     24.000000
 -0.384615  0.153846  0.000000     24.000000
 -0.307692  0.153846  0.000000     24.000000
 -0.230769  0.153846  0.000000     24.000000
 -0.153846  0.153846  0.000000     12.000000
  0.230769  0.230769  0.000000      6.000000
  0.307692  0.230769  0.000000     24.000000
  0.384615  0.230769  0.000000     24.000000
  0.461538  0.230769  0.000000     24.000000
 -0.461538  0.230769  0.000000     24.000000
 -0.384615  0.230769  0.000000     24.000000
 -0.307692  0.230769  0.000000     24.000000
 -0.230769  0.230769  0.000000     12.000000
  0.307692  0.307692  0.000000      6.000000
  0.384615  0.307692  0.000000     24.000000
  0.461538  0.307692  0.000000     24.000000
 -0.461538  0.307692  0.000000     24.000000
 -0.384615  0.307692  0.000000     24.000000
 -0.307692  0.307692  0.000000     12.000000
  0.384615  0.384615  0.000000      6.000000
  0.461538  0.384615  0.000000     24.000000
 -0.461538  0.384615  0.000000     24.000000
 -0.384615  0.384615  0.000000     12.000000
  0.461538  0.461538  0.000000      6.000000
 -0.461538  0.461538  0.000000     12.000000
  0.230769  0.153846  0.076923     24.000000
  0.307692  0.153846  0.076923     48.000000
  0.384615  0.153846  0.076923     48.000000
  0.461538  0.153846  0.076923     48.000000
 -0.461538  0.153846  0.076923     48.000000
  0.307692  0.230769  0.076923     24.000000
  0.384615  0.230769  0.076923     48.000000
  0.461538  0.230769  0.076923     48.000000
 -0.461538  0.230769  0.076923     48.000000
 -0.384615  0.230769  0.076923     48.000000
 -0.307692  0.230769  0.076923     48.000000
 -0.230769  0.230769  0.076923     48.000000
 -0.153846  0.230769  0.076923     24.000000
  0.384615  0.307692  0.076923     24.000000
  0.461538  0.307692  0.076923     48.000000
 -0.461538  0.307692  0.076923     48.000000
 -0.384615  0.307692  0.076923     48.000000
 -0.307692  0.307692  0.076923     48.000000
 -0.230769  0.307692  0.076923     24.000000
  0.461538  0.384615  0.076923     24.000000
 -0.461538  0.384615  0.076923     48.000000
 -0.384615  0.384615  0.076923     48.000000
 -0.307692  0.384615  0.076923     24.000000
 -0.461538  0.461538  0.076923     24.000000
 -0.384615  0.461538  0.076923     24.000000
  0.461538  0.307692  0.153846     24.000000
 -0.461538  0.307692  0.153846     48.000000
 -0.384615  0.307692  0.153846     48.000000
 -0.461538  0.384615  0.153846     24.000000
 -0.384615  0.384615  0.153846     48.000000
 -0.307692  0.384615  0.153846     48.000000
 -0.230769  0.384615  0.153846     24.000000
 -0.384615  0.461538  0.153846     24.000000
 -0.307692  0.461538  0.153846     24.000000
 -0.307692  0.461538  0.230769     24.000000
 
 Following cartesian coordinates:
            Coordinates               Weight
  0.000000  0.000000  0.000000      1.000000
 -0.017564  0.017564  0.017564      8.000000
 -0.035128  0.035128  0.035128      8.000000
 -0.052692  0.052692  0.052692      8.000000
 -0.070256  0.070256  0.070256      8.000000
 -0.087821  0.087821  0.087821      8.000000
 -0.105385  0.105385  0.105385      8.000000
  0.000000  0.000000  0.035128      6.000000
 -0.017564  0.017564  0.052692     24.000000
 -0.035128  0.035128  0.070256     24.000000
 -0.052692  0.052692  0.087821     24.000000
 -0.070256  0.070256  0.105385     24.000000
 -0.087821  0.087821  0.122949     24.000000
  0.122949 -0.122949 -0.087821     24.000000
  0.105385 -0.105385 -0.070256     24.000000
  0.087821 -0.087821 -0.052692     24.000000
  0.070256 -0.070256 -0.035128     24.000000
  0.052692 -0.052692 -0.017564     24.000000
  0.035128 -0.035128  0.000000     12.000000
  0.000000  0.000000  0.070256      6.000000
 -0.017564  0.017564  0.087821     24.000000
 -0.035128  0.035128  0.105385     24.000000
 -0.052692  0.052692  0.122949     24.000000
 -0.070256  0.070256  0.140513     24.000000
  0.140513 -0.140513 -0.070256     24.000000
  0.122949 -0.122949 -0.052692     24.000000
  0.105385 -0.105385 -0.035128     24.000000
  0.087821 -0.087821 -0.017564     24.000000
  0.070256 -0.070256  0.000000     12.000000
  0.000000  0.000000  0.105385      6.000000
 -0.017564  0.017564  0.122949     24.000000
 -0.035128  0.035128  0.140513     24.000000
 -0.052692  0.052692  0.158077     24.000000
  0.158077 -0.158077 -0.052692     24.000000
  0.140513 -0.140513 -0.035128     24.000000
  0.122949 -0.122949 -0.017564     24.000000
  0.105385 -0.105385  0.000000     12.000000
  0.000000  0.000000  0.140513      6.000000
 -0.017564  0.017564  0.158077     24.000000
 -0.035128  0.035128  0.175641     24.000000
  0.175641 -0.175641 -0.035128     24.000000
  0.158077 -0.158077 -0.017564     24.000000
  0.140513 -0.140513  0.000000     12.000000
  0.000000  0.000000  0.175641      6.000000
 -0.017564  0.017564  0.193205     24.000000
  0.193205 -0.193205 -0.017564     24.000000
  0.175641 -0.175641  0.000000     12.000000
  0.000000  0.000000  0.210769      6.000000
  0.210769 -0.210769  0.000000     12.000000
 -0.000000  0.035128  0.070256     24.000000
 -0.017564  0.052692  0.087821     48.000000
 -0.035128  0.070256  0.105385     48.000000
 -0.052692  0.087821  0.122949     48.000000
  0.158077 -0.122949 -0.087821     48.000000
  0.000000  0.035128  0.105385     24.000000
 -0.017564  0.052692  0.122949     48.000000
 -0.035128  0.070256  0.140513     48.000000
  0.175641 -0.140513 -0.070256     48.000000
  0.158077 -0.122949 -0.052692     48.000000
  0.140513 -0.105385 -0.035128     48.000000
  0.122949 -0.087821 -0.017564     48.000000
  0.105385 -0.070256  0.000000     24.000000
 -0.000000  0.035128  0.140513     24.000000
 -0.017564  0.052692  0.158077     48.000000
  0.193205 -0.158077 -0.052692     48.000000
  0.175641 -0.140513 -0.035128     48.000000
  0.158077 -0.122949 -0.017564     48.000000
  0.140513 -0.105385 -0.000000     24.000000
 -0.000000  0.035128  0.175641     24.000000
  0.210769 -0.175641 -0.035128     48.000000
  0.193205 -0.158077 -0.017564     48.000000
  0.175641 -0.140513  0.000000     24.000000
  0.228333 -0.193205 -0.017564     24.000000
  0.210769 -0.175641  0.000000     24.000000
 -0.000000  0.070256  0.140513     24.000000
  0.210769 -0.140513 -0.070256     48.000000
  0.193205 -0.122949 -0.052692     48.000000
  0.228333 -0.158077 -0.052692     24.000000
  0.210769 -0.140513 -0.035128     48.000000
  0.193205 -0.122949 -0.017564     48.000000
  0.175641 -0.105385 -0.000000     24.000000
  0.228333 -0.158077 -0.017564     24.000000
  0.210769 -0.140513  0.000000     24.000000
  0.228333 -0.122949 -0.017564     24.000000
 


--------------------------------------------------------------------------------------------------------




 Dimension of arrays:
   k-points           NKPTS =     84   k-points in BZ     NKDIM =     84   number of bands    NBANDS=      8
   number of dos      NEDOS =    301   number of ions     NIONS =      2
   non local maximal  LDIM  =      4   non local SUM 2l+1 LMDIM =      8
   total plane-waves  NPLWV =  13824
   max r-space proj   IRMAX =      1   max aug-charges    IRDMAX= 176252
   dimension x,y,z NGX =    24 NGY =   24 NGZ =   24
   dimension x,y,z NGXF=    48 NGYF=   48 NGZF=   48
   support grid    NGXF=    96 NGYF=   96 NGZF=   96
   ions per type =               1   1
   NGX,Y,Z   is equivalent  to a cutoff of  12.88, 12.88, 12.88 a.u.
   NGXF,Y,Z  is equivalent  to a cutoff of  25.77, 25.77, 25.77 a.u.

 SYSTEM =  unknown system                          
 POSCAR =  Si4 C4                                  

 Startparameter for this run:
   NWRITE =      2    write-flag & timer
   PREC   = accura    normal or accurate (medium, high low for compatibility)
   ISTART =      0    job   : 0-new  1-cont  2-samecut
   ICHARG =      2    charge: 1-file 2-atom 10-const
   ISPIN  =      1    spin polarized calculation?
   LNONCOLLINEAR =      F non collinear calculations
   LSORBIT =      F    spin-orbit coupling
   INIWAV =      1    electr: 0-lowe 1-rand  2-diag
   LASPH  =      F    aspherical Exc in radial PAW
   METAGGA=      F    non-selfconsistent MetaGGA calc.

 Electronic Relaxation 1
   ENCUT  =  520.0 eV  38.22 Ry    6.18 a.u.   5.76  5.76  5.76*2*pi/ulx,y,z
   ENINI  =  520.0     initial cutoff
   ENAUG  =  644.9 eV  augmentation charge cutoff
   NELM   =     60;   NELMIN=  2; NELMDL= -5     # of ELM steps 
   EDIFF  = 0.1E-05   stopping-criterion for ELM
   LREAL  =      F    real-space projection
   NLSPLINE    = F    spline interpolate recip. space projectors
   LCOMPAT=      F    compatible to vasp.4.4
   GGA_COMPAT  = T    GGA compatible to vasp.4.4-vasp.4.6
   LMAXPAW     = -100 max onsite density
   LMAXMIX     =    2 max onsite mixed and CHGCAR
   VOSKOWN=      0    Vosko Wilk Nusair interpolation
   ROPT   =    0.00000   0.00000
 Ionic relaxation
   EDIFFG = -.2E-01   stopping-criterion for IOM
   NSW    =      0    number of steps for IOM
   NBLOCK =      1;   KBLOCK =      1    inner block; outer block 
   IBRION =     -1    ionic relax: 0-MD 1-quasi-New 2-CG
   NFREE  =      0    steps in history (QN), initial steepest desc. (CG)
   ISIF   =      2    stress and relaxation
   IWAVPR =     10    prediction:  0-non 1-charg 2-wave 3-comb
   ISYM   =      2    0-nonsym 1-usesym 2-fastsym
   LCORR  =      T    Harris-Foulkes like correction to forces

   POTIM  = 0.5000    time-step for ionic-motion
   TEIN   =    0.0    initial temperature
   TEBEG  =    0.0;   TEEND  =   0.0 temperature during run
   SMASS  =  -3.00    Nose mass-parameter (am)
   estimated Nose-frequenzy (Omega)   =  0.10E-29 period in steps =****** mass=  -0.219E-27a.u.
   SCALEE = 1.0000    scale energy and forces
   NPACO  =    256;   APACO  = 16.0  distance and # of slots for P.C.
   PSTRESS=    0.0 pullay stress

  Mass of Ions in am
   POMASS =  28.09 12.01
  Ionic Valenz
   ZVAL   =   4.00  4.00
  Atomic Wigner-Seitz radii
   RWIGS  =  -1.00 -1.00
  virtual crystal weights 
   VCA    =   1.00  1.00
   NELECT =       8.0000    total number of electrons
   NUPDOWN=      -1.0000    fix difference up-down

 DOS related values:
   EMIN   =  10.00;   EMAX   =-10.00  energy-range for DOS
   EFERMI =   0.00
   ISMEAR =     0;   SIGMA  =   0.10  broadening in eV -4-tet -1-fermi 0-gaus

 Electronic relaxation 2 (details)
   IALGO  =     38    algorithm
   LDIAG  =      T    sub-space diagonalisation (order eigenvalues)
   LSUBROT=      F    optimize rotation matrix (better conditioning)
   TURBO    =      0    0=normal 1=particle mesh
   IRESTART =      0    0=no restart 2=restart with 2 vectors
   NREBOOT  =      0    no. of reboots
   NMIN     =      0    reboot dimension
   EREF     =   0.00    reference energy to select bands
   IMIX   =      4    mixing-type and parameters
     AMIX     =   0.40;   BMIX     =  1.00
     AMIX_MAG =   1.60;   BMIX_MAG =  1.00
     AMIN     =   0.10
     WC   =   100.;   INIMIX=   1;  MIXPRE=   1;  MAXMIX= -45

 Intra band minimization:
   WEIMIN = 0.0000     energy-eigenvalue tresh-hold
   EBREAK =  0.31E-07  absolut break condition
   DEPER  =   0.30     relativ break condition  

   TIME   =   0.40     timestep for ELM

  volume/ion in A,a.u.               =      10.50        70.86
  Fermi-wavevector in a.u.,A,eV,Ry     =   1.186755  2.242641 19.162269  1.408387
  Thomas-Fermi vector in A             =   2.322921
 
 Write flags
   LWAVE        =      T    write WAVECAR
   LDOWNSAMPLE  =      F    k-point downsampling of WAVECAR
   LCHARG       =      T    write CHGCAR
   LVTOT        =      F    write LOCPOT, total local potential
   LVHAR        =      F    write LOCPOT, Hartree potential only
   LELF         =      F    write electronic localiz. function (ELF)
   LORBIT       =      0    0 simple, 1 ext, 2 COOP (PROOUT), +10 PAW based schemes


 Dipole corrections
   LMONO  =      F    monopole corrections only (constant potential shift)
   LDIPOL =      F    correct potential (dipole corrections)
   IDIPOL =      0    1-x, 2-y, 3-z, 4-all directions 
   EPSILON=  1.0000000 bulk dielectric constant

 Exchange correlation treatment:
   GGA     =    --    GGA type
   LEXCH   =     8    internal setting for exchange type
   VOSKOWN=      0    Vosko Wilk Nusair interpolation
   LHFCALC =     F    Hartree Fock is set to
   LHFONE  =     F    Hartree Fock one center treatment
   AEXX    =    0.0000 exact exchange contribution

 Linear response parameters
   LEPSILON=     F    determine dielectric tensor
   LRPA    =     F    only Hartree local field effects (RPA)
   LNABLA  =     F    use nabla operator in PAW spheres
   LVEL    =     F    velocity operator in full k-point grid
   LINTERFAST=   F  fast interpolation
   KINTER  =     0    interpolate to denser k-point grid
   CSHIFT  =0.1000    complex shift for real part using Kramers Kronig
   OMEGAMAX=  -1.0    maximum frequency
   DEG_THRESHOLD= 0.2000000E-02 threshold for treating states as degnerate
   RTIME   =   -0.100 relaxation time in fs
  (WPLASMAI=    0.000 imaginary part of plasma frequency in eV, 0.658/RTIME)
   DFIELD  = 0.0000000 0.0000000 0.0000000 field for delta impulse in time
 
 Orbital magnetization related:
   ORBITALMAG=     F  switch on orbital magnetization
   LCHIMAG   =     F  perturbation theory with respect to B field
   DQ        =  0.001000  dq finite difference perturbation B field
   LLRAUG    =     F  two centre corrections for induced B field



--------------------------------------------------------------------------------------------------------


 Static calculation
 charge density and potential will be updated during run
 non-spin polarized calculation
 Variant of blocked Davidson
 Davidson routine will perform the subspace rotation
 perform sub-space diagonalisation
    after iterative eigenvector-optimisation
 modified Broyden-mixing scheme, WC =      100.0
 initial mixing is a Kerker type mixing with AMIX =  0.4000 and BMIX =      1.0000
 Hartree-type preconditioning will be used
 using additional bands            4
 reciprocal scheme for non local part
 use partial core corrections
 calculate Harris-corrections to forces 
   (improved forces if not selfconsistent)
 use gradient corrections 
 use of overlap-Matrix (Vanderbilt PP)
 Gauss-broadening in eV      SIGMA  =   0.10


--------------------------------------------------------------------------------------------------------


  energy-cutoff  :      520.00
  volume of cell :       21.00
      direct lattice vectors                 reciprocal lattice vectors
     0.000000000  2.189780000  2.189780000    -0.228333440  0.228333440  0.228333440
     2.189780000  0.000000000  2.189780000     0.228333440 -0.228333440  0.228333440
     2.189780000  2.189780000  0.000000000     0.228333440  0.228333440 -0.228333440

  length of vectors
     3.096816575  3.096816575  3.096816575     0.395485119  0.395485119  0.395485119


 
 k-points in units of 2pi/SCALE and weight: Automatic mesh                          
   0.00000000  0.00000000  0.00000000       0.000
  -0.01756411  0.01756411  0.01756411       0.004
  -0.03512822  0.03512822  0.03512822       0.004
  -0.05269233  0.05269233  0.05269233       0.004
  -0.07025644  0.07025644  0.07025644       0.004
  -0.08782055  0.08782055  0.08782055       0.004
  -0.10538466  0.10538466  0.10538466       0.004
   0.00000000  0.00000000  0.03512822       0.003
  -0.01756411  0.01756411  0.05269233       0.011
  -0.03512822  0.03512822  0.07025644       0.011
  -0.05269233  0.05269233  0.08782055       0.011
  -0.07025644  0.07025644  0.10538466       0.011
  -0.08782055  0.08782055  0.12294878       0.011
   0.12294878 -0.12294878 -0.08782055       0.011
   0.10538466 -0.10538466 -0.07025644       0.011
   0.08782055 -0.08782055 -0.05269233       0.011
   0.07025644 -0.07025644 -0.03512822       0.011
   0.05269233 -0.05269233 -0.01756411       0.011
   0.03512822 -0.03512822  0.00000000       0.005
   0.00000000  0.00000000  0.07025644       0.003
  -0.01756411  0.01756411  0.08782055       0.011
  -0.03512822  0.03512822  0.10538466       0.011
  -0.05269233  0.05269233  0.12294878       0.011
  -0.07025644  0.07025644  0.14051289       0.011
   0.14051289 -0.14051289 -0.07025644       0.011
   0.12294878 -0.12294878 -0.05269233       0.011
   0.10538466 -0.10538466 -0.03512822       0.011
   0.08782055 -0.08782055 -0.01756411       0.011
   0.07025644 -0.07025644  0.00000000       0.005
   0.00000000  0.00000000  0.10538466       0.003
  -0.01756411  0.01756411  0.12294878       0.011
  -0.03512822  0.03512822  0.14051289       0.011
  -0.05269233  0.05269233  0.15807700       0.011
   0.15807700 -0.15807700 -0.05269233       0.011
   0.14051289 -0.14051289 -0.03512822       0.011
   0.12294878 -0.12294878 -0.01756411       0.011
   0.10538466 -0.10538466  0.00000000       0.005
   0.00000000  0.00000000  0.14051289       0.003
  -0.01756411  0.01756411  0.15807700       0.011
  -0.03512822  0.03512822  0.17564111       0.011
   0.17564111 -0.17564111 -0.03512822       0.011
   0.15807700 -0.15807700 -0.01756411       0.011
   0.14051289 -0.14051289  0.00000000       0.005
   0.00000000  0.00000000  0.17564111       0.003
  -0.01756411  0.01756411  0.19320522       0.011
   0.19320522 -0.19320522 -0.01756411       0.011
   0.17564111 -0.17564111  0.00000000       0.005
   0.00000000  0.00000000  0.21076933       0.003
   0.21076933 -0.21076933  0.00000000       0.005
  -0.00000000  0.03512822  0.07025644       0.011
  -0.01756411  0.05269233  0.08782055       0.022
  -0.03512822  0.07025644  0.10538466       0.022
  -0.05269233  0.08782055  0.12294878       0.022
   0.15807700 -0.12294878 -0.08782055       0.022
   0.00000000  0.03512822  0.10538466       0.011
  -0.01756411  0.05269233  0.12294878       0.022
  -0.03512822  0.07025644  0.14051289       0.022
   0.17564111 -0.14051289 -0.07025644       0.022
   0.15807700 -0.12294878 -0.05269233       0.022
   0.14051289 -0.10538466 -0.03512822       0.022
   0.12294878 -0.08782055 -0.01756411       0.022
   0.10538466 -0.07025644  0.00000000       0.011
  -0.00000000  0.03512822  0.14051289       0.011
  -0.01756411  0.05269233  0.15807700       0.022
   0.19320522 -0.15807700 -0.05269233       0.022
   0.17564111 -0.14051289 -0.03512822       0.022
   0.15807700 -0.12294878 -0.01756411       0.022
   0.14051289 -0.10538466 -0.00000000       0.011
  -0.00000000  0.03512822  0.17564111       0.011
   0.21076933 -0.17564111 -0.03512822       0.022
   0.19320522 -0.15807700 -0.01756411       0.022
   0.17564111 -0.14051289  0.00000000       0.011
   0.22833344 -0.19320522 -0.01756411       0.011
   0.21076933 -0.17564111  0.00000000       0.011
  -0.00000000  0.07025644  0.14051289       0.011
   0.21076933 -0.14051289 -0.07025644       0.022
   0.19320522 -0.12294878 -0.05269233       0.022
   0.22833344 -0.15807700 -0.05269233       0.011
   0.21076933 -0.14051289 -0.03512822       0.022
   0.19320522 -0.12294878 -0.01756411       0.022
   0.17564111 -0.10538466 -0.00000000       0.011
   0.22833344 -0.15807700 -0.01756411       0.011
   0.21076933 -0.14051289  0.00000000       0.011
   0.22833344 -0.12294878 -0.01756411       0.011
 
 k-points in reciprocal lattice and weights: Automatic mesh                          
   0.00000000  0.00000000  0.00000000       0.000
   0.07692308  0.00000000  0.00000000       0.004
   0.15384615  0.00000000  0.00000000       0.004
   0.23076923  0.00000000  0.00000000       0.004
   0.30769231  0.00000000  0.00000000       0.004
   0.38461538  0.00000000  0.00000000       0.004
   0.46153846  0.00000000  0.00000000       0.004
   0.07692308  0.07692308  0.00000000       0.003
   0.15384615  0.07692308  0.00000000       0.011
   0.23076923  0.07692308  0.00000000       0.011
   0.30769231  0.07692308  0.00000000       0.011
   0.38461538  0.07692308  0.00000000       0.011
   0.46153846  0.07692308  0.00000000       0.011
  -0.46153846  0.07692308  0.00000000       0.011
  -0.38461538  0.07692308  0.00000000       0.011
  -0.30769231  0.07692308  0.00000000       0.011
  -0.23076923  0.07692308  0.00000000       0.011
  -0.15384615  0.07692308  0.00000000       0.011
  -0.07692308  0.07692308  0.00000000       0.005
   0.15384615  0.15384615  0.00000000       0.003
   0.23076923  0.15384615  0.00000000       0.011
   0.30769231  0.15384615  0.00000000       0.011
   0.38461538  0.15384615  0.00000000       0.011
   0.46153846  0.15384615  0.00000000       0.011
  -0.46153846  0.15384615  0.00000000       0.011
  -0.38461538  0.15384615  0.00000000       0.011
  -0.30769231  0.15384615  0.00000000       0.011
  -0.23076923  0.15384615  0.00000000       0.011
  -0.15384615  0.15384615  0.00000000       0.005
   0.23076923  0.23076923  0.00000000       0.003
   0.30769231  0.23076923  0.00000000       0.011
   0.38461538  0.23076923  0.00000000       0.011
   0.46153846  0.23076923  0.00000000       0.011
  -0.46153846  0.23076923  0.00000000       0.011
  -0.38461538  0.23076923  0.00000000       0.011
  -0.30769231  0.23076923  0.00000000       0.011
  -0.23076923  0.23076923  0.00000000       0.005
   0.30769231  0.30769231  0.00000000       0.003
   0.38461538  0.30769231  0.00000000       0.011
   0.46153846  0.30769231  0.00000000       0.011
  -0.46153846  0.30769231  0.00000000       0.011
  -0.38461538  0.30769231  0.00000000       0.011
  -0.30769231  0.30769231  0.00000000       0.005
   0.38461538  0.38461538  0.00000000       0.003
   0.46153846  0.38461538  0.00000000       0.011
  -0.46153846  0.38461538  0.00000000       0.011
  -0.38461538  0.38461538  0.00000000       0.005
   0.46153846  0.46153846  0.00000000       0.003
  -0.46153846  0.46153846  0.00000000       0.005
   0.23076923  0.15384615  0.07692308       0.011
   0.30769231  0.15384615  0.07692308       0.022
   0.38461538  0.15384615  0.07692308       0.022
   0.46153846  0.15384615  0.07692308       0.022
  -0.46153846  0.15384615  0.07692308       0.022
   0.30769231  0.23076923  0.07692308       0.011
   0.38461538  0.23076923  0.07692308       0.022
   0.46153846  0.23076923  0.07692308       0.022
  -0.46153846  0.23076923  0.07692308       0.022
  -0.38461538  0.23076923  0.07692308       0.022
  -0.30769231  0.23076923  0.07692308       0.022
  -0.23076923  0.23076923  0.07692308       0.022
  -0.15384615  0.23076923  0.07692308       0.011
   0.38461538  0.30769231  0.07692308       0.011
   0.46153846  0.30769231  0.07692308       0.022
  -0.46153846  0.30769231  0.07692308       0.022
  -0.38461538  0.30769231  0.07692308       0.022
  -0.30769231  0.30769231  0.07692308       0.022
  -0.23076923  0.30769231  0.07692308       0.011
   0.46153846  0.38461538  0.07692308       0.011
  -0.46153846  0.38461538  0.07692308       0.022
  -0.38461538  0.38461538  0.07692308       0.022
  -0.30769231  0.38461538  0.07692308       0.011
  -0.46153846  0.46153846  0.07692308       0.011
  -0.38461538  0.46153846  0.07692308       0.011
   0.46153846  0.30769231  0.15384615       0.011
  -0.46153846  0.30769231  0.15384615       0.022
  -0.38461538  0.30769231  0.15384615       0.022
  -0.46153846  0.38461538  0.15384615       0.011
  -0.38461538  0.38461538  0.15384615       0.022
  -0.30769231  0.38461538  0.15384615       0.022
  -0.23076923  0.38461538  0.15384615       0.011
  -0.38461538  0.46153846  0.15384615       0.011
  -0.30769231  0.46153846  0.15384615       0.011
  -0.30769231  0.46153846  0.23076923       0.011
 
 position of ions in fractional coordinates (direct lattice) 
   0.25000000  0.25000000  0.25000000
   0.00000000  0.00000000  0.00000000
 
 position of ions in cartesian coordinates  (Angst):
   1.09489000  1.09489000  1.09489000
   0.00000000  0.00000000  0.00000000
 


--------------------------------------------------------------------------------------------------------


 k-point  1 :   0.0000 0.0000 0.0000  plane waves:     537
 k-point  2 :   0.0769 0.0000 0.0000  plane waves:     549
 k-point  3 :   0.1538 0.0000 0.0000  plane waves:     564
 k-point  4 :   0.2308 0.0000 0.0000  plane waves:     564
 k-point  5 :   0.3077 0.0000 0.0000  plane waves:     568
 k-point  6 :   0.3846 0.0000 0.0000  plane waves:     571
 k-point  7 :   0.4615 0.0000 0.0000  plane waves:     571
 k-point  8 :   0.0769 0.0769 0.0000  plane waves:     556
 k-point  9 :   0.1538 0.0769 0.0000  plane waves:     559
 k-point 10 :   0.2308 0.0769 0.0000  plane waves:     564
 k-point 11 :   0.3077 0.0769 0.0000  plane waves:     568
 k-point 12 :   0.3846 0.0769 0.0000  plane waves:     571
 k-point 13 :   0.4615 0.0769 0.0000  plane waves:     570
 k-point 14 :  -0.4615 0.0769 0.0000  plane waves:     572
 k-point 15 :  -0.3846 0.0769 0.0000  plane waves:     572
 k-point 16 :  -0.3077 0.0769 0.0000  plane waves:     571
 k-point 17 :  -0.2308 0.0769 0.0000  plane waves:     567
 k-point 18 :  -0.1538 0.0769 0.0000  plane waves:     563
 k-point 19 :  -0.0769 0.0769 0.0000  plane waves:     559
 k-point 20 :   0.1538 0.1538 0.0000  plane waves:     564
 k-point 21 :   0.2308 0.1538 0.0000  plane waves:     565
 k-point 22 :   0.3077 0.1538 0.0000  plane waves:     562
 k-point 23 :   0.3846 0.1538 0.0000  plane waves:     572
 k-point 24 :   0.4615 0.1538 0.0000  plane waves:     565
 k-point 25 :  -0.4615 0.1538 0.0000  plane waves:     565
 k-point 26 :  -0.3846 0.1538 0.0000  plane waves:     567
 k-point 27 :  -0.3077 0.1538 0.0000  plane waves:     571
 k-point 28 :  -0.2308 0.1538 0.0000  plane waves:     568
 k-point 29 :  -0.1538 0.1538 0.0000  plane waves:     564
 k-point 30 :   0.2308 0.2308 0.0000  plane waves:     568
 k-point 31 :   0.3077 0.2308 0.0000  plane waves:     566
 k-point 32 :   0.3846 0.2308 0.0000  plane waves:     563
 k-point 33 :   0.4615 0.2308 0.0000  plane waves:     564
 k-point 34 :  -0.4615 0.2308 0.0000  plane waves:     567
 k-point 35 :  -0.3846 0.2308 0.0000  plane waves:     568
 k-point 36 :  -0.3077 0.2308 0.0000  plane waves:     562
 k-point 37 :  -0.2308 0.2308 0.0000  plane waves:     558
 k-point 38 :   0.3077 0.3077 0.0000  plane waves:     568
 k-point 39 :   0.3846 0.3077 0.0000  plane waves:     566
 k-point 40 :   0.4615 0.3077 0.0000  plane waves:     568
 k-point 41 :  -0.4615 0.3077 0.0000  plane waves:     566
 k-point 42 :  -0.3846 0.3077 0.0000  plane waves:     563
 k-point 43 :  -0.3077 0.3077 0.0000  plane waves:     568
 k-point 44 :   0.3846 0.3846 0.0000  plane waves:     568
 k-point 45 :   0.4615 0.3846 0.0000  plane waves:     566
 k-point 46 :  -0.4615 0.3846 0.0000  plane waves:     566
 k-point 47 :  -0.3846 0.3846 0.0000  plane waves:     560
 k-point 48 :   0.4615 0.4615 0.0000  plane waves:     572
 k-point 49 :  -0.4615 0.4615 0.0000  plane waves:     576
 k-point 50 :   0.2308 0.1538 0.0769  plane waves:     560
 k-point 51 :   0.3077 0.1538 0.0769  plane waves:     567
 k-point 52 :   0.3846 0.1538 0.0769  plane waves:     567
 k-point 53 :   0.4615 0.1538 0.0769  plane waves:     565
 k-point 54 :  -0.4615 0.1538 0.0769  plane waves:     569
 k-point 55 :   0.3077 0.2308 0.0769  plane waves:     565
 k-point 56 :   0.3846 0.2308 0.0769  plane waves:     564
 k-point 57 :   0.4615 0.2308 0.0769  plane waves:     567
 k-point 58 :  -0.4615 0.2308 0.0769  plane waves:     563
 k-point 59 :  -0.3846 0.2308 0.0769  plane waves:     564
 k-point 60 :  -0.3077 0.2308 0.0769  plane waves:     561
 k-point 61 :  -0.2308 0.2308 0.0769  plane waves:     567
 k-point 62 :  -0.1538 0.2308 0.0769  plane waves:     562
 k-point 63 :   0.3846 0.3077 0.0769  plane waves:     565
 k-point 64 :   0.4615 0.3077 0.0769  plane waves:     565
 k-point 65 :  -0.4615 0.3077 0.0769  plane waves:     563
 k-point 66 :  -0.3846 0.3077 0.0769  plane waves:     563
 k-point 67 :  -0.3077 0.3077 0.0769  plane waves:     562
 k-point 68 :  -0.2308 0.3077 0.0769  plane waves:     562
 k-point 69 :   0.4615 0.3846 0.0769  plane waves:     566
 k-point 70 :  -0.4615 0.3846 0.0769  plane waves:     567
 k-point 71 :  -0.3846 0.3846 0.0769  plane waves:     564
 k-point 72 :  -0.3077 0.3846 0.0769  plane waves:     562
 k-point 73 :  -0.4615 0.4615 0.0769  plane waves:     565
 k-point 74 :  -0.3846 0.4615 0.0769  plane waves:     566
 k-point 75 :   0.4615 0.3077 0.1538  plane waves:     570
 k-point 76 :  -0.4615 0.3077 0.1538  plane waves:     563
 k-point 77 :  -0.3846 0.3077 0.1538  plane waves:     562
 k-point 78 :  -0.4615 0.3846 0.1538  plane waves:     568
 k-point 79 :  -0.3846 0.3846 0.1538  plane waves:     565
 k-point 80 :  -0.3077 0.3846 0.1538  plane waves:     566
 k-point 81 :  -0.2308 0.3846 0.1538  plane waves:     565
 k-point 82 :  -0.3846 0.4615 0.1538  plane waves:     570
 k-point 83 :  -0.3077 0.4615 0.1538  plane waves:     562
 k-point 84 :  -0.3077 0.4615 0.2308  plane waves:     565

 maximum and minimum number of plane-waves per node :       576      537

 maximum number of plane-waves:       576
 maximum index in each direction: 
   IXMAX=    6   IYMAX=    5   IZMAX=    5
   IXMIN=   -6   IYMIN=   -6   IZMIN=   -5


 serial   3D FFT for wavefunctions
 parallel 3D FFT for charge:
    minimum data exchange during FFTs selected (reduces bandwidth)


 total amount of memory used by VASP MPI-rank0    44141. kBytes
=======================================================================

   base      :      30000. kBytes
   nonl-proj :       6211. kBytes
   fftplans  :       4177. kBytes
   grid      :       2156. kBytes
   one-center:          6. kBytes
   wavefun   :       1591. kBytes
 
     INWAV:  cpu time    0.0000: real time    0.0000
 Broyden mixing: mesh for mixing (old mesh)
   NGX = 11   NGY = 11   NGZ = 11
  (NGX  = 48   NGY  = 48   NGZ  = 48)
  gives a total of   1331 points

 initial charge density was supplied:
 charge density of overlapping atoms calculated
 number of electron       8.0000000 magnetization 
 keeping initial charge density in first step


--------------------------------------------------------------------------------------------------------


 Maximum index for augmentation-charges        42787 (set IRDMAX)


--------------------------------------------------------------------------------------------------------


 First call to EWALD:  gamma=   0.642
 Maximum number of real-space cells 3x 3x 3
 Maximum number of reciprocal cells 3x 3x 3

    FEWALD:  cpu time    0.0012: real time    0.0012


--------------------------------------- Iteration      1(   1)  ---------------------------------------


    POTLOK:  cpu time    0.0138: real time    0.0139
    SETDIJ:  cpu time    0.0149: real time    0.0149
     EDDAV:  cpu time    0.2948: real time    0.2949
       DOS:  cpu time    0.0006: real time    0.0008
    --------------------------------------------
      LOOP:  cpu time    0.3240: real time    0.3245

 eigenvalue-minimisations  :  1360
 total energy-change (2. order) : 0.4041889E+01  (-0.4128676E+03)
 number of electron       8.0000000 magnetization 
 augmentation part        8.0000000 magnetization 

 Free energy of the ion-electron system (eV)
  ---------------------------------------------------
  alpha Z        PSCENC =        11.02920051
  Ewald energy   TEWEN  =      -283.38461863
  -Hartree energ DENC   =       -21.04212228
  -exchange      EXHF   =         0.00000000
  -V(xc)+E(xc)   XCENC  =         4.52936772
  PAW double counting   =       196.64584599     -179.62196998
  entropy T*S    EENTRO =        -0.00360359
  eigenvalues    EBANDS =        25.67454419
  atomic energy  EATOM  =       250.21524468
  Solvation  Ediel_sol  =         0.00000000
  ---------------------------------------------------
  free energy    TOTEN  =         4.04188862 eV

  energy without entropy =        4.04549221  energy(sigma->0) =        4.04369042


--------------------------------------------------------------------------------------------------------




--------------------------------------- Iteration      1(   2)  ---------------------------------------


     EDDAV:  cpu time    0.3764: real time    0.3765
       DOS:  cpu time    0.0004: real time    0.0004
    --------------------------------------------
      LOOP:  cpu time    0.3767: real time    0.3768

 eigenvalue-minimisations  :  2080
 total energy-change (2. order) :-0.2055889E+02  (-0.1949176E+02)
 number of electron       8.0000000 magnetization 
 augmentation part        8.0000000 magnetization 

 Free energy of the ion-electron system (eV)
  ---------------------------------------------------
  alpha Z        PSCENC =        11.02920051
  Ewald energy   TEWEN  =      -283.38461863
  -Hartree energ DENC   =       -21.04212228
  -exchange      EXHF   =         0.00000000
  -V(xc)+E(xc)   XCENC  =         4.52936772
  PAW double counting   =       196.64584599     -179.62196998
  entropy T*S    EENTRO =        -0.00000000
  eigenvalues    EBANDS =         5.11205432
  atomic energy  EATOM  =       250.21524468
  Solvation  Ediel_sol  =         0.00000000
  ---------------------------------------------------
  free energy    TOTEN  =       -16.51699766 eV

  energy without entropy =      -16.51699766  energy(sigma->0) =      -16.51699766


--------------------------------------------------------------------------------------------------------




--------------------------------------- Iteration      1(   3)  ---------------------------------------


     EDDAV:  cpu time    0.3267: real time    0.3278
       DOS:  cpu time    0.0004: real time    0.0004
    --------------------------------------------
      LOOP:  cpu time    0.3270: real time    0.3281

 eigenvalue-minimisations  :  1600
 total energy-change (2. order) :-0.3567027E+00  (-0.3567027E+00)
 number of electron       8.0000000 magnetization 
 augmentation part        8.0000000 magnetization 

 Free energy of the ion-electron system (eV)
  ---------------------------------------------------
  alpha Z        PSCENC =        11.02920051
  Ewald energy   TEWEN  =      -283.38461863
  -Hartree energ DENC   =       -21.04212228
  -exchange      EXHF   =         0.00000000
  -V(xc)+E(xc)   XCENC  =         4.52936772
  PAW double counting   =       196.64584599     -179.62196998
  entropy T*S    EENTRO =        -0.00000000
  eigenvalues    EBANDS =         4.75535160
  atomic energy  EATOM  =       250.21524468
  Solvation  Ediel_sol  =         0.00000000
  ---------------------------------------------------
  free energy    TOTEN  =       -16.87370038 eV

  energy without entropy =      -16.87370038  energy(sigma->0) =      -16.87370038


--------------------------------------------------------------------------------------------------------




--------------------------------------- Iteration      1(   4)  ---------------------------------------


     EDDAV:  cpu time    0.3969: real time    0.3971
       DOS:  cpu time    0.0004: real time    0.0004
    --------------------------------------------
      LOOP:  cpu time    0.3973: real time    0.3975

 eigenvalue-minimisations  :  2128
 total energy-change (2. order) :-0.1257778E-02  (-0.1257778E-02)
 number of electron       8.0000000 magnetization 
 augmentation part        8.0000000 magnetization 

 Free energy of the ion-electron system (eV)
  ---------------------------------------------------
  alpha Z        PSCENC =        11.02920051
  Ewald energy   TEWEN  =      -283.38461863
  -Hartree energ DENC   =       -21.04212228
  -exchange      EXHF   =         0.00000000
  -V(xc)+E(xc)   XCENC  =         4.52936772
  PAW double counting   =       196.64584599     -179.62196998
  entropy T*S    EENTRO =        -0.00000000
  eigenvalues    EBANDS =         4.75409382
  atomic energy  EATOM  =       250.21524468
  Solvation  Ediel_sol  =         0.00000000
  ---------------------------------------------------
  free energy    TOTEN  =       -16.87495816 eV

  energy without entropy =      -16.87495816  energy(sigma->0) =      -16.87495816


--------------------------------------------------------------------------------------------------------




--------------------------------------- Iteration      1(   5)  ---------------------------------------


     EDDAV:  cpu time    0.3340: real time    0.3341
       DOS:  cpu time    0.0004: real time    0.0004
    CHARGE:  cpu time    0.0310: real time    0.0310
    MIXING:  cpu time    0.0006: real time    0.0006
    --------------------------------------------
      LOOP:  cpu time    0.3659: real time    0.3660

 eigenvalue-minimisations  :  1600
 total energy-change (2. order) :-0.2718900E-06  (-0.2718892E-06)
 number of electron       8.0000000 magnetization 
 augmentation part       -0.0490128 magnetization 

 Broyden mixing:
  rms(total) = 0.86589E+00    rms(broyden)= 0.86581E+00
  rms(prec ) = 0.28864E+01
  weight for this iteration     100.00

 Free energy of the ion-electron system (eV)
  ---------------------------------------------------
  alpha Z        PSCENC =        11.02920051
  Ewald energy   TEWEN  =      -283.38461863
  -Hartree energ DENC   =       -21.04212228
  -exchange      EXHF   =         0.00000000
  -V(xc)+E(xc)   XCENC  =         4.52936772
  PAW double counting   =       196.64584599     -179.62196998
  entropy T*S    EENTRO =        -0.00000000
  eigenvalues    EBANDS =         4.75409354
  atomic energy  EATOM  =       250.21524468
  Solvation  Ediel_sol  =         0.00000000
  ---------------------------------------------------
  free energy    TOTEN  =       -16.87495843 eV

  energy without entropy =      -16.87495843  energy(sigma->0) =      -16.87495843


--------------------------------------------------------------------------------------------------------




--------------------------------------- Iteration      1(   6)  ---------------------------------------


    POTLOK:  cpu time    0.0111: real time    0.0111
    SETDIJ:  cpu time    0.0108: real time    0.0110
     EDDAV:  cpu time    0.2842: real time    0.2843
       DOS:  cpu time    0.0004: real time    0.0004
    CHARGE:  cpu time    0.0311: real time    0.0313
    MIXING:  cpu time    0.0008: real time    0.0008
    --------------------------------------------
      LOOP:  cpu time    0.3385: real time    0.3389

 eigenvalue-minimisations  :  1440
 total energy-change (2. order) : 0.1757486E+01  (-0.7580060E+00)
 number of electron       8.0000000 magnetization 
 augmentation part       -0.1123785 magnetization 

 Broyden mixing:
  rms(total) = 0.38011E+00    rms(broyden)= 0.38008E+00
  rms(prec ) = 0.76559E+00
  weight for this iteration     100.00

 eigenvalues of (default mixing * dielectric matrix)
  average eigenvalue GAMMA=   1.2839
  1.2839

 Free energy of the ion-electron system (eV)
  ---------------------------------------------------
  alpha Z        PSCENC =        11.02920051
  Ewald energy   TEWEN  =      -283.38461863
  -Hartree energ DENC   =       -28.92313323
  -exchange      EXHF   =         0.00000000
  -V(xc)+E(xc)   XCENC  =         5.20340674
  PAW double counting   =       463.44307624     -446.52353190
  entropy T*S    EENTRO =        -0.00000000
  eigenvalues    EBANDS =        13.82288327
  atomic energy  EATOM  =       250.21524468
  Solvation  Ediel_sol  =         0.00000000
  ---------------------------------------------------
  free energy    TOTEN  =       -15.11747232 eV

  energy without entropy =      -15.11747232  energy(sigma->0) =      -15.11747232


--------------------------------------------------------------------------------------------------------




--------------------------------------- Iteration      1(   7)  ---------------------------------------


    POTLOK:  cpu time    0.0111: real time    0.0111
    SETDIJ:  cpu time    0.0103: real time    0.0105
     EDDAV:  cpu time    0.3957: real time    0.3958
       DOS:  cpu time    0.0004: real time    0.0004
    CHARGE:  cpu time    0.0296: real time    0.0296
    MIXING:  cpu time    0.0011: real time    0.0011
    --------------------------------------------
      LOOP:  cpu time    0.4483: real time    0.4485

 eigenvalue-minimisations  :  2144
 total energy-change (2. order) : 0.4928239E-01  (-0.3233190E-01)
 number of electron       8.0000000 magnetization 
 augmentation part       -0.1244269 magnetization 

 Broyden mixing:
  rms(total) = 0.17496E+00    rms(broyden)= 0.17494E+00
  rms(prec ) = 0.34204E+00
  weight for this iteration     100.00

 eigenvalues of (default mixing * dielectric matrix)
  average eigenvalue GAMMA=   1.5258
  1.2369  1.8147

 Free energy of the ion-electron system (eV)
  ---------------------------------------------------
  alpha Z        PSCENC =        11.02920051
  Ewald energy   TEWEN  =      -283.38461863
  -Hartree energ DENC   =       -30.99842988
  -exchange      EXHF   =         0.00000000
  -V(xc)+E(xc)   XCENC  =         5.42013506
  PAW double counting   =       748.46359598     -731.58807483
  entropy T*S    EENTRO =        -0.00000000
  eigenvalues    EBANDS =        15.77475717
  atomic energy  EATOM  =       250.21524468
  Solvation  Ediel_sol  =         0.00000000
  ---------------------------------------------------
  free energy    TOTEN  =       -15.06818993 eV

  energy without entropy =      -15.06818993  energy(sigma->0) =      -15.06818993


--------------------------------------------------------------------------------------------------------




--------------------------------------- Iteration      1(   8)  ---------------------------------------


    POTLOK:  cpu time    0.0107: real time    0.0108
    SETDIJ:  cpu time    0.0113: real time    0.0113
     EDDAV:  cpu time    0.2504: real time    0.2513
       DOS:  cpu time    0.0004: real time    0.0004
    CHARGE:  cpu time    0.0304: real time    0.0304
    MIXING:  cpu time    0.0008: real time    0.0008
    --------------------------------------------
      LOOP:  cpu time    0.3039: real time    0.3050

 eigenvalue-minimisations  :  1384
 total energy-change (2. order) : 0.7620970E-02  (-0.1856958E-02)
 number of electron       8.0000000 magnetization 
 augmentation part       -0.1220475 magnetization 

 Broyden mixing:
  rms(total) = 0.16450E-01    rms(broyden)= 0.16449E-01
  rms(prec ) = 0.47941E-01
  weight for this iteration     100.00

 eigenvalues of (default mixing * dielectric matrix)
  average eigenvalue GAMMA=   1.5057
  2.3648  1.0142  1.1381

 Free energy of the ion-electron system (eV)
  ---------------------------------------------------
  alpha Z        PSCENC =        11.02920051
  Ewald energy   TEWEN  =      -283.38461863
  -Hartree energ DENC   =       -31.82206861
  -exchange      EXHF   =         0.00000000
  -V(xc)+E(xc)   XCENC  =         5.54353230
  PAW double counting   =      1006.03516831     -989.19563592
  entropy T*S    EENTRO =        -0.00000000
  eigenvalues    EBANDS =        16.51860840
  atomic energy  EATOM  =       250.21524468
  Solvation  Ediel_sol  =         0.00000000
  ---------------------------------------------------
  free energy    TOTEN  =       -15.06056896 eV

  energy without entropy =      -15.06056896  energy(sigma->0) =      -15.06056896


--------------------------------------------------------------------------------------------------------




--------------------------------------- Iteration      1(   9)  ---------------------------------------


    POTLOK:  cpu time    0.0108: real time    0.0108
    SETDIJ:  cpu time    0.0111: real time    0.0112
     EDDAV:  cpu time    0.4180: real time    0.4181
       DOS:  cpu time    0.0004: real time    0.0004
    CHARGE:  cpu time    0.0317: real time    0.0317
    MIXING:  cpu time    0.0011: real time    0.0011
    --------------------------------------------
      LOOP:  cpu time    0.4730: real time    0.4732

 eigenvalue-minimisations  :  2152
 total energy-change (2. order) :-0.2896156E-03  (-0.8179929E-04)
 number of electron       8.0000000 magnetization 
 augmentation part       -0.1223068 magnetization 

 Broyden mixing:
  rms(total) = 0.10419E-01    rms(broyden)= 0.10419E-01
  rms(prec ) = 0.15205E-01
  weight for this iteration     100.00

 eigenvalues of (default mixing * dielectric matrix)
  average eigenvalue GAMMA=   1.8104
  1.0731  1.0866  2.5409  2.5409

 Free energy of the ion-electron system (eV)
  ---------------------------------------------------
  alpha Z        PSCENC =        11.02920051
  Ewald energy   TEWEN  =      -283.38461863
  -Hartree energ DENC   =       -32.00915790
  -exchange      EXHF   =         0.00000000
  -V(xc)+E(xc)   XCENC  =         5.56606122
  PAW double counting   =      1030.91734760    -1014.07974548
  entropy T*S    EENTRO =        -0.00000000
  eigenvalues    EBANDS =        16.68480942
  atomic energy  EATOM  =       250.21524468
  Solvation  Ediel_sol  =         0.00000000
  ---------------------------------------------------
  free energy    TOTEN  =       -15.06085858 eV

  energy without entropy =      -15.06085858  energy(sigma->0) =      -15.06085858


--------------------------------------------------------------------------------------------------------




--------------------------------------- Iteration      1(  10)  ---------------------------------------


    POTLOK:  cpu time    0.0112: real time    0.0114
    SETDIJ:  cpu time    0.0118: real time    0.0118
     EDDAV:  cpu time    0.3343: real time    0.3343
       DOS:  cpu time    0.0004: real time    0.0004
    CHARGE:  cpu time    0.0232: real time    0.0232
    MIXING:  cpu time    0.0005: real time    0.0005
    --------------------------------------------
      LOOP:  cpu time    0.3814: real time    0.3816

 eigenvalue-minimisations  :  1864
 total energy-change (2. order) :-0.1125215E-03  (-0.2175493E-04)
 number of electron       8.0000000 magnetization 
 augmentation part       -0.1225983 magnetization 

 Broyden mixing:
  rms(total) = 0.22295E-02    rms(broyden)= 0.22294E-02
  rms(prec ) = 0.50589E-02
  weight for this iteration     100.00

 eigenvalues of (default mixing * dielectric matrix)
  average eigenvalue GAMMA=   1.7349
  2.8690  2.4758  1.0299  1.1500  1.1500

 Free energy of the ion-electron system (eV)
  ---------------------------------------------------
  alpha Z        PSCENC =        11.02920051
  Ewald energy   TEWEN  =      -283.38461863
  -Hartree energ DENC   =       -32.03655650
  -exchange      EXHF   =         0.00000000
  -V(xc)+E(xc)   XCENC  =         5.56888484
  PAW double counting   =      1016.89145410    -1000.05051625
  entropy T*S    EENTRO =        -0.00000000
  eigenvalues    EBANDS =        16.70593614
  atomic energy  EATOM  =       250.21524468
  Solvation  Ediel_sol  =         0.00000000
  ---------------------------------------------------
  free energy    TOTEN  =       -15.06097110 eV

  energy without entropy =      -15.06097110  energy(sigma->0) =      -15.06097110


--------------------------------------------------------------------------------------------------------




--------------------------------------- Iteration      1(  11)  ---------------------------------------


    POTLOK:  cpu time    0.0077: real time    0.0077
    SETDIJ:  cpu time    0.0099: real time    0.0100
     EDDAV:  cpu time    0.3236: real time    0.3236
       DOS:  cpu time    0.0003: real time    0.0003
    CHARGE:  cpu time    0.0229: real time    0.0229
    MIXING:  cpu time    0.0011: real time    0.0011
    --------------------------------------------
      LOOP:  cpu time    0.3654: real time    0.3656

 eigenvalue-minimisations  :  1664
 total energy-change (2. order) :-0.7806331E-06  (-0.4518379E-05)
 number of electron       8.0000000 magnetization 
 augmentation part       -0.1224541 magnetization 

 Broyden mixing:
  rms(total) = 0.57513E-03    rms(broyden)= 0.57503E-03
  rms(prec ) = 0.14403E-02
  weight for this iteration     100.00

 eigenvalues of (default mixing * dielectric matrix)
  average eigenvalue GAMMA=   1.7016
  2.8581  2.3945  0.9445  1.1015  1.1015  1.8094

 Free energy of the ion-electron system (eV)
  ---------------------------------------------------
  alpha Z        PSCENC =        11.02920051
  Ewald energy   TEWEN  =      -283.38461863
  -Hartree energ DENC   =       -32.02565593
  -exchange      EXHF   =         0.00000000
  -V(xc)+E(xc)   XCENC  =         5.56835399
  PAW double counting   =      1013.89498987     -997.05398702
  entropy T*S    EENTRO =        -0.00000000
  eigenvalues    EBANDS =        16.69550064
  atomic energy  EATOM  =       250.21524468
  Solvation  Ediel_sol  =         0.00000000
  ---------------------------------------------------
  free energy    TOTEN  =       -15.06097188 eV

  energy without entropy =      -15.06097188  energy(sigma->0) =      -15.06097188


--------------------------------------------------------------------------------------------------------




--------------------------------------- Iteration      1(  12)  ---------------------------------------


    POTLOK:  cpu time    0.0110: real time    0.0111
    SETDIJ:  cpu time    0.0114: real time    0.0114
     EDDAV:  cpu time    0.2785: real time    0.2786
       DOS:  cpu time    0.0004: real time    0.0004
    --------------------------------------------
      LOOP:  cpu time    0.3013: real time    0.3014

 eigenvalue-minimisations  :  1296
 total energy-change (2. order) :-0.1348662E-06  (-0.1783278E-06)
 number of electron       8.0000000 magnetization 
 augmentation part       -0.1224541 magnetization 

 Free energy of the ion-electron system (eV)
  ---------------------------------------------------
  alpha Z        PSCENC =        11.02920051
  Ewald energy   TEWEN  =      -283.38461863
  -Hartree energ DENC   =       -32.02994222
  -exchange      EXHF   =         0.00000000
  -V(xc)+E(xc)   XCENC  =         5.56858514
  PAW double counting   =      1013.55703838     -996.71633220
  entropy T*S    EENTRO =        -0.00000000
  eigenvalues    EBANDS =        16.69985232
  atomic energy  EATOM  =       250.21524468
  Solvation  Ediel_sol  =         0.00000000
  ---------------------------------------------------
  free energy    TOTEN  =       -15.06097201 eV

  energy without entropy =      -15.06097201  energy(sigma->0) =      -15.06097201


--------------------------------------------------------------------------------------------------------




 average (electrostatic) potential at core
  the test charge radii are     0.9892  0.6991
  (the norm of the test charge is              1.0000)
       1 -80.5771       2 -44.9936
 
 
 
 E-fermi :   8.3562     XC(G=0): -11.2917     alpha+bet :-16.1933


 k-point     1 :       0.0000    0.0000    0.0000
  band No.  band energies     occupation 
      1      -7.3460      2.00000
      2       7.9413      2.00000
      3       7.9413      2.00000
      4       7.9413      2.00000
      5      14.0020      0.00000
      6      15.1469      0.00000
      7      15.1469      0.00000
      8      15.1469      0.00000

 k-point     2 :       0.0769    0.0000    0.0000
  band No.  band energies     occupation 
      1      -7.2316      2.00000
      2       7.3145      2.00000
      3       7.8601      2.00000
      4       7.8601      2.00000
      5      14.2374      0.00000
      6      15.2545      0.00000
      7      15.2973      0.00000
      8      15.2973      0.00000

 k-point     3 :       0.1538    0.0000    0.0000
  band No.  band energies     occupation 
      1      -6.8914      2.00000
      2       5.8611      2.00000
      3       7.6538      2.00000
      4       7.6538      2.00000
      5      14.1961      0.00000
      6      15.6161      0.00000
      7      15.6161      0.00000
      8      15.9924      0.00000

 k-point     4 :       0.2308    0.0000    0.0000
  band No.  band energies     occupation 
      1      -6.3354      2.00000
      2       4.1203      2.00000
      3       7.3999      2.00000
      4       7.3999      2.00000
      5      13.8817      0.00000
      6      15.7734      0.00000
      7      15.7734      0.00000
      8      16.9569      0.00000

 k-point     5 :       0.3077    0.0000    0.0000
  band No.  band energies     occupation 
      1      -5.5888      2.00000
      2       2.3687      2.00000
      3       7.1663      2.00000
      4       7.1663      2.00000
      5      13.5791      0.00000
      6      15.6057      0.00000
      7      15.6057      0.00000
      8      17.6260      0.00000

 k-point     6 :       0.3846    0.0000    0.0000
  band No.  band energies     occupation 
      1      -4.7198      2.00000
      2       0.7870      2.00000
      3       6.9943      2.00000
      4       6.9943      2.00000
      5      13.3642      0.00000
      6      15.3210      0.00000
      7      15.3210      0.00000
      8      17.8804      0.00000

 k-point     7 :       0.4615    0.0000    0.0000
  band No.  band energies     occupation 
      1      -3.9672      2.00000
      2      -0.3329      2.00000
      3       6.9044      2.00000
      4       6.9044      2.00000
      5      13.2555      0.00000
      6      15.1340      0.00000
      7      15.1340      0.00000
      8      17.9142      0.00000

 k-point     8 :       0.0769    0.0769    0.0000
  band No.  band energies     occupation 
      1      -7.1935      2.00000
      2       7.4688      2.00000
      3       7.6509      2.00000
      4       7.6509      2.00000
      5      14.3615      0.00000
      6      14.8033      0.00000
      7      15.5743      0.00000
      8      15.5743      0.00000

 k-point     9 :       0.1538    0.0769    0.0000
  band No.  band energies     occupation 
      1      -6.9284      2.00000
      2       6.3418      2.00000
      3       7.3521      2.00000
      4       7.5770      2.00000
      5      14.3038      0.00000
      6      14.9594      0.00000
      7      16.0275      0.00000
      8      16.1124      0.00000

 k-point    10 :       0.2308    0.0769    0.0000
  band No.  band energies     occupation 
      1      -6.4439      2.00000
      2       4.7199      2.00000
      3       7.0552      2.00000
      4       7.3733      2.00000
      5      14.0517      0.00000
      6      15.3265      0.00000
      7      16.3423      0.00000
      8      16.6056      0.00000

 k-point    11 :       0.3077    0.0769    0.0000
  band No.  band energies     occupation 
      1      -5.7586      2.00000
      2       2.9899      2.00000
      3       6.8251      2.00000
      4       7.0776      2.00000
      5      13.7794      0.00000
      6      15.3216      0.00000
      7      16.2703      0.00000
      8      17.1936      0.00000

 k-point    12 :       0.3846    0.0769    0.0000
  band No.  band energies     occupation 
      1      -4.9207      2.00000
      2       1.3540      2.00000
      3       6.6969      2.00000
      4       6.7756      2.00000
      5      13.5728      0.00000
      6      15.0353      0.00000
      7      15.9396      0.00000
      8      17.8949      0.00000

 k-point    13 :       0.4615    0.0769    0.0000
  band No.  band energies     occupation 
      1      -4.0846      2.00000
      2       0.0416      2.00000
      3       6.5238      2.00000
      4       6.6827      2.00000
      5      13.4786      0.00000
      6      14.8230      0.00000
      7      15.6047      0.00000
      8      18.2988      0.00000

 k-point    14 :      -0.4615    0.0769    0.0000
  band No.  band energies     occupation 
      1      -3.7649      2.00000
      2      -0.3989      2.00000
      3       6.3579      2.00000
      4       6.7791      2.00000
      5      13.5053      0.00000
      6      14.8030      0.00000
      7      15.4093      0.00000
      8      18.4054      0.00000

 k-point    15 :      -0.3846    0.0769    0.0000
  band No.  band energies     occupation 
      1      -4.3435      2.00000
      2       0.4218      2.00000
      3       6.3010      2.00000
      4       6.9705      2.00000
      5      13.6342      0.00000
      6      15.0042      0.00000
      7      15.3990      0.00000
      8      18.2876      0.00000

 k-point    16 :      -0.3077    0.0769    0.0000
  band No.  band energies     occupation 
      1      -5.2122      2.00000
      2       1.8794      2.00000
      3       6.3669      2.00000
      4       7.2298      2.00000
      5      13.8464      0.00000
      6      15.3789      0.00000
      7      15.5374      0.00000
      8      17.8593      0.00000

 k-point    17 :      -0.2308    0.0769    0.0000
  band No.  band energies     occupation 
      1      -6.0079      2.00000
      2       3.5623      2.00000
      3       6.5596      2.00000
      4       7.5153      2.00000
      5      14.1321      0.00000
      6      15.6676      0.00000
      7      15.7090      0.00000
      8      17.1593      0.00000

 k-point    18 :      -0.1538    0.0769    0.0000
  band No.  band energies     occupation 
      1      -6.6293      2.00000
      2       5.2583      2.00000
      3       6.8750      2.00000
      4       7.7653      2.00000
      5      14.4555      0.00000
      6      15.4779      0.00000
      7      15.5666      0.00000
      8      16.6016      0.00000

 k-point    19 :      -0.0769    0.0769    0.0000
  band No.  band energies     occupation 
      1      -7.0419      2.00000
      2       6.6518      2.00000
      3       7.3393      2.00000
      4       7.9010      2.00000
      5      14.5273      0.00000
      6      15.0722      0.00000
      7      15.3336      0.00000
      8      16.0221      0.00000

 k-point    20 :       0.1538    0.1538    0.0000
  band No.  band energies     occupation 
      1      -6.7395      2.00000
      2       6.3576      2.00000
      3       6.9718      2.00000
      4       6.9718      2.00000
      5      13.6130      0.00000
      6      15.1496      0.00000
      7      16.6479      0.00000
      8      16.6479      0.00000

 k-point    21 :       0.2308    0.1538    0.0000
  band No.  band energies     occupation 
      1      -6.3297      2.00000
      2       5.1812      2.00000
      3       6.6173      2.00000
      4       6.7600      2.00000
      5      13.2218      0.00000
      6      15.1752      0.00000
      7      16.8895      0.00000
      8      17.1865      0.00000

 k-point    22 :       0.3077    0.1538    0.0000
  band No.  band energies     occupation 
      1      -5.7137      2.00000
      2       3.6263      2.00000
      3       6.3560      2.00000
      4       6.4222      2.00000
      5      13.0443      0.00000
      6      15.4558      0.00000
      7      16.6606      0.00000
      8      17.3312      0.00000

 k-point    23 :       0.3846    0.1538    0.0000
  band No.  band energies     occupation 
      1      -4.9272      2.00000
      2       2.0406      2.00000
      3       5.9810      2.00000
      4       6.2229      2.00000
      5      12.8910      0.00000
      6      15.6803      0.00000
      7      17.0329      0.00000
      8      17.0779      0.00000

 k-point    24 :       0.4615    0.1538    0.0000
  band No.  band energies     occupation 
      1      -4.0740      2.00000
      2       0.6478      2.00000
      3       5.5578      2.00000
      4       6.2310      2.00000
      5      12.8517      0.00000
      6      15.5386      0.00000
      7      16.6854      0.00000
      8      18.0785      0.00000

 k-point    25 :      -0.4615    0.1538    0.0000
  band No.  band energies     occupation 
      1      -3.5149      2.00000
      2      -0.1321      2.00000
      3       5.2277      2.00000
      4       6.3764      2.00000
      5      13.0061      0.00000
      6      15.4011      0.00000
      7      16.3496      0.00000
      8      18.8594      0.00000

 k-point    26 :      -0.3846    0.1538    0.0000
  band No.  band energies     occupation 
      1      -3.8294      2.00000
      2       0.3002      2.00000
      3       5.0366      2.00000
      4       6.6398      2.00000
      5      13.3662      0.00000
      6      15.3606      0.00000
      7      16.1522      0.00000
      8      18.8236      0.00000

 k-point    27 :      -0.3077    0.1538    0.0000
  band No.  band energies     occupation 
      1      -4.6483      2.00000
      2       1.5586      2.00000
      3       5.0198      2.00000
      4       6.9842      2.00000
      5      13.8923      0.00000
      6      15.4348      0.00000
      7      16.0865      0.00000
      8      18.1014      0.00000

 k-point    28 :      -0.2308    0.1538    0.0000
  band No.  band energies     occupation 
      1      -5.4734      2.00000
      2       3.0659      2.00000
      3       5.2295      2.00000
      4       7.3486      2.00000
      5      14.4861      0.00000
      6      15.5454      0.00000
      7      16.0322      0.00000
      8      17.1621      0.00000

 k-point    29 :      -0.1538    0.1538    0.0000
  band No.  band energies     occupation 
      1      -6.1501      2.00000
      2       4.4141      2.00000
      3       5.8242      2.00000
      4       7.6436      2.00000
      5      14.9676      0.00000
      6      15.2527      0.00000
      7      15.8107      0.00000
      8      16.7472      0.00000

 k-point    30 :       0.2308    0.2308    0.0000
  band No.  band energies     occupation 
      1      -5.9960      2.00000
      2       4.9672      2.00000
      3       6.2071      2.00000
      4       6.2071      2.00000
      5      12.2974      0.00000
      6      14.5070      0.00000
      7      18.0265      0.00000
      8      18.0265      0.00000

 k-point    31 :       0.3077    0.2308    0.0000
  band No.  band energies     occupation 
      1      -5.4545      2.00000
      2       3.9236      2.00000
      3       5.8024      2.00000
      4       5.8991      2.00000
      5      11.8785      0.00000
      6      14.2172      0.00000
      7      18.1289      0.00000
      8      18.5161      0.00000

 k-point    32 :       0.3846    0.2308    0.0000
  band No.  band energies     occupation 
      1      -4.7333      2.00000
      2       2.6146      2.00000
      3       5.1909      2.00000
      4       5.7323      2.00000
      5      11.7844      0.00000
      6      14.6578      0.00000
      7      17.9394      0.00000
      8      18.4869      0.00000

 k-point    33 :       0.4615    0.2308    0.0000
  band No.  band energies     occupation 
      1      -3.9079      2.00000
      2       1.3227      2.00000
      3       4.5411      2.00000
      4       5.7226      2.00000
      5      11.8159      0.00000
      6      15.6186      0.00000
      7      17.9136      0.00000
      8      18.1419      0.00000

 k-point    34 :      -0.4615    0.2308    0.0000
  band No.  band energies     occupation 
      1      -3.2233      2.00000
      2       0.3934      2.00000
      3       4.0088      2.00000
      4       5.8697      2.00000
      5      12.0178      0.00000
      6      16.3580      0.00000
      7      17.7306      0.00000
      8      18.4275      0.00000

 k-point    35 :      -0.3846    0.2308    0.0000
  band No.  band energies     occupation 
      1      -3.2433      2.00000
      2       0.4356      2.00000
      3       3.6708      2.00000
      4       6.1574      2.00000
      5      12.4319      0.00000
      6      16.5461      0.00000
      7      17.3668      0.00000
      8      18.9512      0.00000

 k-point    36 :      -0.3077    0.2308    0.0000
  band No.  band energies     occupation 
      1      -3.9402      2.00000
      2       1.3842      2.00000
      3       3.6077      2.00000
      4       6.5499      2.00000
      5      13.0535      0.00000
      6      16.5439      0.00000
      7      17.0345      0.00000
      8      18.2645      0.00000

 k-point    37 :      -0.2308    0.2308    0.0000
  band No.  band energies     occupation 
      1      -4.7600      2.00000
      2       2.4347      2.00000
      3       4.0569      2.00000
      4       6.9823      2.00000
      5      13.8264      0.00000
      6      16.2818      0.00000
      7      16.5975      0.00000
      8      17.3576      0.00000

 k-point    38 :       0.3077    0.3077    0.0000
  band No.  band energies     occupation 
      1      -4.9901      2.00000
      2       3.4289      2.00000
      3       5.5412      2.00000
      4       5.5412      2.00000
      5      10.9609      0.00000
      6      13.3993      0.00000
      7      19.4736      0.00000
      8      19.4736      0.00000

 k-point    39 :       0.3846    0.3077    0.0000
  band No.  band energies     occupation 
      1      -4.3451      2.00000
      2       2.5279      2.00000
      3       4.9986      2.00000
      4       5.3277      2.00000
      5      10.6863      0.00000
      6      13.3043      0.00000
      7      19.5972      0.00000
      8      19.8623      0.00000

 k-point    40 :       0.4615    0.3077    0.0000
  band No.  band energies     occupation 
      1      -3.5819      2.00000
      2       1.5912      2.00000
      3       4.0858      2.00000
      4       5.2789      2.00000
      5      10.8273      0.00000
      6      14.0257      0.00000
      7      19.4297      0.00000
      8      19.7085      0.00000

 k-point    41 :      -0.4615    0.3077    0.0000
  band No.  band energies     occupation 
      1      -2.8825      2.00000
      2       0.8460      2.00000
      3       3.2031      2.00000
      4       5.3984      2.00000
      5      11.1177      0.00000
      6      15.3312      0.00000
      7      19.2863      0.00000
      8      19.3096      0.00000

 k-point    42 :      -0.3846    0.3077    0.0000
  band No.  band energies     occupation 
      1      -2.6924      2.00000
      2       0.7124      2.00000
      3       2.6180      2.00000
      4       5.6749      2.00000
      5      11.5733      0.00000
      6      16.6653      0.00000
      7      18.7373      0.00000
      8      19.3169      0.00000

 k-point    43 :      -0.3077    0.3077    0.0000
  band No.  band energies     occupation 
      1      -3.1930      2.00000
      2       1.1544      2.00000
      3       2.6362      2.00000
      4       6.0785      2.00000
      5      12.2254      0.00000
      6      17.2250      0.00000
      7      18.0059      0.00000
      8      18.7752      0.00000

 k-point    44 :       0.3846    0.3846    0.0000
  band No.  band energies     occupation 
      1      -3.7868      2.00000
      2       1.8298      2.00000
      3       5.0636      2.00000
      4       5.0636      2.00000
      5       9.9243      0.00000
      6      12.6337      0.00000
      7      20.7957      0.00000
      8      20.7957      0.00000

 k-point    45 :       0.4615    0.3846    0.0000
  band No.  band energies     occupation 
      1      -3.1239      2.00000
      2       1.0873      2.00000
      3       4.4978      2.00000
      4       4.9660      2.00000
      5       9.9153      0.00000
      6      12.7597      0.00000
      7      20.9241      0.00000
      8      21.0218      0.00000

 k-point    46 :      -0.4615    0.3846    0.0000
  band No.  band energies     occupation 
      1      -2.5356      2.00000
      2       0.6151      2.00000
      3       3.4817      2.00000
      4       5.0426      2.00000
      5      10.3377      0.00000
      6      13.7067      0.00000
      7      20.6766      0.00000
      8      20.7702      0.00000

 k-point    47 :      -0.3846    0.3846    0.0000
  band No.  band energies     occupation 
      1      -2.3661      2.00000
      2       0.6491      2.00000
      3       2.6028      2.00000
      4       5.2867      2.00000
      5      10.8834      0.00000
      6      15.2186      0.00000
      7      19.9084      0.00000
      8      20.4380      0.00000

 k-point    48 :       0.4615    0.4615    0.0000
  band No.  band energies     occupation 
      1      -2.6357      2.00000
      2       0.4593      2.00000
      3       4.8165      2.00000
      4       4.8165      2.00000
      5       9.3807      0.00000
      6      12.2589      0.00000
      7      21.6760      0.00000
      8      21.6760      0.00000

 k-point    49 :      -0.4615    0.4615    0.0000
  band No.  band energies     occupation 
      1      -2.3765      2.00000
      2       0.2533      2.00000
      3       4.3309      2.00000
      4       4.8427      2.00000
      5       9.6548      0.00000
      6      12.5803      0.00000
      7      21.5358      0.00000
      8      21.6207      0.00000

 k-point    50 :       0.2308    0.1538    0.0769
  band No.  band energies     occupation 
      1      -6.5909      2.00000
      2       5.5304      2.00000
      3       6.6192      2.00000
      4       7.4969      2.00000
      5      14.1070      0.00000
      6      15.1867      0.00000
      7      16.3396      0.00000
      8      16.5725      0.00000

 k-point    51 :       0.3077    0.1538    0.0769
  band No.  band energies     occupation 
      1      -6.0402      2.00000
      2       4.1341      2.00000
      3       6.0741      2.00000
      4       7.2949      2.00000
      5      13.9880      0.00000
      6      15.4667      0.00000
      7      16.4702      0.00000
      8      16.7030      0.00000

 k-point    52 :       0.3846    0.1538    0.0769
  band No.  band energies     occupation 
      1      -5.3019      2.00000
      2       2.5234      2.00000
      3       5.7782      2.00000
      4       6.9796      2.00000
      5      13.7959      0.00000
      6      15.2915      0.00000
      7      16.5830      0.00000
      8      17.1544      0.00000

 k-point    53 :       0.4615    0.1538    0.0769
  band No.  band energies     occupation 
      1      -4.4460      2.00000
      2       1.0131      2.00000
      3       5.6356      2.00000
      4       6.6702      2.00000
      5      13.6269      0.00000
      6      14.9070      0.00000
      7      16.4154      0.00000
      8      18.1037      0.00000

 k-point    54 :      -0.4615    0.1538    0.0769
  band No.  band energies     occupation 
      1      -3.7109      2.00000
      2      -0.0662      2.00000
      3       5.5923      2.00000
      4       6.4735      2.00000
      5      13.5420      0.00000
      6      14.6662      0.00000
      7      16.2819      0.00000
      8      18.7467      0.00000

 k-point    55 :       0.3077    0.2308    0.0769
  band No.  band energies     occupation 
      1      -5.8537      2.00000
      2       4.3538      2.00000
      3       5.8172      2.00000
      4       6.6271      2.00000
      5      12.8392      0.00000
      6      14.9759      0.00000
      7      16.9869      0.00000
      8      17.8076      0.00000

 k-point    56 :       0.3846    0.2308    0.0769
  band No.  band energies     occupation 
      1      -5.1833      2.00000
      2       3.0932      2.00000
      3       5.2448      2.00000
      4       6.3250      2.00000
      5      12.7525      0.00000
      6      15.2409      0.00000
      7      16.7192      0.00000
      8      18.1285      0.00000

 k-point    57 :       0.4615    0.2308    0.0769
  band No.  band energies     occupation 
      1      -4.3700      2.00000
      2       1.6929      2.00000
      3       4.8868      2.00000
      4       6.0025      2.00000
      5      12.7148      0.00000
      6      15.6627      0.00000
      7      16.8547      0.00000
      8      18.0958      0.00000

 k-point    58 :      -0.4615    0.2308    0.0769
  band No.  band energies     occupation 
      1      -3.5724      2.00000
      2       0.5140      2.00000
      3       4.6018      2.00000
      4       5.8635      2.00000
      5      12.7799      0.00000
      6      15.5183      0.00000
      7      17.5314      0.00000
      8      18.3201      0.00000

 k-point    59 :      -0.3846    0.2308    0.0769
  band No.  band energies     occupation 
      1      -3.2795      2.00000
      2       0.1268      2.00000
      3       4.3755      2.00000
      4       5.9667      2.00000
      5      13.0016      0.00000
      6      15.3197      0.00000
      7      17.5551      0.00000
      8      18.8952      0.00000

 k-point    60 :      -0.3077    0.2308    0.0769
  band No.  band energies     occupation 
      1      -3.8268      2.00000
      2       0.8796      2.00000
      3       4.2777      2.00000
      4       6.2596      2.00000
      5      13.3622      0.00000
      6      15.2665      0.00000
      7      17.4607      0.00000
      8      18.3044      0.00000

 k-point    61 :      -0.2308    0.2308    0.0769
  band No.  band energies     occupation 
      1      -4.6610      2.00000
      2       2.1551      2.00000
      3       4.4045      2.00000
      4       6.6586      2.00000
      5      13.7712      0.00000
      6      15.4013      0.00000
      7      16.9432      0.00000
      8      17.5952      0.00000

 k-point    62 :      -0.1538    0.2308    0.0769
  band No.  band energies     occupation 
      1      -5.4335      2.00000
      2       3.3622      2.00000
      3       4.9611      2.00000
      4       7.0528      2.00000
      5      14.0293      0.00000
      6      15.5737      0.00000
      7      16.2952      0.00000
      8      17.2102      0.00000

 k-point    63 :       0.3846    0.3077    0.0769
  band No.  band energies     occupation 
      1      -4.8594      2.00000
      2       3.1160      2.00000
      3       5.1247      2.00000
      4       5.6553      2.00000
      5      11.5564      0.00000
      6      13.9940      0.00000
      7      18.1921      0.00000
      8      19.3628      0.00000

 k-point    64 :       0.4615    0.3077    0.0769
  band No.  band energies     occupation 
      1      -4.1100      2.00000
      2       2.1041      2.00000
      3       4.4385      2.00000
      4       5.3324      2.00000
      5      11.6543      0.00000
      6      14.5034      0.00000
      7      17.8806      0.00000
      8      19.6605      0.00000

 k-point    65 :      -0.4615    0.3077    0.0769
  band No.  band energies     occupation 
      1      -3.3217      2.00000
      2       1.0987      2.00000
      3       3.7663      2.00000
      4       5.2391      2.00000
      5      11.8609      0.00000
      6      15.5602      0.00000
      7      17.6401      0.00000
      8      19.5577      0.00000

 k-point    66 :      -0.3846    0.3077    0.0769
  band No.  band energies     occupation 
      1      -2.8463      2.00000
      2       0.5459      2.00000
      3       3.2514      2.00000
      4       5.3894      2.00000
      5      12.1834      0.00000
      6      16.3028      0.00000
      7      17.9595      0.00000
      8      19.3214      0.00000

 k-point    67 :      -0.3077    0.3077    0.0769
  band No.  band energies     occupation 
      1      -3.1437      2.00000
      2       0.9230      2.00000
      3       3.0181      2.00000
      4       5.7270      2.00000
      5      12.6582      0.00000
      6      16.2935      0.00000
      7      18.2041      0.00000
      8      18.8244      0.00000

 k-point    68 :      -0.2308    0.3077    0.0769
  band No.  band energies     occupation 
      1      -3.8905      2.00000
      2       1.6921      2.00000
      3       3.3223      2.00000
      4       6.1850      2.00000
      5      13.2514      0.00000
      6      15.9797      0.00000
      7      17.3542      0.00000
      8      18.3791      0.00000

 k-point    69 :       0.4615    0.3846    0.0769
  band No.  band energies     occupation 
      1      -3.6792      2.00000
      2       1.7683      2.00000
      3       4.6348      2.00000
      4       4.8838      2.00000
      5      10.5938      0.00000
      6      13.2886      0.00000
      7      19.5320      0.00000
      8      20.7792      0.00000

 k-point    70 :      -0.4615    0.3846    0.0769
  band No.  band energies     occupation 
      1      -2.9636      2.00000
      2       1.0901      2.00000
      3       3.7404      2.00000
      4       4.7467      2.00000
      5      10.9678      0.00000
      6      14.0358      0.00000
      7      19.1736      0.00000
      8      20.9636      0.00000

 k-point    71 :      -0.3846    0.3846    0.0769
  band No.  band energies     occupation 
      1      -2.4717      2.00000
      2       0.7489      2.00000
      3       2.8169      2.00000
      4       4.8997      2.00000
      5      11.4292      0.00000
      6      15.3740      0.00000
      7      18.7910      0.00000
      8      20.4519      0.00000

 k-point    72 :      -0.3077    0.3846    0.0769
  band No.  band energies     occupation 
      1      -2.5763      2.00000
      2       0.8936      2.00000
      3       2.3950      2.00000
      4       5.2434      2.00000
      5      11.9824      0.00000
      6      16.5973      0.00000
      7      18.4455      0.00000
      8      19.4651      0.00000

 k-point    73 :      -0.4615    0.4615    0.0769
  band No.  band energies     occupation 
      1      -2.5739      2.00000
      2       0.5493      2.00000
      3       4.3981      2.00000
      4       4.4671      2.00000
      5      10.1013      0.00000
      6      12.9394      0.00000
      7      20.6857      0.00000
      8      21.7111      0.00000

 k-point    74 :      -0.3846    0.4615    0.0769
  band No.  band energies     occupation 
      1      -2.3092      2.00000
      2       0.4764      2.00000
      3       3.4710      2.00000
      4       4.5705      2.00000
      5      10.7396      0.00000
      6      13.8790      0.00000
      7      20.0212      0.00000
      8      21.2786      0.00000

 k-point    75 :       0.4615    0.3077    0.1538
  band No.  band energies     occupation 
      1      -4.4789      2.00000
      2       2.4186      2.00000
      3       4.2338      2.00000
      4       5.9259      2.00000
      5      12.8922      0.00000
      6      15.5015      0.00000
      7      16.3557      0.00000
      8      18.9863      0.00000

 k-point    76 :      -0.4615    0.3077    0.1538
  band No.  band energies     occupation 
      1      -3.6769      2.00000
      2       1.4597      2.00000
      3       3.7129      2.00000
      4       5.4651      2.00000
      5      13.0129      0.00000
      6      15.7620      0.00000
      7      16.6656      0.00000
      8      19.3118      0.00000

 k-point    77 :      -0.3846    0.3077    0.1538
  band No.  band energies     occupation 
      1      -3.0130      2.00000
      2       0.6240      2.00000
      3       3.5541      2.00000
      4       5.1704      2.00000
      5      13.0483      0.00000
      6      15.5547      0.00000
      7      17.9159      0.00000
      8      19.1951      0.00000

 k-point    78 :      -0.4615    0.3846    0.1538
  band No.  band energies     occupation 
      1      -3.3781      2.00000
      2       1.5402      2.00000
      3       3.7459      2.00000
      4       4.7097      2.00000
      5      12.0839      0.00000
      6      14.9325      0.00000
      7      17.4595      0.00000
      8      20.5922      0.00000

 k-point    79 :      -0.3846    0.3846    0.1538
  band No.  band energies     occupation 
      1      -2.7122      2.00000
      2       0.9975      2.00000
      3       3.1543      2.00000
      4       4.3750      2.00000
      5      12.5264      0.00000
      6      15.8884      0.00000
      7      17.2237      0.00000
      8      20.0872      0.00000

 k-point    80 :      -0.3077    0.3846    0.1538
  band No.  band energies     occupation 
      1      -2.5105      2.00000
      2       0.8570      2.00000
      3       2.7700      2.00000
      4       4.4749      2.00000
      5      12.8697      0.00000
      6      16.2811      0.00000
      7      17.8632      0.00000
      8      18.8368      0.00000

 k-point    81 :      -0.2308    0.3846    0.1538
  band No.  band energies     occupation 
      1      -2.9609      2.00000
      2       1.1909      2.00000
      3       2.8867      2.00000
      4       4.8842      2.00000
      5      13.0936      0.00000
      6      16.1461      0.00000
      7      17.0435      0.00000
      8      19.6171      0.00000

 k-point    82 :      -0.3846    0.4615    0.1538
  band No.  band energies     occupation 
      1      -2.4232      2.00000
      2       0.7727      2.00000
      3       3.5778      2.00000
      4       3.8748      2.00000
      5      11.6826      0.00000
      6      14.6391      0.00000
      7      18.6748      0.00000
      8      20.6138      0.00000

 k-point    83 :      -0.3077    0.4615    0.1538
  band No.  band energies     occupation 
      1      -2.2453      2.00000
      2       0.8135      2.00000
      3       2.8581      2.00000
      4       3.9770      2.00000
      5      12.3633      0.00000
      6      15.8198      0.00000
      7      18.0829      0.00000
      8      19.2771      0.00000

 k-point    84 :      -0.3077    0.4615    0.2308
  band No.  band energies     occupation 
      1      -2.2805      2.00000
      2       0.9530      2.00000
      3       2.9026      2.00000
      4       3.6540      2.00000
      5      13.0481      0.00000
      6      16.8367      0.00000
      7      16.9888      0.00000
      8      18.5274      0.00000


--------------------------------------------------------------------------------------------------------


 soft charge-density along one line, spin component           1
         0         1         2         3         4         5         6         7         8         9
 total charge-density along one line
 
 pseudopotential strength for first ion, spin component:           1
 18.083  25.227  -0.000  -0.000  -0.000  -0.000  -0.000  -0.000
 25.227  35.198  -0.000  -0.000  -0.000  -0.000  -0.000  -0.000
 -0.000  -0.000   4.123  -0.000  -0.000   7.680  -0.000  -0.000
 -0.000  -0.000  -0.000   4.123  -0.000  -0.000   7.680  -0.000
 -0.000  -0.000  -0.000  -0.000   4.123  -0.000  -0.000   7.680
 -0.000  -0.000   7.680  -0.000  -0.000  14.319  -0.000  -0.000
 -0.000  -0.000  -0.000   7.680  -0.000  -0.000  14.319  -0.000
 -0.000  -0.000  -0.000  -0.000   7.680  -0.000  -0.000  14.319
 total augmentation occupancy for first ion, spin component:           1
  7.883  -3.546   0.000  -0.000  -0.000   0.000   0.000   0.000
 -3.546   1.735  -0.000   0.000  -0.000  -0.000   0.000  -0.000
 -0.000   0.000   3.930   0.000   0.000  -1.063   0.000   0.000
 -0.000  -0.000   0.000   3.930   0.000   0.000  -1.063   0.000
  0.000   0.000   0.000   0.000   3.930   0.000   0.000  -1.063
  0.000   0.000  -1.063  -0.000   0.000   0.303   0.000  -0.000
  0.000   0.000   0.000  -1.063   0.000   0.000   0.303  -0.000
  0.000  -0.000  -0.000   0.000  -1.063  -0.000   0.000   0.303


------------------------ aborting loop because EDIFF is reached ----------------------------------------


    CHARGE:  cpu time    0.0315: real time    0.0315
    FORLOC:  cpu time    0.0013: real time    0.0013
    FORNL :  cpu time    0.0711: real time    0.0711
    STRESS:  cpu time    0.3102: real time    0.3109
    FORCOR:  cpu time    0.0112: real time    0.0112
    FORHAR:  cpu time    0.0023: real time    0.0023
    MIXING:  cpu time    0.0004: real time    0.0004
    OFIELD:  cpu time    0.0000: real time    0.0000

  FORCE on cell =-STRESS in cart. coord.  units (eV):
  Direction    XX          YY          ZZ          XY          YZ          ZX
  --------------------------------------------------------------------------------------
  Alpha Z    11.02920    11.02920    11.02920
  Ewald     -94.46158   -94.46158   -94.46158    -0.00000    -0.00000     0.00000
  Hartree    10.67748    10.67748    10.67748     0.00000     0.00000     0.00000
  E(xc)     -28.37745   -28.37745   -28.37745     0.00000     0.00000     0.00000
  Local     -20.57563   -20.57563   -20.57563     0.00000     0.00000     0.00000
  n-local    34.16303    35.46293    31.43634     0.23411    -0.13085    -0.00341
  augment    -5.73292    -5.73292    -5.73292    -0.00000    -0.00000    -0.00000
  Kinetic    96.56210    91.63860    93.05313     4.55137    -1.43177     1.56393
  Fock        0.00000     0.00000     0.00000     0.00000     0.00000     0.00000
  -------------------------------------------------------------------------------------
  Total      -0.00219    -0.00219    -0.00219    -0.00000     0.00000    -0.00000
  in kB      -0.16729    -0.16729    -0.16729    -0.00000     0.00000    -0.00000
  external pressure =       -0.17 kB  Pullay stress =        0.00 kB


 VOLUME and BASIS-vectors are now :
 -----------------------------------------------------------------------------
  energy-cutoff  :      520.00
  volume of cell :       21.00
      direct lattice vectors                 reciprocal lattice vectors
     0.000000000  2.189780000  2.189780000    -0.228333440  0.228333440  0.228333440
     2.189780000  0.000000000  2.189780000     0.228333440 -0.228333440  0.228333440
     2.189780000  2.189780000  0.000000000     0.228333440  0.228333440 -0.228333440

  length of vectors
     3.096816575  3.096816575  3.096816575     0.395485119  0.395485119  0.395485119


 FORCES acting on ions
    electron-ion (+dipol)            ewald-force                    non-local-force                 convergence-correction
 -----------------------------------------------------------------------------------------------
   -.718E-07 -.718E-07 -.706E-07   -.207E-14 0.394E-14 0.296E-14   -.555E-16 0.833E-16 0.902E-16   -.724E-09 -.724E-09 -.724E-09
   0.897E-08 0.897E-08 0.703E-08   0.208E-14 -.444E-14 -.286E-14   0.416E-16 0.278E-16 0.850E-16   -.934E-08 -.934E-08 -.934E-08
 -----------------------------------------------------------------------------------------------
   -.628E-07 -.628E-07 -.635E-07   0.154E-16 -.498E-15 0.105E-15   -.139E-16 0.111E-15 0.175E-15   -.101E-07 -.101E-07 -.101E-07
 
 
 POSITION                                       TOTAL-FORCE (eV/Angst)
 -----------------------------------------------------------------------------------
      1.09489      1.09489      1.09489        -0.000000     -0.000000      0.000000
      0.00000      0.00000      0.00000         0.000000      0.000000     -0.000000
 -----------------------------------------------------------------------------------
    total drift:                               -0.000000     -0.000000     -0.000000


--------------------------------------------------------------------------------------------------------



  FREE ENERGIE OF THE ION-ELECTRON SYSTEM (eV)
  ---------------------------------------------------
  free  energy   TOTEN  =       -15.06097201 eV

  energy  without entropy=      -15.06097201  energy(sigma->0) =      -15.06097201
 


--------------------------------------------------------------------------------------------------------


    POTLOK:  cpu time    0.0215: real time    0.0216


--------------------------------------------------------------------------------------------------------


 writing wavefunctions
     LOOP+:  cpu time    4.9504: real time    4.9558
    4ORBIT:  cpu time    0.0000: real time    0.0000

 total amount of memory used by VASP MPI-rank0    44141. kBytes
=======================================================================

   base      :      30000. kBytes
   nonl-proj :       6211. kBytes
   fftplans  :       4177. kBytes
   grid      :       2156. kBytes
   one-center:          6. kBytes
   wavefun   :       1591. kBytes
 
  
  
 General timing and accounting informations for this job:
 ========================================================
  
                  Total CPU time used (sec):        5.638
                            User time (sec):        5.258
                          System time (sec):        0.379
                         Elapsed time (sec):        5.658
  
                   Maximum memory used (kb):       96124.
                   Average memory used (kb):           0.
  
                          Minor page faults:        19931
                          Major page faults:            0
                 Voluntary context switches:          167
