<?xml version="1.0" encoding="ISO-8859-1"?>
<modeling>
 <generator>
  <i name="program" type="string">vasp </i>
  <i name="version" type="string">5.4.4.18Apr17-6-g9f103f2a35  </i>
  <i name="subversion" type="string">(build May 27 2024 22:40:15) complex            parallel </i>
  <i name="platform" type="string">LinuxIFC </i>
  <i name="date" type="string">2024 10 25 </i>
  <i name="time" type="string">20:56:54 </i>
 </generator>
 <incar>
  <i type="int" name="ISTART">     0</i>
  <i type="string" name="PREC">accurate</i>
  <i type="logical" name="ADDGRID"> T  </i>
  <i type="int" name="NELM">    60</i>
  <i type="int" name="IBRION">    -1</i>
  <i name="EDIFF">      0.00000100</i>
  <i name="EDIFFG">     -0.02000000</i>
  <i type="int" name="NSW">     0</i>
  <i name="ENCUT">    520.00000000</i>
  <i type="logical" name="LREAL"> F  </i>
  <i type="int" name="ISMEAR">     0</i>
  <i name="SIGMA">      0.10000000</i>
  <i type="logical" name="LCHARG"> T  </i>
  <v type="int" name="KPOINT_BSE">    -1     0     0     0</v>
  <i type="int" name="NELM">    60</i>
 </incar>
 <structure name="primitive_cell" >
  <crystal>
   <varray name="basis" >
    <v>       0.00000000       2.18978000       2.18978000 </v>
    <v>       2.18978000       0.00000000       2.18978000 </v>
    <v>       2.18978000       2.18978000       0.00000000 </v>
   </varray>
   <i name="volume">     21.00058778 </i>
   <varray name="rec_basis" >
    <v>      -0.22833344       0.22833344       0.22833344 </v>
    <v>       0.22833344      -0.22833344       0.22833344 </v>
    <v>       0.22833344       0.22833344      -0.22833344 </v>
   </varray>
  </crystal>
  <varray name="positions" >
   <v>       0.25000000       0.25000000       0.25000000 </v>
   <v>       0.00000000       0.00000000       0.00000000 </v>
  </varray>
 </structure>
 <varray name="primitive_index" >
  <v type="int" >        1 </v>
  <v type="int" >        2 </v>
 </varray>
 <kpoints>
  <generation param="Gamma">
   <v type="int" name="divisions">      13       13       13 </v>
   <v name="usershift">      0.00000000       0.00000000       0.00000000 </v>
   <v name="genvec1">      0.07692308       0.00000000       0.00000000 </v>
   <v name="genvec2">      0.00000000       0.07692308       0.00000000 </v>
   <v name="genvec3">      0.00000000       0.00000000       0.07692308 </v>
   <v name="shift">      0.00000000       0.00000000       0.00000000 </v>
  </generation>
  <varray name="kpointlist" >
   <v>       0.00000000       0.00000000       0.00000000 </v>
   <v>       0.07692308       0.00000000       0.00000000 </v>
   <v>       0.15384615       0.00000000       0.00000000 </v>
   <v>       0.23076923       0.00000000       0.00000000 </v>
   <v>       0.30769231       0.00000000       0.00000000 </v>
   <v>       0.38461538       0.00000000       0.00000000 </v>
   <v>       0.46153846       0.00000000       0.00000000 </v>
   <v>       0.07692308       0.07692308       0.00000000 </v>
   <v>       0.15384615       0.07692308       0.00000000 </v>
   <v>       0.23076923       0.07692308       0.00000000 </v>
   <v>       0.30769231       0.07692308       0.00000000 </v>
   <v>       0.38461538       0.07692308       0.00000000 </v>
   <v>       0.46153846       0.07692308       0.00000000 </v>
   <v>      -0.46153846       0.07692308       0.00000000 </v>
   <v>      -0.38461538       0.07692308       0.00000000 </v>
   <v>      -0.30769231       0.07692308       0.00000000 </v>
   <v>      -0.23076923       0.07692308       0.00000000 </v>
   <v>      -0.15384615       0.07692308       0.00000000 </v>
   <v>      -0.07692308       0.07692308       0.00000000 </v>
   <v>       0.15384615       0.15384615       0.00000000 </v>
   <v>       0.23076923       0.15384615       0.00000000 </v>
   <v>       0.30769231       0.15384615       0.00000000 </v>
   <v>       0.38461538       0.15384615       0.00000000 </v>
   <v>       0.46153846       0.15384615       0.00000000 </v>
   <v>      -0.46153846       0.15384615       0.00000000 </v>
   <v>      -0.38461538       0.15384615       0.00000000 </v>
   <v>      -0.30769231       0.15384615       0.00000000 </v>
   <v>      -0.23076923       0.15384615       0.00000000 </v>
   <v>      -0.15384615       0.15384615       0.00000000 </v>
   <v>       0.23076923       0.23076923       0.00000000 </v>
   <v>       0.30769231       0.23076923       0.00000000 </v>
   <v>       0.38461538       0.23076923       0.00000000 </v>
   <v>       0.46153846       0.23076923       0.00000000 </v>
   <v>      -0.46153846       0.23076923       0.00000000 </v>
   <v>      -0.38461538       0.23076923       0.00000000 </v>
   <v>      -0.30769231       0.23076923       0.00000000 </v>
   <v>      -0.23076923       0.23076923       0.00000000 </v>
   <v>       0.30769231       0.30769231       0.00000000 </v>
   <v>       0.38461538       0.30769231       0.00000000 </v>
   <v>       0.46153846       0.30769231       0.00000000 </v>
   <v>      -0.46153846       0.30769231       0.00000000 </v>
   <v>      -0.38461538       0.30769231       0.00000000 </v>
   <v>      -0.30769231       0.30769231       0.00000000 </v>
   <v>       0.38461538       0.38461538       0.00000000 </v>
   <v>       0.46153846       0.38461538       0.00000000 </v>
   <v>      -0.46153846       0.38461538       0.00000000 </v>
   <v>      -0.38461538       0.38461538       0.00000000 </v>
   <v>       0.46153846       0.46153846       0.00000000 </v>
   <v>      -0.46153846       0.46153846       0.00000000 </v>
   <v>       0.23076923       0.15384615       0.07692308 </v>
   <v>       0.30769231       0.15384615       0.07692308 </v>
   <v>       0.38461538       0.15384615       0.07692308 </v>
   <v>       0.46153846       0.15384615       0.07692308 </v>
   <v>      -0.46153846       0.15384615       0.07692308 </v>
   <v>       0.30769231       0.23076923       0.07692308 </v>
   <v>       0.38461538       0.23076923       0.07692308 </v>
   <v>       0.46153846       0.23076923       0.07692308 </v>
   <v>      -0.46153846       0.23076923       0.07692308 </v>
   <v>      -0.38461538       0.23076923       0.07692308 </v>
   <v>      -0.30769231       0.23076923       0.07692308 </v>
   <v>      -0.23076923       0.23076923       0.07692308 </v>
   <v>      -0.15384615       0.23076923       0.07692308 </v>
   <v>       0.38461538       0.30769231       0.07692308 </v>
   <v>       0.46153846       0.30769231       0.07692308 </v>
   <v>      -0.46153846       0.30769231       0.07692308 </v>
   <v>      -0.38461538       0.30769231       0.07692308 </v>
   <v>      -0.30769231       0.30769231       0.07692308 </v>
   <v>      -0.23076923       0.30769231       0.07692308 </v>
   <v>       0.46153846       0.38461538       0.07692308 </v>
   <v>      -0.46153846       0.38461538       0.07692308 </v>
   <v>      -0.38461538       0.38461538       0.07692308 </v>
   <v>      -0.30769231       0.38461538       0.07692308 </v>
   <v>      -0.46153846       0.46153846       0.07692308 </v>
   <v>      -0.38461538       0.46153846       0.07692308 </v>
   <v>       0.46153846       0.30769231       0.15384615 </v>
   <v>      -0.46153846       0.30769231       0.15384615 </v>
   <v>      -0.38461538       0.30769231       0.15384615 </v>
   <v>      -0.46153846       0.38461538       0.15384615 </v>
   <v>      -0.38461538       0.38461538       0.15384615 </v>
   <v>      -0.30769231       0.38461538       0.15384615 </v>
   <v>      -0.23076923       0.38461538       0.15384615 </v>
   <v>      -0.38461538       0.46153846       0.15384615 </v>
   <v>      -0.30769231       0.46153846       0.15384615 </v>
   <v>      -0.30769231       0.46153846       0.23076923 </v>
  </varray>
  <varray name="weights" >
   <v>       0.00045517 </v>
   <v>       0.00364133 </v>
   <v>       0.00364133 </v>
   <v>       0.00364133 </v>
   <v>       0.00364133 </v>
   <v>       0.00364133 </v>
   <v>       0.00364133 </v>
   <v>       0.00273100 </v>
   <v>       0.01092399 </v>
   <v>       0.01092399 </v>
   <v>       0.01092399 </v>
   <v>       0.01092399 </v>
   <v>       0.01092399 </v>
   <v>       0.01092399 </v>
   <v>       0.01092399 </v>
   <v>       0.01092399 </v>
   <v>       0.01092399 </v>
   <v>       0.01092399 </v>
   <v>       0.00546199 </v>
   <v>       0.00273100 </v>
   <v>       0.01092399 </v>
   <v>       0.01092399 </v>
   <v>       0.01092399 </v>
   <v>       0.01092399 </v>
   <v>       0.01092399 </v>
   <v>       0.01092399 </v>
   <v>       0.01092399 </v>
   <v>       0.01092399 </v>
   <v>       0.00546199 </v>
   <v>       0.00273100 </v>
   <v>       0.01092399 </v>
   <v>       0.01092399 </v>
   <v>       0.01092399 </v>
   <v>       0.01092399 </v>
   <v>       0.01092399 </v>
   <v>       0.01092399 </v>
   <v>       0.00546199 </v>
   <v>       0.00273100 </v>
   <v>       0.01092399 </v>
   <v>       0.01092399 </v>
   <v>       0.01092399 </v>
   <v>       0.01092399 </v>
   <v>       0.00546199 </v>
   <v>       0.00273100 </v>
   <v>       0.01092399 </v>
   <v>       0.01092399 </v>
   <v>       0.00546199 </v>
   <v>       0.00273100 </v>
   <v>       0.00546199 </v>
   <v>       0.01092399 </v>
   <v>       0.02184797 </v>
   <v>       0.02184797 </v>
   <v>       0.02184797 </v>
   <v>       0.02184797 </v>
   <v>       0.01092399 </v>
   <v>       0.02184797 </v>
   <v>       0.02184797 </v>
   <v>       0.02184797 </v>
   <v>       0.02184797 </v>
   <v>       0.02184797 </v>
   <v>       0.02184797 </v>
   <v>       0.01092399 </v>
   <v>       0.01092399 </v>
   <v>       0.02184797 </v>
   <v>       0.02184797 </v>
   <v>       0.02184797 </v>
   <v>       0.02184797 </v>
   <v>       0.01092399 </v>
   <v>       0.01092399 </v>
   <v>       0.02184797 </v>
   <v>       0.02184797 </v>
   <v>       0.01092399 </v>
   <v>       0.01092399 </v>
   <v>       0.01092399 </v>
   <v>       0.01092399 </v>
   <v>       0.02184797 </v>
   <v>       0.02184797 </v>
   <v>       0.01092399 </v>
   <v>       0.02184797 </v>
   <v>       0.02184797 </v>
   <v>       0.01092399 </v>
   <v>       0.01092399 </v>
   <v>       0.01092399 </v>
   <v>       0.01092399 </v>
  </varray>
 </kpoints>
 <parameters>
  <separator name="general" >
   <i type="string" name="SYSTEM">unknown system</i>
   <i type="logical" name="LCOMPAT"> F  </i>
  </separator>
  <separator name="electronic" >
   <i type="string" name="PREC">accura</i>
   <i name="ENMAX">    520.00000000</i>
   <i name="ENAUG">    644.87300000</i>
   <i name="EDIFF">      0.00000100</i>
   <i type="int" name="IALGO">    38</i>
   <i type="int" name="IWAVPR">    10</i>
   <i type="int" name="NBANDS">     8</i>
   <i name="NELECT">      8.00000000</i>
   <i type="int" name="TURBO">     0</i>
   <i type="int" name="IRESTART">     0</i>
   <i type="int" name="NREBOOT">     0</i>
   <i type="int" name="NMIN">     0</i>
   <i name="EREF">      0.00000000</i>
   <separator name="electronic smearing" >
    <i type="int" name="ISMEAR">     0</i>
    <i name="SIGMA">      0.10000000</i>
    <i name="KSPACING">      0.50000000</i>
    <i type="logical" name="KGAMMA"> T  </i>
   </separator>
   <separator name="electronic projectors" >
    <i type="logical" name="LREAL"> F  </i>
    <v name="ROPT">      0.00000000      0.00000000</v>
    <i type="int" name="LMAXPAW">  -100</i>
    <i type="int" name="LMAXMIX">     2</i>
    <i type="logical" name="NLSPLINE"> F  </i>
   </separator>
   <separator name="electronic startup" >
    <i type="int" name="ISTART">     0</i>
    <i type="int" name="ICHARG">     2</i>
    <i type="int" name="INIWAV">     1</i>
   </separator>
   <separator name="electronic spin" >
    <i type="int" name="ISPIN">     1</i>
    <i type="logical" name="LNONCOLLINEAR"> F  </i>
    <v name="MAGMOM">      1.00000000      1.00000000</v>
    <i name="NUPDOWN">     -1.00000000</i>
    <i type="logical" name="LSORBIT"> F  </i>
    <v name="SAXIS">      0.00000000      0.00000000      1.00000000</v>
    <i type="logical" name="LSPIRAL"> F  </i>
    <v name="QSPIRAL">      0.00000000      0.00000000      0.00000000</v>
    <i type="logical" name="LZEROZ"> F  </i>
   </separator>
   <separator name="electronic exchange-correlation" >
    <i type="logical" name="LASPH"> F  </i>
    <i type="logical" name="LMETAGGA"> F  </i>
   </separator>
   <separator name="electronic convergence" >
    <i type="int" name="NELM">    60</i>
    <i type="int" name="NELMDL">    -5</i>
    <i type="int" name="NELMIN">     2</i>
    <i name="ENINI">    520.00000000</i>
    <separator name="electronic convergence detail" >
     <i type="logical" name="LDIAG"> T  </i>
     <i type="logical" name="LSUBROT"> F  </i>
     <i name="WEIMIN">      0.00000000</i>
     <i name="EBREAK">      0.00000003</i>
     <i name="DEPER">      0.30000000</i>
     <i type="int" name="NRMM">     4</i>
     <i name="TIME">      0.40000000</i>
    </separator>
   </separator>
   <separator name="electronic mixer" >
    <i name="AMIX">      0.40000000</i>
    <i name="BMIX">      1.00000000</i>
    <i name="AMIN">      0.10000000</i>
    <i name="AMIX_MAG">      1.60000000</i>
    <i name="BMIX_MAG">      1.00000000</i>
    <separator name="electronic mixer details" >
     <i type="int" name="IMIX">     4</i>
     <i type="logical" name="MIXFIRST"> F  </i>
     <i type="int" name="MAXMIX">   -45</i>
     <i name="WC">    100.00000000</i>
     <i type="int" name="INIMIX">     1</i>
     <i type="int" name="MIXPRE">     1</i>
     <i type="int" name="MREMOVE">     5</i>
    </separator>
   </separator>
   <separator name="electronic dipolcorrection" >
    <i type="logical" name="LDIPOL"> F  </i>
    <i type="logical" name="LMONO"> F  </i>
    <i type="int" name="IDIPOL">     0</i>
    <i name="EPSILON">      1.00000000</i>
    <v name="DIPOL">   -100.00000000   -100.00000000   -100.00000000</v>
    <i name="EFIELD">      0.00000000</i>
   </separator>
  </separator>
  <separator name="grids" >
   <i type="int" name="NGX">    24</i>
   <i type="int" name="NGY">    24</i>
   <i type="int" name="NGZ">    24</i>
   <i type="int" name="NGXF">    48</i>
   <i type="int" name="NGYF">    48</i>
   <i type="int" name="NGZF">    48</i>
   <i type="logical" name="ADDGRID"> T  </i>
  </separator>
  <separator name="ionic" >
   <i type="int" name="NSW">     0</i>
   <i type="int" name="IBRION">    -1</i>
   <i type="int" name="MDALGO">     0</i>
   <i type="int" name="ISIF">     2</i>
   <i name="PSTRESS">      0.00000000</i>
   <i name="EDIFFG">     -0.02000000</i>
   <i type="int" name="NFREE">     0</i>
   <i name="POTIM">      0.50000000</i>
   <i name="SMASS">     -3.00000000</i>
   <i name="SCALEE">      1.00000000</i>
  </separator>
  <separator name="ionic md" >
   <i name="TEBEG">      0.00010000</i>
   <i name="TEEND">      0.00010000</i>
   <i type="int" name="NBLOCK">     1</i>
   <i type="int" name="KBLOCK">     1</i>
   <i type="int" name="NPACO">   256</i>
   <i name="APACO">     16.00000000</i>
  </separator>
  <separator name="symmetry" >
   <i type="int" name="ISYM">     2</i>
   <i name="SYMPREC">      0.00001000</i>
  </separator>
  <separator name="dos" >
   <i type="int" name="LORBIT">     0</i>
   <v name="RWIGS">     -1.00000000     -1.00000000</v>
   <i type="int" name="NEDOS">   301</i>
   <i name="EMIN">     10.00000000</i>
   <i name="EMAX">    -10.00000000</i>
   <i name="EFERMI">      0.00000000</i>
  </separator>
  <separator name="writing" >
   <i type="int" name="NWRITE">     2</i>
   <i type="logical" name="LWAVE"> T  </i>
   <i type="logical" name="LDOWNSAMPLE"> F  </i>
   <i type="logical" name="LCHARG"> T  </i>
   <i type="logical" name="LPARD"> F  </i>
   <i type="logical" name="LVTOT"> F  </i>
   <i type="logical" name="LVHAR"> F  </i>
   <i type="logical" name="LELF"> F  </i>
   <i type="logical" name="LOPTICS"> F  </i>
   <v name="STM">      0.00000000      0.00000000      0.00000000      0.00000000      0.00000000      0.00000000      0.00000000</v>
  </separator>
  <separator name="performance" >
   <i type="int" name="NPAR">     4</i>
   <i type="int" name="NSIM">     4</i>
   <i type="int" name="NBLK">    -1</i>
   <i type="logical" name="LPLANE"> T  </i>
   <i type="logical" name="LSCALAPACK"> T  </i>
   <i type="logical" name="LSCAAWARE"> F  </i>
   <i type="logical" name="LSCALU"> F  </i>
   <i type="logical" name="LASYNC"> F  </i>
   <i type="logical" name="LORBITALREAL"> F  </i>
  </separator>
  <separator name="miscellaneous" >
   <i type="int" name="IDIOT">     3</i>
   <i type="int" name="ISPECIAL">     0</i>
   <i type="logical" name="LMUSIC"> F  </i>
   <v name="POMASS">     28.08500000     12.01100000</v>
   <v name="DARWINR">      0.00000000      0.00000000</v>
   <v name="DARWINV">      1.00000000      1.00000000</v>
   <i type="logical" name="LCORR"> T  </i>
  </separator>
  <i type="logical" name="GGA_COMPAT"> T  </i>
  <i type="logical" name="LBERRY"> F  </i>
  <i type="int" name="ICORELEVEL">     0</i>
  <i type="logical" name="LDAU"> F  </i>
  <i type="int" name="I_CONSTRAINED_M">     0</i>
  <separator name="electronic exchange-correlation" >
   <i type="string" name="GGA">--</i>
   <i type="int" name="VOSKOWN">     0</i>
   <i type="logical" name="LHFCALC"> F  </i>
   <i type="string" name="PRECFOCK"></i>
   <i type="logical" name="LSYMGRAD"> F  </i>
   <i type="logical" name="LHFONE"> F  </i>
   <i type="logical" name="LRHFCALC"> F  </i>
   <i type="logical" name="LTHOMAS"> F  </i>
   <i type="logical" name="LMODELHF"> F  </i>
   <i name="ENCUT4O">     -1.00000000</i>
   <i type="int" name="EXXOEP">     0</i>
   <i type="int" name="FOURORBIT">     0</i>
   <i name="AEXX">      0.00000000</i>
   <i name="HFALPHA">      0.00000000</i>
   <i name="MCALPHA">      0.00000000</i>
   <i name="ALDAX">      1.00000000</i>
   <i name="AGGAX">      1.00000000</i>
   <i name="ALDAC">      1.00000000</i>
   <i name="AGGAC">      1.00000000</i>
   <i type="int" name="NKREDX">     1</i>
   <i type="int" name="NKREDY">     1</i>
   <i type="int" name="NKREDZ">     1</i>
   <i type="logical" name="SHIFTRED"> F  </i>
   <i type="logical" name="ODDONLY"> F  </i>
   <i type="logical" name="EVENONLY"> F  </i>
   <i type="int" name="LMAXFOCK">     0</i>
   <i type="int" name="NMAXFOCKAE">     0</i>
   <i type="logical" name="LFOCKAEDFT"> F  </i>
   <i name="HFSCREEN">      0.00000000</i>
   <i name="HFSCREENC">      0.00000000</i>
   <i type="int" name="NBANDSGWLOW">     0</i>
  </separator>
  <separator name="vdW DFT" >
   <i type="logical" name="LUSE_VDW"> F  </i>
   <i name="Zab_VDW">     -0.84910000</i>
   <i name="PARAM1">      0.12340000</i>
   <i name="PARAM2">      1.00000000</i>
   <i name="PARAM3">      0.00000000</i>
  </separator>
  <separator name="model GW" >
   <i type="int" name="MODEL_GW">     0</i>
   <i name="MODEL_EPS0">      6.30017634</i>
   <i name="MODEL_ALPHA">      1.00000000</i>
  </separator>
  <separator name="linear response parameters" >
   <i type="logical" name="LEPSILON"> F  </i>
   <i type="logical" name="LRPA"> F  </i>
   <i type="logical" name="LNABLA"> F  </i>
   <i type="logical" name="LVEL"> F  </i>
   <i type="int" name="KINTER">     0</i>
   <i name="CSHIFT">      0.10000000</i>
   <i name="OMEGAMAX">     -1.00000000</i>
   <i name="DEG_THRESHOLD">      0.00200000</i>
   <i name="RTIME">     -0.10000000</i>
   <i name="WPLASMAI">      0.00000000</i>
   <v name="DFIELD">      0.00000000      0.00000000      0.00000000</v>
   <v name="WPLASMA">      0.00000000      0.00000000      0.00000000      0.00000000      0.00000000      0.00000000      0.00000000      0.00000000      0.00000000</v>
  </separator>
  <separator name="orbital magnetization" >
   <i type="logical" name="NUCIND"> F  </i>
   <v name="MAGPOS">      0.00000000      0.00000000      0.00000000</v>
   <i type="logical" name="LNICSALL"> T  </i>
   <i type="logical" name="ORBITALMAG"> F  </i>
   <i type="logical" name="LMAGBLOCH"> F  </i>
   <i type="logical" name="LCHIMAG"> F  </i>
   <i type="logical" name="LGAUGE"> T  </i>
   <i type="int" name="MAGATOM">     0</i>
   <v name="MAGDIPOL">      0.00000000      0.00000000      0.00000000</v>
   <v name="AVECCONST">      0.00000000      0.00000000      0.00000000</v>
  </separator>
  <separator name="response functions" >
   <i type="logical" name="LADDER"> F  </i>
   <i type="logical" name="LRPAFORCE"> F  </i>
   <i type="logical" name="LFXC"> F  </i>
   <i type="logical" name="LHARTREE"> T  </i>
   <i type="int" name="IBSE">     0</i>
   <v type="int" name="KPOINT">    -1     0     0     0</v>
   <i type="logical" name="LTCTE"> F  </i>
   <i type="logical" name="LTETE"> F  </i>
   <i type="logical" name="LTRIPLET"> F  </i>
   <i type="logical" name="LFXCEPS"> F  </i>
   <i type="logical" name="LFXHEG"> F  </i>
   <i type="int" name="NATURALO">     2</i>
   <i type="logical" name="L2ORDER"> F  </i>
   <i type="logical" name="LMP2LT"> F  </i>
   <i type="logical" name="LUSEW"> F  </i>
   <i name="ENCUTGW">     -2.00000000</i>
   <i name="ENCUTGWSOFT">     -2.00000000</i>
   <i name="ENCUTLF">     -1.00000000</i>
   <i type="int" name="LMAXMP2">    -1</i>
   <i name="SCISSOR">      0.00000000</i>
   <i type="int" name="NOMEGA">     0</i>
   <i type="int" name="NOMEGAR">     0</i>
   <i type="int" name="NBANDSGW">    -1</i>
   <i type="int" name="NBANDSO">    -1</i>
   <i type="int" name="NBANDSV">    -1</i>
   <i type="int" name="NELM">    60</i>
   <i type="int" name="NELMHF">     1</i>
   <i type="int" name="DIM">     3</i>
   <i type="int" name="ANTIRES">     0</i>
   <i name="OMEGAMAX">    -30.00000000</i>
   <i name="OMEGAMIN">    -30.00000000</i>
   <i name="OMEGATL">   -200.00000000</i>
   <i type="int" name="OMEGAGRID">   140</i>
   <i name="CSHIFT">     -0.10000000</i>
   <i type="logical" name="SELFENERGY"> F  </i>
   <i type="logical" name="LSPECTRAL"> F  </i>
   <i type="logical" name="LSPECTRALGW"> F  </i>
   <i type="logical" name="LSINGLES"> F  </i>
   <i type="logical" name="LFERMIGW"> F  </i>
   <i type="logical" name="ODDONLYGW"> F  </i>
   <i type="logical" name="EVENONLYGW"> F  </i>
   <i type="int" name="NKREDLFX">     1</i>
   <i type="int" name="NKREDLFY">     1</i>
   <i type="int" name="NKREDLFZ">     1</i>
   <i type="int" name="MAXMEM">  2800</i>
   <i type="int" name="TELESCOPE">     0</i>
   <i type="int" name="TAUPAR">     1</i>
   <i type="int" name="OMEGAPAR">    -1</i>
   <i name="LAMBDA">      1.00000000</i>
  </separator>
  <separator name="External order field" >
   <i name="OFIELD_KAPPA">      0.00000000</i>
   <v name="OFIELD_K">      0.00000000      0.00000000      0.00000000</v>
   <i name="OFIELD_Q6_NEAR">      0.00000000</i>
   <i name="OFIELD_Q6_FAR">      0.00000000</i>
   <i name="OFIELD_A">      0.00000000</i>
  </separator>
 </parameters>
 <atominfo>
  <atoms>       2 </atoms>
  <types>       2 </types>
  <array name="atoms" >
   <dimension dim="1">ion</dimension>
   <field type="string">element</field>
   <field type="int">atomtype</field>
   <set>
    <rc><c>Si</c><c>   1</c></rc>
    <rc><c>C </c><c>   2</c></rc>
   </set>
  </array>
  <array name="atomtypes" >
   <dimension dim="1">type</dimension>
   <field type="int">atomspertype</field>
   <field type="string">element</field>
   <field>mass</field>
   <field>valence</field>
   <field type="string">pseudopotential</field>
   <set>
    <rc><c>   1</c><c>Si</c><c>     28.08500000</c><c>      4.00000000</c><c>  PAW_PBE Si 05Jan2001                  </c></rc>
    <rc><c>   1</c><c>C </c><c>     12.01100000</c><c>      4.00000000</c><c>  PAW_PBE C 08Apr2002                   </c></rc>
   </set>
  </array>
 </atominfo>
 <structure name="initialpos" >
  <crystal>
   <varray name="basis" >
    <v>       0.00000000       2.18978000       2.18978000 </v>
    <v>       2.18978000       0.00000000       2.18978000 </v>
    <v>       2.18978000       2.18978000       0.00000000 </v>
   </varray>
   <i name="volume">     21.00058778 </i>
   <varray name="rec_basis" >
    <v>      -0.22833344       0.22833344       0.22833344 </v>
    <v>       0.22833344      -0.22833344       0.22833344 </v>
    <v>       0.22833344       0.22833344      -0.22833344 </v>
   </varray>
  </crystal>
  <varray name="positions" >
   <v>       0.25000000       0.25000000       0.25000000 </v>
   <v>       0.00000000       0.00000000       0.00000000 </v>
  </varray>
 </structure>
 <calculation>
  <scstep>
   <time name="dav">    0.29    0.29</time>
   <time name="total">    0.32    0.32</time>
   <energy>
    <i name="alphaZ">     11.02920051 </i>
    <i name="ewald">   -283.38461863 </i>
    <i name="hartreedc">    -21.04212228 </i>
    <i name="XCdc">      4.52936772 </i>
    <i name="pawpsdc">    196.64584599 </i>
    <i name="pawaedc">   -179.62196998 </i>
    <i name="eentropy">     -0.00360359 </i>
    <i name="bandstr">     25.67454419 </i>
    <i name="atom">    250.21524468 </i>
    <i name="e_fr_energy">      4.04188862 </i>
    <i name="e_wo_entrp">      4.04549221 </i>
    <i name="e_0_energy">      4.04369042 </i>
   </energy>
  </scstep>
  <scstep>
   <time name="dav">    0.38    0.38</time>
   <time name="total">    0.38    0.38</time>
   <energy>
    <i name="e_fr_energy">    -16.51699766 </i>
    <i name="e_wo_entrp">    -16.51699766 </i>
    <i name="e_0_energy">    -16.51699766 </i>
   </energy>
  </scstep>
  <scstep>
   <time name="dav">    0.33    0.33</time>
   <time name="total">    0.33    0.33</time>
   <energy>
    <i name="e_fr_energy">    -16.87370038 </i>
    <i name="e_wo_entrp">    -16.87370038 </i>
    <i name="e_0_energy">    -16.87370038 </i>
   </energy>
  </scstep>
  <scstep>
   <time name="dav">    0.40    0.40</time>
   <time name="total">    0.40    0.40</time>
   <energy>
    <i name="e_fr_energy">    -16.87495816 </i>
    <i name="e_wo_entrp">    -16.87495816 </i>
    <i name="e_0_energy">    -16.87495816 </i>
   </energy>
  </scstep>
  <scstep>
   <time name="dav">    0.33    0.33</time>
   <time name="total">    0.37    0.37</time>
   <energy>
    <i name="e_fr_energy">    -16.87495843 </i>
    <i name="e_wo_entrp">    -16.87495843 </i>
    <i name="e_0_energy">    -16.87495843 </i>
   </energy>
  </scstep>
  <scstep>
   <time name="dav">    0.28    0.28</time>
   <time name="total">    0.34    0.34</time>
   <energy>
    <i name="e_fr_energy">    -15.11747232 </i>
    <i name="e_wo_entrp">    -15.11747232 </i>
    <i name="e_0_energy">    -15.11747232 </i>
   </energy>
  </scstep>
  <scstep>
   <time name="dav">    0.40    0.40</time>
   <time name="total">    0.45    0.45</time>
   <energy>
    <i name="e_fr_energy">    -15.06818993 </i>
    <i name="e_wo_entrp">    -15.06818993 </i>
    <i name="e_0_energy">    -15.06818993 </i>
   </energy>
  </scstep>
  <scstep>
   <time name="dav">    0.25    0.25</time>
   <time name="total">    0.30    0.30</time>
   <energy>
    <i name="e_fr_energy">    -15.06056896 </i>
    <i name="e_wo_entrp">    -15.06056896 </i>
    <i name="e_0_energy">    -15.06056896 </i>
   </energy>
  </scstep>
  <scstep>
   <time name="dav">    0.42    0.42</time>
   <time name="total">    0.47    0.47</time>
   <energy>
    <i name="e_fr_energy">    -15.06085858 </i>
    <i name="e_wo_entrp">    -15.06085858 </i>
    <i name="e_0_energy">    -15.06085858 </i>
   </energy>
  </scstep>
  <scstep>
   <time name="dav">    0.33    0.33</time>
   <time name="total">    0.38    0.38</time>
   <energy>
    <i name="e_fr_energy">    -15.06097110 </i>
    <i name="e_wo_entrp">    -15.06097110 </i>
    <i name="e_0_energy">    -15.06097110 </i>
   </energy>
  </scstep>
  <scstep>
   <time name="dav">    0.32    0.32</time>
   <time name="total">    0.37    0.37</time>
   <energy>
    <i name="e_fr_energy">    -15.06097188 </i>
    <i name="e_wo_entrp">    -15.06097188 </i>
    <i name="e_0_energy">    -15.06097188 </i>
   </energy>
  </scstep>
  <scstep>
   <time name="dav">    0.28    0.28</time>
   <time name="total">    0.30    0.30</time>
   <energy>
    <i name="alphaZ">     11.02920051 </i>
    <i name="ewald">   -283.38461863 </i>
    <i name="hartreedc">    -32.02994222 </i>
    <i name="XCdc">      5.56858514 </i>
    <i name="pawpsdc">   1013.55703838 </i>
    <i name="pawaedc">   -996.71633220 </i>
    <i name="eentropy">     -0.00000000 </i>
    <i name="bandstr">     16.69985232 </i>
    <i name="atom">    250.21524468 </i>
    <i name="e_fr_energy">    -15.06097201 </i>
    <i name="e_wo_entrp">    -15.06097201 </i>
    <i name="e_0_energy">    -15.06097201 </i>
   </energy>
  </scstep>
  <structure>
   <crystal>
    <varray name="basis" >
     <v>       0.00000000       2.18978000       2.18978000 </v>
     <v>       2.18978000       0.00000000       2.18978000 </v>
     <v>       2.18978000       2.18978000       0.00000000 </v>
    </varray>
    <i name="volume">     21.00058778 </i>
    <varray name="rec_basis" >
     <v>      -0.22833344       0.22833344       0.22833344 </v>
     <v>       0.22833344      -0.22833344       0.22833344 </v>
     <v>       0.22833344       0.22833344      -0.22833344 </v>
    </varray>
   </crystal>
   <varray name="positions" >
    <v>       0.25000000       0.25000000       0.25000000 </v>
    <v>       0.00000000       0.00000000       0.00000000 </v>
   </varray>
  </structure>
  <varray name="forces" >
   <v>      -0.00000000      -0.00000000       0.00000000 </v>
   <v>       0.00000000       0.00000000      -0.00000000 </v>
  </varray>
  <varray name="stress" >
   <v>      -0.16728729       0.00000000      -0.00000000 </v>
   <v>      -0.00000000      -0.16728729      -0.00000000 </v>
   <v>       0.00000000       0.00000000      -0.16728729 </v>
  </varray>
  <energy>
   <i name="e_fr_energy">    -15.06097201 </i>
   <i name="e_wo_entrp">    -15.06097201 </i>
   <i name="e_0_energy">     -0.00000000 </i>
  </energy>
  <time name="totalsc">    4.95    4.96</time>
  <eigenvalues>
   <array>
    <dimension dim="1">band</dimension>
    <dimension dim="2">kpoint</dimension>
    <dimension dim="3">spin</dimension>
    <field>eigene</field>
    <field>occ</field>
    <set>
     <set comment="spin 1">
      <set comment="kpoint 1">
       <r>   -7.3460    1.0000 </r>
       <r>    7.9413    1.0000 </r>
       <r>    7.9413    1.0000 </r>
       <r>    7.9413    1.0000 </r>
       <r>   14.0020    0.0000 </r>
       <r>   15.1469    0.0000 </r>
       <r>   15.1469    0.0000 </r>
       <r>   15.1469    0.0000 </r>
      </set>
      <set comment="kpoint 2">
       <r>   -7.2316    1.0000 </r>
       <r>    7.3145    1.0000 </r>
       <r>    7.8601    1.0000 </r>
       <r>    7.8601    1.0000 </r>
       <r>   14.2374    0.0000 </r>
       <r>   15.2545    0.0000 </r>
       <r>   15.2973    0.0000 </r>
       <r>   15.2973    0.0000 </r>
      </set>
      <set comment="kpoint 3">
       <r>   -6.8914    1.0000 </r>
       <r>    5.8611    1.0000 </r>
       <r>    7.6538    1.0000 </r>
       <r>    7.6538    1.0000 </r>
       <r>   14.1961    0.0000 </r>
       <r>   15.6161    0.0000 </r>
       <r>   15.6161    0.0000 </r>
       <r>   15.9924    0.0000 </r>
      </set>
      <set comment="kpoint 4">
       <r>   -6.3354    1.0000 </r>
       <r>    4.1203    1.0000 </r>
       <r>    7.3999    1.0000 </r>
       <r>    7.3999    1.0000 </r>
       <r>   13.8817    0.0000 </r>
       <r>   15.7734    0.0000 </r>
       <r>   15.7734    0.0000 </r>
       <r>   16.9569    0.0000 </r>
      </set>
      <set comment="kpoint 5">
       <r>   -5.5888    1.0000 </r>
       <r>    2.3687    1.0000 </r>
       <r>    7.1663    1.0000 </r>
       <r>    7.1663    1.0000 </r>
       <r>   13.5791    0.0000 </r>
       <r>   15.6057    0.0000 </r>
       <r>   15.6057    0.0000 </r>
       <r>   17.6260    0.0000 </r>
      </set>
      <set comment="kpoint 6">
       <r>   -4.7198    1.0000 </r>
       <r>    0.7870    1.0000 </r>
       <r>    6.9943    1.0000 </r>
       <r>    6.9943    1.0000 </r>
       <r>   13.3642    0.0000 </r>
       <r>   15.3210    0.0000 </r>
       <r>   15.3210    0.0000 </r>
       <r>   17.8804    0.0000 </r>
      </set>
      <set comment="kpoint 7">
       <r>   -3.9672    1.0000 </r>
       <r>   -0.3329    1.0000 </r>
       <r>    6.9044    1.0000 </r>
       <r>    6.9044    1.0000 </r>
       <r>   13.2555    0.0000 </r>
       <r>   15.1340    0.0000 </r>
       <r>   15.1340    0.0000 </r>
       <r>   17.9142    0.0000 </r>
      </set>
      <set comment="kpoint 8">
       <r>   -7.1935    1.0000 </r>
       <r>    7.4688    1.0000 </r>
       <r>    7.6509    1.0000 </r>
       <r>    7.6509    1.0000 </r>
       <r>   14.3615    0.0000 </r>
       <r>   14.8033    0.0000 </r>
       <r>   15.5743    0.0000 </r>
       <r>   15.5743    0.0000 </r>
      </set>
      <set comment="kpoint 9">
       <r>   -6.9284    1.0000 </r>
       <r>    6.3418    1.0000 </r>
       <r>    7.3521    1.0000 </r>
       <r>    7.5770    1.0000 </r>
       <r>   14.3038    0.0000 </r>
       <r>   14.9594    0.0000 </r>
       <r>   16.0275    0.0000 </r>
       <r>   16.1124    0.0000 </r>
      </set>
      <set comment="kpoint 10">
       <r>   -6.4439    1.0000 </r>
       <r>    4.7199    1.0000 </r>
       <r>    7.0552    1.0000 </r>
       <r>    7.3733    1.0000 </r>
       <r>   14.0517    0.0000 </r>
       <r>   15.3265    0.0000 </r>
       <r>   16.3423    0.0000 </r>
       <r>   16.6056    0.0000 </r>
      </set>
      <set comment="kpoint 11">
       <r>   -5.7586    1.0000 </r>
       <r>    2.9899    1.0000 </r>
       <r>    6.8251    1.0000 </r>
       <r>    7.0776    1.0000 </r>
       <r>   13.7794    0.0000 </r>
       <r>   15.3216    0.0000 </r>
       <r>   16.2703    0.0000 </r>
       <r>   17.1936    0.0000 </r>
      </set>
      <set comment="kpoint 12">
       <r>   -4.9207    1.0000 </r>
       <r>    1.3540    1.0000 </r>
       <r>    6.6969    1.0000 </r>
       <r>    6.7756    1.0000 </r>
       <r>   13.5728    0.0000 </r>
       <r>   15.0353    0.0000 </r>
       <r>   15.9396    0.0000 </r>
       <r>   17.8949    0.0000 </r>
      </set>
      <set comment="kpoint 13">
       <r>   -4.0846    1.0000 </r>
       <r>    0.0416    1.0000 </r>
       <r>    6.5238    1.0000 </r>
       <r>    6.6827    1.0000 </r>
       <r>   13.4786    0.0000 </r>
       <r>   14.8230    0.0000 </r>
       <r>   15.6047    0.0000 </r>
       <r>   18.2988    0.0000 </r>
      </set>
      <set comment="kpoint 14">
       <r>   -3.7649    1.0000 </r>
       <r>   -0.3989    1.0000 </r>
       <r>    6.3579    1.0000 </r>
       <r>    6.7791    1.0000 </r>
       <r>   13.5053    0.0000 </r>
       <r>   14.8030    0.0000 </r>
       <r>   15.4093    0.0000 </r>
       <r>   18.4054    0.0000 </r>
      </set>
      <set comment="kpoint 15">
       <r>   -4.3435    1.0000 </r>
       <r>    0.4218    1.0000 </r>
       <r>    6.3010    1.0000 </r>
       <r>    6.9705    1.0000 </r>
       <r>   13.6342    0.0000 </r>
       <r>   15.0042    0.0000 </r>
       <r>   15.3990    0.0000 </r>
       <r>   18.2876    0.0000 </r>
      </set>
      <set comment="kpoint 16">
       <r>   -5.2122    1.0000 </r>
       <r>    1.8794    1.0000 </r>
       <r>    6.3669    1.0000 </r>
       <r>    7.2298    1.0000 </r>
       <r>   13.8464    0.0000 </r>
       <r>   15.3789    0.0000 </r>
       <r>   15.5374    0.0000 </r>
       <r>   17.8593    0.0000 </r>
      </set>
      <set comment="kpoint 17">
       <r>   -6.0079    1.0000 </r>
       <r>    3.5623    1.0000 </r>
       <r>    6.5596    1.0000 </r>
       <r>    7.5153    1.0000 </r>
       <r>   14.1321    0.0000 </r>
       <r>   15.6676    0.0000 </r>
       <r>   15.7090    0.0000 </r>
       <r>   17.1593    0.0000 </r>
      </set>
      <set comment="kpoint 18">
       <r>   -6.6293    1.0000 </r>
       <r>    5.2583    1.0000 </r>
       <r>    6.8750    1.0000 </r>
       <r>    7.7653    1.0000 </r>
       <r>   14.4555    0.0000 </r>
       <r>   15.4779    0.0000 </r>
       <r>   15.5666    0.0000 </r>
       <r>   16.6016    0.0000 </r>
      </set>
      <set comment="kpoint 19">
       <r>   -7.0419    1.0000 </r>
       <r>    6.6518    1.0000 </r>
       <r>    7.3393    1.0000 </r>
       <r>    7.9010    1.0000 </r>
       <r>   14.5273    0.0000 </r>
       <r>   15.0722    0.0000 </r>
       <r>   15.3336    0.0000 </r>
       <r>   16.0221    0.0000 </r>
      </set>
      <set comment="kpoint 20">
       <r>   -6.7395    1.0000 </r>
       <r>    6.3576    1.0000 </r>
       <r>    6.9718    1.0000 </r>
       <r>    6.9718    1.0000 </r>
       <r>   13.6130    0.0000 </r>
       <r>   15.1496    0.0000 </r>
       <r>   16.6479    0.0000 </r>
       <r>   16.6479    0.0000 </r>
      </set>
      <set comment="kpoint 21">
       <r>   -6.3297    1.0000 </r>
       <r>    5.1812    1.0000 </r>
       <r>    6.6173    1.0000 </r>
       <r>    6.7600    1.0000 </r>
       <r>   13.2218    0.0000 </r>
       <r>   15.1752    0.0000 </r>
       <r>   16.8895    0.0000 </r>
       <r>   17.1865    0.0000 </r>
      </set>
      <set comment="kpoint 22">
       <r>   -5.7137    1.0000 </r>
       <r>    3.6263    1.0000 </r>
       <r>    6.3560    1.0000 </r>
       <r>    6.4222    1.0000 </r>
       <r>   13.0443    0.0000 </r>
       <r>   15.4558    0.0000 </r>
       <r>   16.6606    0.0000 </r>
       <r>   17.3312    0.0000 </r>
      </set>
      <set comment="kpoint 23">
       <r>   -4.9272    1.0000 </r>
       <r>    2.0406    1.0000 </r>
       <r>    5.9810    1.0000 </r>
       <r>    6.2229    1.0000 </r>
       <r>   12.8910    0.0000 </r>
       <r>   15.6803    0.0000 </r>
       <r>   17.0329    0.0000 </r>
       <r>   17.0779    0.0000 </r>
      </set>
      <set comment="kpoint 24">
       <r>   -4.0740    1.0000 </r>
       <r>    0.6478    1.0000 </r>
       <r>    5.5578    1.0000 </r>
       <r>    6.2310    1.0000 </r>
       <r>   12.8517    0.0000 </r>
       <r>   15.5386    0.0000 </r>
       <r>   16.6854    0.0000 </r>
       <r>   18.0785    0.0000 </r>
      </set>
      <set comment="kpoint 25">
       <r>   -3.5149    1.0000 </r>
       <r>   -0.1321    1.0000 </r>
       <r>    5.2277    1.0000 </r>
       <r>    6.3764    1.0000 </r>
       <r>   13.0061    0.0000 </r>
       <r>   15.4011    0.0000 </r>
       <r>   16.3496    0.0000 </r>
       <r>   18.8594    0.0000 </r>
      </set>
      <set comment="kpoint 26">
       <r>   -3.8294    1.0000 </r>
       <r>    0.3002    1.0000 </r>
       <r>    5.0366    1.0000 </r>
       <r>    6.6398    1.0000 </r>
       <r>   13.3662    0.0000 </r>
       <r>   15.3606    0.0000 </r>
       <r>   16.1522    0.0000 </r>
       <r>   18.8236    0.0000 </r>
      </set>
      <set comment="kpoint 27">
       <r>   -4.6483    1.0000 </r>
       <r>    1.5586    1.0000 </r>
       <r>    5.0198    1.0000 </r>
       <r>    6.9842    1.0000 </r>
       <r>   13.8923    0.0000 </r>
       <r>   15.4348    0.0000 </r>
       <r>   16.0865    0.0000 </r>
       <r>   18.1014    0.0000 </r>
      </set>
      <set comment="kpoint 28">
       <r>   -5.4734    1.0000 </r>
       <r>    3.0659    1.0000 </r>
       <r>    5.2295    1.0000 </r>
       <r>    7.3486    1.0000 </r>
       <r>   14.4861    0.0000 </r>
       <r>   15.5454    0.0000 </r>
       <r>   16.0322    0.0000 </r>
       <r>   17.1621    0.0000 </r>
      </set>
      <set comment="kpoint 29">
       <r>   -6.1501    1.0000 </r>
       <r>    4.4141    1.0000 </r>
       <r>    5.8242    1.0000 </r>
       <r>    7.6436    1.0000 </r>
       <r>   14.9676    0.0000 </r>
       <r>   15.2527    0.0000 </r>
       <r>   15.8107    0.0000 </r>
       <r>   16.7472    0.0000 </r>
      </set>
      <set comment="kpoint 30">
       <r>   -5.9960    1.0000 </r>
       <r>    4.9672    1.0000 </r>
       <r>    6.2071    1.0000 </r>
       <r>    6.2071    1.0000 </r>
       <r>   12.2974    0.0000 </r>
       <r>   14.5070    0.0000 </r>
       <r>   18.0265    0.0000 </r>
       <r>   18.0265    0.0000 </r>
      </set>
      <set comment="kpoint 31">
       <r>   -5.4545    1.0000 </r>
       <r>    3.9236    1.0000 </r>
       <r>    5.8024    1.0000 </r>
       <r>    5.8991    1.0000 </r>
       <r>   11.8785    0.0000 </r>
       <r>   14.2172    0.0000 </r>
       <r>   18.1289    0.0000 </r>
       <r>   18.5161    0.0000 </r>
      </set>
      <set comment="kpoint 32">
       <r>   -4.7333    1.0000 </r>
       <r>    2.6146    1.0000 </r>
       <r>    5.1909    1.0000 </r>
       <r>    5.7323    1.0000 </r>
       <r>   11.7844    0.0000 </r>
       <r>   14.6578    0.0000 </r>
       <r>   17.9394    0.0000 </r>
       <r>   18.4869    0.0000 </r>
      </set>
      <set comment="kpoint 33">
       <r>   -3.9079    1.0000 </r>
       <r>    1.3227    1.0000 </r>
       <r>    4.5411    1.0000 </r>
       <r>    5.7226    1.0000 </r>
       <r>   11.8159    0.0000 </r>
       <r>   15.6186    0.0000 </r>
       <r>   17.9136    0.0000 </r>
       <r>   18.1419    0.0000 </r>
      </set>
      <set comment="kpoint 34">
       <r>   -3.2233    1.0000 </r>
       <r>    0.3934    1.0000 </r>
       <r>    4.0088    1.0000 </r>
       <r>    5.8697    1.0000 </r>
       <r>   12.0178    0.0000 </r>
       <r>   16.3580    0.0000 </r>
       <r>   17.7306    0.0000 </r>
       <r>   18.4275    0.0000 </r>
      </set>
      <set comment="kpoint 35">
       <r>   -3.2433    1.0000 </r>
       <r>    0.4356    1.0000 </r>
       <r>    3.6708    1.0000 </r>
       <r>    6.1574    1.0000 </r>
       <r>   12.4319    0.0000 </r>
       <r>   16.5461    0.0000 </r>
       <r>   17.3668    0.0000 </r>
       <r>   18.9512    0.0000 </r>
      </set>
      <set comment="kpoint 36">
       <r>   -3.9402    1.0000 </r>
       <r>    1.3842    1.0000 </r>
       <r>    3.6077    1.0000 </r>
       <r>    6.5499    1.0000 </r>
       <r>   13.0535    0.0000 </r>
       <r>   16.5439    0.0000 </r>
       <r>   17.0345    0.0000 </r>
       <r>   18.2645    0.0000 </r>
      </set>
      <set comment="kpoint 37">
       <r>   -4.7600    1.0000 </r>
       <r>    2.4347    1.0000 </r>
       <r>    4.0569    1.0000 </r>
       <r>    6.9823    1.0000 </r>
       <r>   13.8264    0.0000 </r>
       <r>   16.2818    0.0000 </r>
       <r>   16.5975    0.0000 </r>
       <r>   17.3576    0.0000 </r>
      </set>
      <set comment="kpoint 38">
       <r>   -4.9901    1.0000 </r>
       <r>    3.4289    1.0000 </r>
       <r>    5.5412    1.0000 </r>
       <r>    5.5412    1.0000 </r>
       <r>   10.9609    0.0000 </r>
       <r>   13.3993    0.0000 </r>
       <r>   19.4736    0.0000 </r>
       <r>   19.4736    0.0000 </r>
      </set>
      <set comment="kpoint 39">
       <r>   -4.3451    1.0000 </r>
       <r>    2.5279    1.0000 </r>
       <r>    4.9986    1.0000 </r>
       <r>    5.3277    1.0000 </r>
       <r>   10.6863    0.0000 </r>
       <r>   13.3043    0.0000 </r>
       <r>   19.5972    0.0000 </r>
       <r>   19.8623    0.0000 </r>
      </set>
      <set comment="kpoint 40">
       <r>   -3.5819    1.0000 </r>
       <r>    1.5912    1.0000 </r>
       <r>    4.0858    1.0000 </r>
       <r>    5.2789    1.0000 </r>
       <r>   10.8273    0.0000 </r>
       <r>   14.0257    0.0000 </r>
       <r>   19.4297    0.0000 </r>
       <r>   19.7085    0.0000 </r>
      </set>
      <set comment="kpoint 41">
       <r>   -2.8825    1.0000 </r>
       <r>    0.8460    1.0000 </r>
       <r>    3.2031    1.0000 </r>
       <r>    5.3984    1.0000 </r>
       <r>   11.1177    0.0000 </r>
       <r>   15.3312    0.0000 </r>
       <r>   19.2863    0.0000 </r>
       <r>   19.3096    0.0000 </r>
      </set>
      <set comment="kpoint 42">
       <r>   -2.6924    1.0000 </r>
       <r>    0.7124    1.0000 </r>
       <r>    2.6180    1.0000 </r>
       <r>    5.6749    1.0000 </r>
       <r>   11.5733    0.0000 </r>
       <r>   16.6653    0.0000 </r>
       <r>   18.7373    0.0000 </r>
       <r>   19.3169    0.0000 </r>
      </set>
      <set comment="kpoint 43">
       <r>   -3.1930    1.0000 </r>
       <r>    1.1544    1.0000 </r>
       <r>    2.6362    1.0000 </r>
       <r>    6.0785    1.0000 </r>
       <r>   12.2254    0.0000 </r>
       <r>   17.2250    0.0000 </r>
       <r>   18.0059    0.0000 </r>
       <r>   18.7752    0.0000 </r>
      </set>
      <set comment="kpoint 44">
       <r>   -3.7868    1.0000 </r>
       <r>    1.8298    1.0000 </r>
       <r>    5.0636    1.0000 </r>
       <r>    5.0636    1.0000 </r>
       <r>    9.9243    0.0000 </r>
       <r>   12.6337    0.0000 </r>
       <r>   20.7957    0.0000 </r>
       <r>   20.7957    0.0000 </r>
      </set>
      <set comment="kpoint 45">
       <r>   -3.1239    1.0000 </r>
       <r>    1.0873    1.0000 </r>
       <r>    4.4978    1.0000 </r>
       <r>    4.9660    1.0000 </r>
       <r>    9.9153    0.0000 </r>
       <r>   12.7597    0.0000 </r>
       <r>   20.9241    0.0000 </r>
       <r>   21.0218    0.0000 </r>
      </set>
      <set comment="kpoint 46">
       <r>   -2.5356    1.0000 </r>
       <r>    0.6151    1.0000 </r>
       <r>    3.4817    1.0000 </r>
       <r>    5.0426    1.0000 </r>
       <r>   10.3377    0.0000 </r>
       <r>   13.7067    0.0000 </r>
       <r>   20.6766    0.0000 </r>
       <r>   20.7702    0.0000 </r>
      </set>
      <set comment="kpoint 47">
       <r>   -2.3661    1.0000 </r>
       <r>    0.6491    1.0000 </r>
       <r>    2.6028    1.0000 </r>
       <r>    5.2867    1.0000 </r>
       <r>   10.8834    0.0000 </r>
       <r>   15.2186    0.0000 </r>
       <r>   19.9084    0.0000 </r>
       <r>   20.4380    0.0000 </r>
      </set>
      <set comment="kpoint 48">
       <r>   -2.6357    1.0000 </r>
       <r>    0.4593    1.0000 </r>
       <r>    4.8165    1.0000 </r>
       <r>    4.8165    1.0000 </r>
       <r>    9.3807    0.0000 </r>
       <r>   12.2589    0.0000 </r>
       <r>   21.6760    0.0000 </r>
       <r>   21.6760    0.0000 </r>
      </set>
      <set comment="kpoint 49">
       <r>   -2.3765    1.0000 </r>
       <r>    0.2533    1.0000 </r>
       <r>    4.3309    1.0000 </r>
       <r>    4.8427    1.0000 </r>
       <r>    9.6548    0.0000 </r>
       <r>   12.5803    0.0000 </r>
       <r>   21.5358    0.0000 </r>
       <r>   21.6207    0.0000 </r>
      </set>
      <set comment="kpoint 50">
       <r>   -6.5909    1.0000 </r>
       <r>    5.5304    1.0000 </r>
       <r>    6.6192    1.0000 </r>
       <r>    7.4969    1.0000 </r>
       <r>   14.1070    0.0000 </r>
       <r>   15.1867    0.0000 </r>
       <r>   16.3396    0.0000 </r>
       <r>   16.5725    0.0000 </r>
      </set>
      <set comment="kpoint 51">
       <r>   -6.0402    1.0000 </r>
       <r>    4.1341    1.0000 </r>
       <r>    6.0741    1.0000 </r>
       <r>    7.2949    1.0000 </r>
       <r>   13.9880    0.0000 </r>
       <r>   15.4667    0.0000 </r>
       <r>   16.4702    0.0000 </r>
       <r>   16.7030    0.0000 </r>
      </set>
      <set comment="kpoint 52">
       <r>   -5.3019    1.0000 </r>
       <r>    2.5234    1.0000 </r>
       <r>    5.7782    1.0000 </r>
       <r>    6.9796    1.0000 </r>
       <r>   13.7959    0.0000 </r>
       <r>   15.2915    0.0000 </r>
       <r>   16.5830    0.0000 </r>
       <r>   17.1544    0.0000 </r>
      </set>
      <set comment="kpoint 53">
       <r>   -4.4460    1.0000 </r>
       <r>    1.0131    1.0000 </r>
       <r>    5.6356    1.0000 </r>
       <r>    6.6702    1.0000 </r>
       <r>   13.6269    0.0000 </r>
       <r>   14.9070    0.0000 </r>
       <r>   16.4154    0.0000 </r>
       <r>   18.1037    0.0000 </r>
      </set>
      <set comment="kpoint 54">
       <r>   -3.7109    1.0000 </r>
       <r>   -0.0662    1.0000 </r>
       <r>    5.5923    1.0000 </r>
       <r>    6.4735    1.0000 </r>
       <r>   13.5420    0.0000 </r>
       <r>   14.6662    0.0000 </r>
       <r>   16.2819    0.0000 </r>
       <r>   18.7467    0.0000 </r>
      </set>
      <set comment="kpoint 55">
       <r>   -5.8537    1.0000 </r>
       <r>    4.3538    1.0000 </r>
       <r>    5.8172    1.0000 </r>
       <r>    6.6271    1.0000 </r>
       <r>   12.8392    0.0000 </r>
       <r>   14.9759    0.0000 </r>
       <r>   16.9869    0.0000 </r>
       <r>   17.8076    0.0000 </r>
      </set>
      <set comment="kpoint 56">
       <r>   -5.1833    1.0000 </r>
       <r>    3.0932    1.0000 </r>
       <r>    5.2448    1.0000 </r>
       <r>    6.3250    1.0000 </r>
       <r>   12.7525    0.0000 </r>
       <r>   15.2409    0.0000 </r>
       <r>   16.7192    0.0000 </r>
       <r>   18.1285    0.0000 </r>
      </set>
      <set comment="kpoint 57">
       <r>   -4.3700    1.0000 </r>
       <r>    1.6929    1.0000 </r>
       <r>    4.8868    1.0000 </r>
       <r>    6.0025    1.0000 </r>
       <r>   12.7148    0.0000 </r>
       <r>   15.6627    0.0000 </r>
       <r>   16.8547    0.0000 </r>
       <r>   18.0958    0.0000 </r>
      </set>
      <set comment="kpoint 58">
       <r>   -3.5724    1.0000 </r>
       <r>    0.5140    1.0000 </r>
       <r>    4.6018    1.0000 </r>
       <r>    5.8635    1.0000 </r>
       <r>   12.7799    0.0000 </r>
       <r>   15.5183    0.0000 </r>
       <r>   17.5314    0.0000 </r>
       <r>   18.3201    0.0000 </r>
      </set>
      <set comment="kpoint 59">
       <r>   -3.2795    1.0000 </r>
       <r>    0.1268    1.0000 </r>
       <r>    4.3755    1.0000 </r>
       <r>    5.9667    1.0000 </r>
       <r>   13.0016    0.0000 </r>
       <r>   15.3197    0.0000 </r>
       <r>   17.5551    0.0000 </r>
       <r>   18.8952    0.0000 </r>
      </set>
      <set comment="kpoint 60">
       <r>   -3.8268    1.0000 </r>
       <r>    0.8796    1.0000 </r>
       <r>    4.2777    1.0000 </r>
       <r>    6.2596    1.0000 </r>
       <r>   13.3622    0.0000 </r>
       <r>   15.2665    0.0000 </r>
       <r>   17.4607    0.0000 </r>
       <r>   18.3044    0.0000 </r>
      </set>
      <set comment="kpoint 61">
       <r>   -4.6610    1.0000 </r>
       <r>    2.1551    1.0000 </r>
       <r>    4.4045    1.0000 </r>
       <r>    6.6586    1.0000 </r>
       <r>   13.7712    0.0000 </r>
       <r>   15.4013    0.0000 </r>
       <r>   16.9432    0.0000 </r>
       <r>   17.5952    0.0000 </r>
      </set>
      <set comment="kpoint 62">
       <r>   -5.4335    1.0000 </r>
       <r>    3.3622    1.0000 </r>
       <r>    4.9611    1.0000 </r>
       <r>    7.0528    1.0000 </r>
       <r>   14.0293    0.0000 </r>
       <r>   15.5737    0.0000 </r>
       <r>   16.2952    0.0000 </r>
       <r>   17.2102    0.0000 </r>
      </set>
      <set comment="kpoint 63">
       <r>   -4.8594    1.0000 </r>
       <r>    3.1160    1.0000 </r>
       <r>    5.1247    1.0000 </r>
       <r>    5.6553    1.0000 </r>
       <r>   11.5564    0.0000 </r>
       <r>   13.9940    0.0000 </r>
       <r>   18.1921    0.0000 </r>
       <r>   19.3628    0.0000 </r>
      </set>
      <set comment="kpoint 64">
       <r>   -4.1100    1.0000 </r>
       <r>    2.1041    1.0000 </r>
       <r>    4.4385    1.0000 </r>
       <r>    5.3324    1.0000 </r>
       <r>   11.6543    0.0000 </r>
       <r>   14.5034    0.0000 </r>
       <r>   17.8806    0.0000 </r>
       <r>   19.6605    0.0000 </r>
      </set>
      <set comment="kpoint 65">
       <r>   -3.3217    1.0000 </r>
       <r>    1.0987    1.0000 </r>
       <r>    3.7663    1.0000 </r>
       <r>    5.2391    1.0000 </r>
       <r>   11.8609    0.0000 </r>
       <r>   15.5602    0.0000 </r>
       <r>   17.6401    0.0000 </r>
       <r>   19.5577    0.0000 </r>
      </set>
      <set comment="kpoint 66">
       <r>   -2.8463    1.0000 </r>
       <r>    0.5459    1.0000 </r>
       <r>    3.2514    1.0000 </r>
       <r>    5.3894    1.0000 </r>
       <r>   12.1834    0.0000 </r>
       <r>   16.3028    0.0000 </r>
       <r>   17.9595    0.0000 </r>
       <r>   19.3214    0.0000 </r>
      </set>
      <set comment="kpoint 67">
       <r>   -3.1437    1.0000 </r>
       <r>    0.9230    1.0000 </r>
       <r>    3.0181    1.0000 </r>
       <r>    5.7270    1.0000 </r>
       <r>   12.6582    0.0000 </r>
       <r>   16.2935    0.0000 </r>
       <r>   18.2041    0.0000 </r>
       <r>   18.8244    0.0000 </r>
      </set>
      <set comment="kpoint 68">
       <r>   -3.8905    1.0000 </r>
       <r>    1.6921    1.0000 </r>
       <r>    3.3223    1.0000 </r>
       <r>    6.1850    1.0000 </r>
       <r>   13.2514    0.0000 </r>
       <r>   15.9797    0.0000 </r>
       <r>   17.3542    0.0000 </r>
       <r>   18.3791    0.0000 </r>
      </set>
      <set comment="kpoint 69">
       <r>   -3.6792    1.0000 </r>
       <r>    1.7683    1.0000 </r>
       <r>    4.6348    1.0000 </r>
       <r>    4.8838    1.0000 </r>
       <r>   10.5938    0.0000 </r>
       <r>   13.2886    0.0000 </r>
       <r>   19.5320    0.0000 </r>
       <r>   20.7792    0.0000 </r>
      </set>
      <set comment="kpoint 70">
       <r>   -2.9636    1.0000 </r>
       <r>    1.0901    1.0000 </r>
       <r>    3.7404    1.0000 </r>
       <r>    4.7467    1.0000 </r>
       <r>   10.9678    0.0000 </r>
       <r>   14.0358    0.0000 </r>
       <r>   19.1736    0.0000 </r>
       <r>   20.9636    0.0000 </r>
      </set>
      <set comment="kpoint 71">
       <r>   -2.4717    1.0000 </r>
       <r>    0.7489    1.0000 </r>
       <r>    2.8169    1.0000 </r>
       <r>    4.8997    1.0000 </r>
       <r>   11.4292    0.0000 </r>
       <r>   15.3740    0.0000 </r>
       <r>   18.7910    0.0000 </r>
       <r>   20.4519    0.0000 </r>
      </set>
      <set comment="kpoint 72">
       <r>   -2.5763    1.0000 </r>
       <r>    0.8936    1.0000 </r>
       <r>    2.3950    1.0000 </r>
       <r>    5.2434    1.0000 </r>
       <r>   11.9824    0.0000 </r>
       <r>   16.5973    0.0000 </r>
       <r>   18.4455    0.0000 </r>
       <r>   19.4651    0.0000 </r>
      </set>
      <set comment="kpoint 73">
       <r>   -2.5739    1.0000 </r>
       <r>    0.5493    1.0000 </r>
       <r>    4.3981    1.0000 </r>
       <r>    4.4671    1.0000 </r>
       <r>   10.1013    0.0000 </r>
       <r>   12.9394    0.0000 </r>
       <r>   20.6857    0.0000 </r>
       <r>   21.7111    0.0000 </r>
      </set>
      <set comment="kpoint 74">
       <r>   -2.3092    1.0000 </r>
       <r>    0.4764    1.0000 </r>
       <r>    3.4710    1.0000 </r>
       <r>    4.5705    1.0000 </r>
       <r>   10.7396    0.0000 </r>
       <r>   13.8790    0.0000 </r>
       <r>   20.0212    0.0000 </r>
       <r>   21.2786    0.0000 </r>
      </set>
      <set comment="kpoint 75">
       <r>   -4.4789    1.0000 </r>
       <r>    2.4186    1.0000 </r>
       <r>    4.2338    1.0000 </r>
       <r>    5.9259    1.0000 </r>
       <r>   12.8922    0.0000 </r>
       <r>   15.5015    0.0000 </r>
       <r>   16.3557    0.0000 </r>
       <r>   18.9863    0.0000 </r>
      </set>
      <set comment="kpoint 76">
       <r>   -3.6769    1.0000 </r>
       <r>    1.4597    1.0000 </r>
       <r>    3.7129    1.0000 </r>
       <r>    5.4651    1.0000 </r>
       <r>   13.0129    0.0000 </r>
       <r>   15.7620    0.0000 </r>
       <r>   16.6656    0.0000 </r>
       <r>   19.3118    0.0000 </r>
      </set>
      <set comment="kpoint 77">
       <r>   -3.0130    1.0000 </r>
       <r>    0.6240    1.0000 </r>
       <r>    3.5541    1.0000 </r>
       <r>    5.1704    1.0000 </r>
       <r>   13.0483    0.0000 </r>
       <r>   15.5547    0.0000 </r>
       <r>   17.9159    0.0000 </r>
       <r>   19.1951    0.0000 </r>
      </set>
      <set comment="kpoint 78">
       <r>   -3.3781    1.0000 </r>
       <r>    1.5402    1.0000 </r>
       <r>    3.7459    1.0000 </r>
       <r>    4.7097    1.0000 </r>
       <r>   12.0839    0.0000 </r>
       <r>   14.9325    0.0000 </r>
       <r>   17.4595    0.0000 </r>
       <r>   20.5922    0.0000 </r>
      </set>
      <set comment="kpoint 79">
       <r>   -2.7122    1.0000 </r>
       <r>    0.9975    1.0000 </r>
       <r>    3.1543    1.0000 </r>
       <r>    4.3750    1.0000 </r>
       <r>   12.5264    0.0000 </r>
       <r>   15.8884    0.0000 </r>
       <r>   17.2237    0.0000 </r>
       <r>   20.0872    0.0000 </r>
      </set>
      <set comment="kpoint 80">
       <r>   -2.5105    1.0000 </r>
       <r>    0.8570    1.0000 </r>
       <r>    2.7700    1.0000 </r>
       <r>    4.4749    1.0000 </r>
       <r>   12.8697    0.0000 </r>
       <r>   16.2811    0.0000 </r>
       <r>   17.8632    0.0000 </r>
       <r>   18.8368    0.0000 </r>
      </set>
      <set comment="kpoint 81">
       <r>   -2.9609    1.0000 </r>
       <r>    1.1909    1.0000 </r>
       <r>    2.8867    1.0000 </r>
       <r>    4.8842    1.0000 </r>
       <r>   13.0936    0.0000 </r>
       <r>   16.1461    0.0000 </r>
       <r>   17.0435    0.0000 </r>
       <r>   19.6171    0.0000 </r>
      </set>
      <set comment="kpoint 82">
       <r>   -2.4232    1.0000 </r>
       <r>    0.7727    1.0000 </r>
       <r>    3.5778    1.0000 </r>
       <r>    3.8748    1.0000 </r>
       <r>   11.6826    0.0000 </r>
       <r>   14.6391    0.0000 </r>
       <r>   18.6748    0.0000 </r>
       <r>   20.6138    0.0000 </r>
      </set>
      <set comment="kpoint 83">
       <r>   -2.2453    1.0000 </r>
       <r>    0.8135    1.0000 </r>
       <r>    2.8581    1.0000 </r>
       <r>    3.9770    1.0000 </r>
       <r>   12.3633    0.0000 </r>
       <r>   15.8198    0.0000 </r>
       <r>   18.0829    0.0000 </r>
       <r>   19.2771    0.0000 </r>
      </set>
      <set comment="kpoint 84">
       <r>   -2.2805    1.0000 </r>
       <r>    0.9530    1.0000 </r>
       <r>    2.9026    1.0000 </r>
       <r>    3.6540    1.0000 </r>
       <r>   13.0481    0.0000 </r>
       <r>   16.8367    0.0000 </r>
       <r>   16.9888    0.0000 </r>
       <r>   18.5274    0.0000 </r>
      </set>
     </set>
    </set>
   </array>
  </eigenvalues>
  <separator name="orbital magnetization" >
   <v name="MAGDIPOLOUT">      0.00000000      0.00000000      0.00000000</v>
  </separator>
  <dos>
   <i name="efermi">      8.35616645 </i>
   <total>
    <array>
     <dimension dim="1">gridpoints</dimension>
     <dimension dim="2">spin</dimension>
     <field>energy</field>
     <field>total</field>
     <field>integrated</field>
     <set>
      <set comment="spin 1">
       <r>    -8.7989     0.0000     0.0000 </r>
       <r>    -8.6923     0.0000     0.0000 </r>
       <r>    -8.5858     0.0000     0.0000 </r>
       <r>    -8.4792     0.0000     0.0000 </r>
       <r>    -8.3727     0.0000     0.0000 </r>
       <r>    -8.2661     0.0000     0.0000 </r>
       <r>    -8.1596     0.0000     0.0000 </r>
       <r>    -8.0531     0.0000     0.0000 </r>
       <r>    -7.9465     0.0000     0.0000 </r>
       <r>    -7.8400     0.0000     0.0000 </r>
       <r>    -7.7334     0.0000     0.0000 </r>
       <r>    -7.6269     0.0000     0.0000 </r>
       <r>    -7.5203     0.0001     0.0000 </r>
       <r>    -7.4138     0.0018     0.0002 </r>
       <r>    -7.3073     0.0167     0.0020 </r>
       <r>    -7.2007     0.0604     0.0084 </r>
       <r>    -7.0942     0.0690     0.0158 </r>
       <r>    -6.9876     0.1071     0.0272 </r>
       <r>    -6.8811     0.1672     0.0450 </r>
       <r>    -6.7746     0.0964     0.0553 </r>
       <r>    -6.6680     0.1170     0.0677 </r>
       <r>    -6.5615     0.2356     0.0928 </r>
       <r>    -6.4549     0.1880     0.1129 </r>
       <r>    -6.3484     0.2037     0.1346 </r>
       <r>    -6.2418     0.1633     0.1520 </r>
       <r>    -6.1353     0.1220     0.1650 </r>
       <r>    -6.0288     0.3219     0.1992 </r>
       <r>    -5.9222     0.3291     0.2343 </r>
       <r>    -5.8157     0.2154     0.2573 </r>
       <r>    -5.7091     0.2656     0.2856 </r>
       <r>    -5.6026     0.1744     0.3041 </r>
       <r>    -5.4960     0.2088     0.3264 </r>
       <r>    -5.3895     0.3786     0.3667 </r>
       <r>    -5.2830     0.3773     0.4069 </r>
       <r>    -5.1764     0.4503     0.4549 </r>
       <r>    -5.0699     0.2552     0.4821 </r>
       <r>    -4.9633     0.1782     0.5011 </r>
       <r>    -4.8568     0.3493     0.5383 </r>
       <r>    -4.7502     0.3560     0.5762 </r>
       <r>    -4.6437     0.4905     0.6285 </r>
       <r>    -4.5372     0.3539     0.6662 </r>
       <r>    -4.4306     0.4618     0.7154 </r>
       <r>    -4.3241     0.6309     0.7826 </r>
       <r>    -4.2175     0.2996     0.8145 </r>
       <r>    -4.1110     0.3252     0.8492 </r>
       <r>    -4.0044     0.4826     0.9006 </r>
       <r>    -3.8979     0.5185     0.9559 </r>
       <r>    -3.7914     0.7431     1.0350 </r>
       <r>    -3.6848     0.8331     1.1238 </r>
       <r>    -3.5783     0.7570     1.2044 </r>
       <r>    -3.4717     0.4730     1.2548 </r>
       <r>    -3.3652     0.3573     1.2929 </r>
       <r>    -3.2586     0.6915     1.3666 </r>
       <r>    -3.1521     0.7316     1.4445 </r>
       <r>    -3.0456     0.5903     1.5074 </r>
       <r>    -2.9390     0.6743     1.5793 </r>
       <r>    -2.8325     0.6002     1.6432 </r>
       <r>    -2.7259     0.4521     1.6914 </r>
       <r>    -2.6194     0.5115     1.7459 </r>
       <r>    -2.5128     0.7220     1.8228 </r>
       <r>    -2.4063     0.7389     1.9015 </r>
       <r>    -2.2998     0.5042     1.9552 </r>
       <r>    -2.1932     0.3389     1.9913 </r>
       <r>    -2.0867     0.0779     1.9996 </r>
       <r>    -1.9801     0.0033     2.0000 </r>
       <r>    -1.8736     0.0000     2.0000 </r>
       <r>    -1.7670     0.0000     2.0000 </r>
       <r>    -1.6605     0.0000     2.0000 </r>
       <r>    -1.5540     0.0000     2.0000 </r>
       <r>    -1.4474     0.0000     2.0000 </r>
       <r>    -1.3409     0.0000     2.0000 </r>
       <r>    -1.2343     0.0000     2.0000 </r>
       <r>    -1.1278     0.0000     2.0000 </r>
       <r>    -1.0212     0.0000     2.0000 </r>
       <r>    -0.9147     0.0000     2.0000 </r>
       <r>    -0.8082     0.0000     2.0000 </r>
       <r>    -0.7016     0.0000     2.0000 </r>
       <r>    -0.5951     0.0006     2.0001 </r>
       <r>    -0.4885     0.0214     2.0023 </r>
       <r>    -0.3820     0.1167     2.0148 </r>
       <r>    -0.2755     0.1173     2.0273 </r>
       <r>    -0.1689     0.1088     2.0389 </r>
       <r>    -0.0624     0.3106     2.0719 </r>
       <r>     0.0442     0.3432     2.1085 </r>
       <r>     0.1507     0.3326     2.1439 </r>
       <r>     0.2573     0.2576     2.1714 </r>
       <r>     0.3638     0.3279     2.2063 </r>
       <r>     0.4703     0.6777     2.2785 </r>
       <r>     0.5769     1.0049     2.3856 </r>
       <r>     0.6834     0.9620     2.4881 </r>
       <r>     0.7900     0.9294     2.5871 </r>
       <r>     0.8965     1.2098     2.7160 </r>
       <r>     1.0031     1.2144     2.8454 </r>
       <r>     1.1096     1.0531     2.9576 </r>
       <r>     1.2161     0.6193     3.0236 </r>
       <r>     1.3227     0.3289     3.0586 </r>
       <r>     1.4292     0.4636     3.1080 </r>
       <r>     1.5358     0.5133     3.1627 </r>
       <r>     1.6423     0.5158     3.2177 </r>
       <r>     1.7489     0.5088     3.2719 </r>
       <r>     1.8554     0.3267     3.3067 </r>
       <r>     1.9619     0.1866     3.3266 </r>
       <r>     2.0685     0.2939     3.3579 </r>
       <r>     2.1750     0.4911     3.4102 </r>
       <r>     2.2816     0.2379     3.4355 </r>
       <r>     2.3881     0.2391     3.4610 </r>
       <r>     2.4947     0.4978     3.5140 </r>
       <r>     2.6012     0.6190     3.5800 </r>
       <r>     2.7077     0.4892     3.6321 </r>
       <r>     2.8143     0.5669     3.6925 </r>
       <r>     2.9208     0.6827     3.7653 </r>
       <r>     3.0274     0.6697     3.8366 </r>
       <r>     3.1339     0.8651     3.9288 </r>
       <r>     3.2405     0.7499     4.0087 </r>
       <r>     3.3470     0.5154     4.0636 </r>
       <r>     3.4535     0.4313     4.1095 </r>
       <r>     3.5601     0.7234     4.1866 </r>
       <r>     3.6666     1.0327     4.2966 </r>
       <r>     3.7732     1.0790     4.4116 </r>
       <r>     3.8797     0.6318     4.4789 </r>
       <r>     3.9863     0.4457     4.5264 </r>
       <r>     4.0928     0.5193     4.5817 </r>
       <r>     4.1993     0.5314     4.6383 </r>
       <r>     4.3059     0.7033     4.7133 </r>
       <r>     4.4124     1.3864     4.8610 </r>
       <r>     4.5190     1.4071     5.0109 </r>
       <r>     4.6255     0.8926     5.1060 </r>
       <r>     4.7321     0.7074     5.1813 </r>
       <r>     4.8386     0.7699     5.2634 </r>
       <r>     4.9451     1.0892     5.3794 </r>
       <r>     5.0517     1.0206     5.4882 </r>
       <r>     5.1582     0.9853     5.5931 </r>
       <r>     5.2648     1.5783     5.7613 </r>
       <r>     5.3713     1.3831     5.9087 </r>
       <r>     5.4779     0.8735     6.0017 </r>
       <r>     5.5844     0.8390     6.0911 </r>
       <r>     5.6909     1.0832     6.2065 </r>
       <r>     5.7975     1.2345     6.3380 </r>
       <r>     5.9040     1.2083     6.4668 </r>
       <r>     6.0106     1.0605     6.5798 </r>
       <r>     6.1171     0.7926     6.6642 </r>
       <r>     6.2236     0.8163     6.7512 </r>
       <r>     6.3302     1.1972     6.8787 </r>
       <r>     6.4367     1.1533     7.0016 </r>
       <r>     6.5433     0.8844     7.0958 </r>
       <r>     6.6498     1.2516     7.2292 </r>
       <r>     6.7564     1.2581     7.3632 </r>
       <r>     6.8629     0.7630     7.4445 </r>
       <r>     6.9694     0.8074     7.5305 </r>
       <r>     7.0760     0.9069     7.6272 </r>
       <r>     7.1825     0.4790     7.6782 </r>
       <r>     7.2891     0.5146     7.7330 </r>
       <r>     7.3956     0.7413     7.8120 </r>
       <r>     7.5022     0.5276     7.8682 </r>
       <r>     7.6087     0.4244     7.9134 </r>
       <r>     7.7152     0.3281     7.9484 </r>
       <r>     7.8218     0.2281     7.9727 </r>
       <r>     7.9283     0.1806     7.9919 </r>
       <r>     8.0349     0.0693     7.9993 </r>
       <r>     8.1414     0.0062     8.0000 </r>
       <r>     8.2480     0.0001     8.0000 </r>
       <r>     8.3545     0.0000     8.0000 </r>
       <r>     8.4610     0.0000     8.0000 </r>
       <r>     8.5676     0.0000     8.0000 </r>
       <r>     8.6741     0.0000     8.0000 </r>
       <r>     8.7807     0.0000     8.0000 </r>
       <r>     8.8872     0.0000     8.0000 </r>
       <r>     8.9938     0.0000     8.0000 </r>
       <r>     9.1003     0.0000     8.0000 </r>
       <r>     9.2068     0.0004     8.0000 </r>
       <r>     9.3134     0.0084     8.0009 </r>
       <r>     9.4199     0.0277     8.0039 </r>
       <r>     9.5265     0.0174     8.0057 </r>
       <r>     9.6330     0.0363     8.0096 </r>
       <r>     9.7396     0.0534     8.0153 </r>
       <r>     9.8461     0.0505     8.0207 </r>
       <r>     9.9526     0.1409     8.0357 </r>
       <r>    10.0592     0.1261     8.0491 </r>
       <r>    10.1657     0.1186     8.0617 </r>
       <r>    10.2723     0.0704     8.0693 </r>
       <r>    10.3788     0.1130     8.0813 </r>
       <r>    10.4854     0.0668     8.0884 </r>
       <r>    10.5919     0.1133     8.1005 </r>
       <r>    10.6984     0.2494     8.1271 </r>
       <r>    10.8050     0.2926     8.1582 </r>
       <r>    10.9115     0.2970     8.1899 </r>
       <r>    11.0181     0.3263     8.2246 </r>
       <r>    11.1246     0.2005     8.2460 </r>
       <r>    11.2312     0.0905     8.2556 </r>
       <r>    11.3377     0.0504     8.2610 </r>
       <r>    11.4442     0.2186     8.2843 </r>
       <r>    11.5508     0.3426     8.3208 </r>
       <r>    11.6573     0.4756     8.3715 </r>
       <r>    11.7639     0.4790     8.4225 </r>
       <r>    11.8704     0.5559     8.4817 </r>
       <r>    11.9770     0.4764     8.5325 </r>
       <r>    12.0835     0.3670     8.5716 </r>
       <r>    12.1900     0.3704     8.6110 </r>
       <r>    12.2966     0.3269     8.6459 </r>
       <r>    12.4031     0.2668     8.6743 </r>
       <r>    12.5097     0.3432     8.7109 </r>
       <r>    12.6162     0.4645     8.7604 </r>
       <r>    12.7227     0.8034     8.8459 </r>
       <r>    12.8293     1.1474     8.9682 </r>
       <r>    12.9358     1.1516     9.0909 </r>
       <r>    13.0424     1.3265     9.2322 </r>
       <r>    13.1489     0.9571     9.3342 </r>
       <r>    13.2555     0.5262     9.3903 </r>
       <r>    13.3620     0.7247     9.4675 </r>
       <r>    13.4685     0.6429     9.5360 </r>
       <r>    13.5751     0.7530     9.6162 </r>
       <r>    13.6816     0.8064     9.7021 </r>
       <r>    13.7882     0.8491     9.7926 </r>
       <r>    13.8947     0.9242     9.8910 </r>
       <r>    14.0013     0.9274     9.9898 </r>
       <r>    14.1078     0.9946    10.0958 </r>
       <r>    14.2143     0.5422    10.1536 </r>
       <r>    14.3209     0.3193    10.1876 </r>
       <r>    14.4274     0.3040    10.2200 </r>
       <r>    14.5340     0.5601    10.2797 </r>
       <r>    14.6405     0.5618    10.3395 </r>
       <r>    14.7471     0.5082    10.3937 </r>
       <r>    14.8536     0.4779    10.4446 </r>
       <r>    14.9601     0.7485    10.5243 </r>
       <r>    15.0667     0.7198    10.6010 </r>
       <r>    15.1732     0.6743    10.6729 </r>
       <r>    15.2798     1.4796    10.8305 </r>
       <r>    15.3863     2.2959    11.0751 </r>
       <r>    15.4929     2.2645    11.3164 </r>
       <r>    15.5994     2.2236    11.5533 </r>
       <r>    15.7059     1.5662    11.7202 </r>
       <r>    15.8125     0.9098    11.8171 </r>
       <r>    15.9190     0.6701    11.8885 </r>
       <r>    16.0256     0.7013    11.9632 </r>
       <r>    16.1321     0.7272    12.0407 </r>
       <r>    16.2387     0.9239    12.1391 </r>
       <r>    16.3452     1.7322    12.3237 </r>
       <r>    16.4517     1.3328    12.4657 </r>
       <r>    16.5583     1.0960    12.5825 </r>
       <r>    16.6648     1.6021    12.7531 </r>
       <r>    16.7714     1.3024    12.8919 </r>
       <r>    16.8779     0.7864    12.9757 </r>
       <r>    16.9845     0.8923    13.0708 </r>
       <r>    17.0910     0.9765    13.1748 </r>
       <r>    17.1975     1.1360    13.2958 </r>
       <r>    17.3041     0.9444    13.3964 </r>
       <r>    17.4106     0.6747    13.4683 </r>
       <r>    17.5172     0.8228    13.5560 </r>
       <r>    17.6237     0.9581    13.6581 </r>
       <r>    17.7303     0.6194    13.7241 </r>
       <r>    17.8368     0.7417    13.8031 </r>
       <r>    17.9433     1.4251    13.9549 </r>
       <r>    18.0499     1.2906    14.0924 </r>
       <r>    18.1564     1.5280    14.2552 </r>
       <r>    18.2630     1.2980    14.3935 </r>
       <r>    18.3695     1.1258    14.5135 </r>
       <r>    18.4761     0.8457    14.6036 </r>
       <r>    18.5826     0.5178    14.6587 </r>
       <r>    18.6891     0.4004    14.7014 </r>
       <r>    18.7957     1.0281    14.8109 </r>
       <r>    18.9022     1.2636    14.9456 </r>
       <r>    19.0088     0.6257    15.0122 </r>
       <r>    19.1153     0.2804    15.0421 </r>
       <r>    19.2218     0.6411    15.1104 </r>
       <r>    19.3284     1.1244    15.2302 </r>
       <r>    19.4349     0.9165    15.3278 </r>
       <r>    19.5415     0.6777    15.4000 </r>
       <r>    19.6480     0.7567    15.4807 </r>
       <r>    19.7546     0.4832    15.5321 </r>
       <r>    19.8611     0.2105    15.5546 </r>
       <r>    19.9676     0.2122    15.5772 </r>
       <r>    20.0742     0.3024    15.6094 </r>
       <r>    20.1807     0.2422    15.6352 </r>
       <r>    20.2873     0.0454    15.6400 </r>
       <r>    20.3938     0.1075    15.6515 </r>
       <r>    20.5004     0.3131    15.6848 </r>
       <r>    20.6069     0.3591    15.7231 </r>
       <r>    20.7134     0.4827    15.7745 </r>
       <r>    20.8200     0.4465    15.8221 </r>
       <r>    20.9265     0.3685    15.8614 </r>
       <r>    21.0331     0.4146    15.9055 </r>
       <r>    21.1396     0.1615    15.9227 </r>
       <r>    21.2462     0.0737    15.9306 </r>
       <r>    21.3527     0.1092    15.9422 </r>
       <r>    21.4592     0.0442    15.9469 </r>
       <r>    21.5658     0.0862    15.9561 </r>
       <r>    21.6723     0.1867    15.9760 </r>
       <r>    21.7789     0.1818    15.9954 </r>
       <r>    21.8854     0.0419    15.9998 </r>
       <r>    21.9920     0.0016    16.0000 </r>
       <r>    22.0985     0.0000    16.0000 </r>
       <r>    22.2050     0.0000    16.0000 </r>
       <r>    22.3116     0.0000    16.0000 </r>
       <r>    22.4181     0.0000    16.0000 </r>
       <r>    22.5247     0.0000    16.0000 </r>
       <r>    22.6312     0.0000    16.0000 </r>
       <r>    22.7378     0.0000    16.0000 </r>
       <r>    22.8443     0.0000    16.0000 </r>
       <r>    22.9508     0.0000    16.0000 </r>
       <r>    23.0574     0.0000    16.0000 </r>
       <r>    23.1639     0.0000    16.0000 </r>
      </set>
     </set>
    </array>
   </total>
  </dos>
 </calculation>
 <structure name="finalpos" >
  <crystal>
   <varray name="basis" >
    <v>       0.00000000       2.18978000       2.18978000 </v>
    <v>       2.18978000       0.00000000       2.18978000 </v>
    <v>       2.18978000       2.18978000       0.00000000 </v>
   </varray>
   <i name="volume">     21.00058778 </i>
   <varray name="rec_basis" >
    <v>      -0.22833344       0.22833344       0.22833344 </v>
    <v>       0.22833344      -0.22833344       0.22833344 </v>
    <v>       0.22833344       0.22833344      -0.22833344 </v>
   </varray>
  </crystal>
  <varray name="positions" >
   <v>       0.25000000       0.25000000       0.25000000 </v>
   <v>       0.00000000       0.00000000       0.00000000 </v>
  </varray>
 </structure>
</modeling>
