CONTCAR                                 
   1.00000000000000     
    14.8828001019999991    0.0000000000000000    0.0000000000000000
    -7.4414210609999998   12.7416650449999995    0.0000000000000000
     0.0000000000000000    0.0000000000000000   20.0000000000000000
   C    N    Cu   O    H 
    68     2     1     1     1
Selective dynamics
Direct
  0.9989568909999988  0.9975962079999974  0.4987583200000003   F   F   F
  0.0547333550000033  0.1094575899999981  0.4985446820000021   F   F   F
  0.1677689810000018  0.0010125539999990  0.4975806810000023   F   F   F
  0.2235251919999968  0.1126827900000009  0.4978148619999985   F   F   F
  0.3341696620000008  0.0019532159999969  0.4967491729999978   F   F   F
  0.3899677429999997  0.1135582209999981  0.4973221979999991   F   F   F
  0.4996284209999970  0.0010064359999973  0.4967515920000025   F   F   F
  0.5555357759999993  0.1126755519999989  0.4973560680000020   F   F   F
  0.6650120389999969  0.9976080510000003  0.4980400849999995   F   F   F
  0.7211081490000026  0.1094616950000002  0.4982293899999988   F   F   F
  0.8311355780000014  0.9959080920000005  0.5001219529999972   F   F   F
  0.8868069700000021  0.1072309199999992  0.4993715660000007   F   F   F
  0.9985171109999982  0.1639563660000007  0.4988326200000017   F   F   F
  0.0541394210000021  0.2755141080000030  0.4981484030000018   F   F   F
  0.1665414220000017  0.1665090139999990  0.4980204430000015   F   F   F
  0.2222506270000011  0.2780145870000013  0.4976205219999983   F   F   F
  0.3350067719999998  0.1695504280000009  0.4976599339999979   F   F   F
  0.3911482620000015  0.2816607660000017  0.4977407840000012   F   F   F
  0.5009209649999988  0.1695462120000002  0.4974865479999977   F   F   F
  0.5568944460000012  0.2816622550000005  0.4978415160000011   F   F   F
  0.6663484640000021  0.1665077409999967  0.4978063349999999   F   F   F
  0.7221535939999981  0.2780144959999973  0.4978948480000014   F   F   F
  0.8318277529999989  0.1639565380000008  0.4987422089999995   F   F   F
  0.8877672010000026  0.2755128149999990  0.4982523870000009   F   F   F
  0.9988109940000029  0.3312318620000028  0.4979335259999971   F   F   F
  0.0545449009999999  0.4426910780000028  0.4971584419999999   F   F   F
  0.1652138170000015  0.3318055559999991  0.4975452609999991   F   F   F
  0.2201570340000032  0.4430578030000021  0.4967945040000004   F   F   F
  0.3340603819999970  0.3351445019999986  0.4973772029999992   F   F   F
  0.3889683820000016  0.4467868220000000  0.4968045939999968   F   F   F
  0.5032338239999987  0.3400887700000013  0.4979053570000005   F   F   F
  0.5597574310000013  0.4531371980000003  0.4978619620000018   F   F   F
  0.6674722699999975  0.3351465280000028  0.4977966220000027   F   F   F
  0.7242082929999967  0.4467907149999988  0.4976532210000002   F   F   F
  0.8329816979999976  0.3317993750000028  0.4979602929999984   F   F   F
  0.8892948849999982  0.4430516729999994  0.4976056450000002   F   F   F
  0.9998552910000029  0.4987500940000018  0.4970907080000018   F   F   F
  0.0561452640000013  0.6104487200000008  0.4966012410000005   F   F   F
  0.1652940230000013  0.4987588270000032  0.4965736179999993   F   F   F
  0.2207103940000010  0.6104580279999965  0.4959303460000015   F   F   F
  0.3308189879999972  0.4992322310000006  0.4962149839999981   F   F   F
  0.3844029520000021  0.6098866709999982  0.4953008600000004   F   F   F
  0.5009374839999978  0.5072142810000031  0.4970437300000015   F   F   F
  0.6726542290000026  0.5072091219999990  0.4977051199999991   F   F   F
  0.8348079869999978  0.4992254929999973  0.4974224090000021   F   F   F
  0.8918763909999967  0.6098802070000033  0.4968812999999983   F   F   F
  0.0021925949999968  0.6664876919999969  0.4966909600000022   F   F   F
  0.0574044370000024  0.7779562289999973  0.4966308870000020   F   F   F
  0.1665019360000031  0.6666042989999994  0.4960575659999975   F   F   F
  0.2222531629999978  0.7781103729999970  0.4959230270000035   F   F   F
  0.3306983709999969  0.6664997000000028  0.4953329319999966   F   F   F
  0.3869469050000021  0.7779629890000024  0.4952670529999992   F   F   F
  0.4937402199999994  0.6640354009999996  0.4950992699999972   F   F   F
  0.5514556270000028  0.7763780069999981  0.4956174080000011   F   F   F
  0.8366783040000030  0.6640251050000003  0.4966722699999977   F   F   F
  0.8912819110000001  0.7763645280000020  0.4971986749999999   F   F   F
  0.0019585570000018  0.8330624510000035  0.4970539349999967   F   F   F
  0.0563784900000002  0.9442785470000032  0.4978721929999992   F   F   F
  0.1676812150000018  0.8341316790000022  0.4964099740000023   F   F   F
  0.2232351330000029  0.9458511990000034  0.4968188790000028   F   F   F
  0.3328456320000015  0.8341297870000020  0.4957398519999998   F   F   F
  0.3889974619999990  0.9458478869999993  0.4962802980000021   F   F   F
  0.4974915339999981  0.8330768639999988  0.4954643470000022   F   F   F
  0.5542897500000024  0.9442830770000015  0.4967199080000029   F   F   F
  0.6608403139999979  0.8290183610000028  0.4986997049999999   F   F   F
  0.7192592939999969  0.9394801170000022  0.4994110709999973   F   F   F
  0.8344378469999967  0.8289604710000020  0.4996020250000015   F   F   F
  0.8865675380000013  0.9394611900000029  0.4999477679999984   F   F   F
  0.5488171060000013  0.6139819790000018  0.4959299069999972   F   F   F
  0.7315441780000000  0.6139924410000006  0.4970644890000031   F   F   F
  0.6949421500000028  0.7239508830000005  0.5134025170000029   F   F   F
  0.6804168270000019  0.7010597180000033  0.6107686869999966   T   T   T
  0.7177917510000000  0.7689266419999967  0.6304671009999984   T   T   T
 
  0.00000000E+00  0.00000000E+00  0.00000000E+00
  0.00000000E+00  0.00000000E+00  0.00000000E+00
  0.00000000E+00  0.00000000E+00  0.00000000E+00
  0.00000000E+00  0.00000000E+00  0.00000000E+00
  0.00000000E+00  0.00000000E+00  0.00000000E+00
  0.00000000E+00  0.00000000E+00  0.00000000E+00
  0.00000000E+00  0.00000000E+00  0.00000000E+00
  0.00000000E+00  0.00000000E+00  0.00000000E+00
  0.00000000E+00  0.00000000E+00  0.00000000E+00
  0.00000000E+00  0.00000000E+00  0.00000000E+00
  0.00000000E+00  0.00000000E+00  0.00000000E+00
  0.00000000E+00  0.00000000E+00  0.00000000E+00
  0.00000000E+00  0.00000000E+00  0.00000000E+00
  0.00000000E+00  0.00000000E+00  0.00000000E+00
  0.00000000E+00  0.00000000E+00  0.00000000E+00
  0.00000000E+00  0.00000000E+00  0.00000000E+00
  0.00000000E+00  0.00000000E+00  0.00000000E+00
  0.00000000E+00  0.00000000E+00  0.00000000E+00
  0.00000000E+00  0.00000000E+00  0.00000000E+00
  0.00000000E+00  0.00000000E+00  0.00000000E+00
  0.00000000E+00  0.00000000E+00  0.00000000E+00
  0.00000000E+00  0.00000000E+00  0.00000000E+00
  0.00000000E+00  0.00000000E+00  0.00000000E+00
  0.00000000E+00  0.00000000E+00  0.00000000E+00
  0.00000000E+00  0.00000000E+00  0.00000000E+00
  0.00000000E+00  0.00000000E+00  0.00000000E+00
  0.00000000E+00  0.00000000E+00  0.00000000E+00
  0.00000000E+00  0.00000000E+00  0.00000000E+00
  0.00000000E+00  0.00000000E+00  0.00000000E+00
  0.00000000E+00  0.00000000E+00  0.00000000E+00
  0.00000000E+00  0.00000000E+00  0.00000000E+00
  0.00000000E+00  0.00000000E+00  0.00000000E+00
  0.00000000E+00  0.00000000E+00  0.00000000E+00
  0.00000000E+00  0.00000000E+00  0.00000000E+00
  0.00000000E+00  0.00000000E+00  0.00000000E+00
  0.00000000E+00  0.00000000E+00  0.00000000E+00
  0.00000000E+00  0.00000000E+00  0.00000000E+00
  0.00000000E+00  0.00000000E+00  0.00000000E+00
  0.00000000E+00  0.00000000E+00  0.00000000E+00
  0.00000000E+00  0.00000000E+00  0.00000000E+00
  0.00000000E+00  0.00000000E+00  0.00000000E+00
  0.00000000E+00  0.00000000E+00  0.00000000E+00
  0.00000000E+00  0.00000000E+00  0.00000000E+00
  0.00000000E+00  0.00000000E+00  0.00000000E+00
  0.00000000E+00  0.00000000E+00  0.00000000E+00
  0.00000000E+00  0.00000000E+00  0.00000000E+00
  0.00000000E+00  0.00000000E+00  0.00000000E+00
  0.00000000E+00  0.00000000E+00  0.00000000E+00
  0.00000000E+00  0.00000000E+00  0.00000000E+00
  0.00000000E+00  0.00000000E+00  0.00000000E+00
  0.00000000E+00  0.00000000E+00  0.00000000E+00
  0.00000000E+00  0.00000000E+00  0.00000000E+00
  0.00000000E+00  0.00000000E+00  0.00000000E+00
  0.00000000E+00  0.00000000E+00  0.00000000E+00
  0.00000000E+00  0.00000000E+00  0.00000000E+00
  0.00000000E+00  0.00000000E+00  0.00000000E+00
  0.00000000E+00  0.00000000E+00  0.00000000E+00
  0.00000000E+00  0.00000000E+00  0.00000000E+00
  0.00000000E+00  0.00000000E+00  0.00000000E+00
  0.00000000E+00  0.00000000E+00  0.00000000E+00
  0.00000000E+00  0.00000000E+00  0.00000000E+00
  0.00000000E+00  0.00000000E+00  0.00000000E+00
  0.00000000E+00  0.00000000E+00  0.00000000E+00
  0.00000000E+00  0.00000000E+00  0.00000000E+00
  0.00000000E+00  0.00000000E+00  0.00000000E+00
  0.00000000E+00  0.00000000E+00  0.00000000E+00
  0.00000000E+00  0.00000000E+00  0.00000000E+00
  0.00000000E+00  0.00000000E+00  0.00000000E+00
  0.00000000E+00  0.00000000E+00  0.00000000E+00
  0.00000000E+00  0.00000000E+00  0.00000000E+00
  0.00000000E+00  0.00000000E+00  0.00000000E+00
  0.00000000E+00  0.00000000E+00  0.00000000E+00
  0.00000000E+00  0.00000000E+00  0.00000000E+00
