CONTCAR                                  
     1.000000000 
      14.882800102      0.000000000      0.000000000 
      -7.441421061     12.741665045      0.000000000 
       0.000000000      0.000000000     20.000000000 
    C      N      Cu      O      H  
    68      2      1      1      1 
Select 
Direct 
       0.998956891      0.997596208      0.498758320 F F F 
       0.054733355      0.109457590      0.498544682 F F F 
       0.167768981      0.001012554      0.497580681 F F F 
       0.223525192      0.112682790      0.497814862 F F F 
       0.334169662      0.001953216      0.496749173 F F F 
       0.389967743      0.113558221      0.497322198 F F F 
       0.499628421      0.001006436      0.496751592 F F F 
       0.555535776      0.112675552      0.497356068 F F F 
       0.665012039      0.997608051      0.498040085 F F F 
       0.721108149      0.109461695      0.498229390 F F F 
       0.831135578      0.995908092      0.500121953 F F F 
       0.886806970      0.107230920      0.499371566 F F F 
       0.998517111      0.163956366      0.498832620 F F F 
       0.054139421      0.275514108      0.498148403 F F F 
       0.166541422      0.166509014      0.498020443 F F F 
       0.222250627      0.278014587      0.497620522 F F F 
       0.335006772      0.169550428      0.497659934 F F F 
       0.391148262      0.281660766      0.497740784 F F F 
       0.500920965      0.169546212      0.497486548 F F F 
       0.556894446      0.281662255      0.497841516 F F F 
       0.666348464      0.166507741      0.497806335 F F F 
       0.722153594      0.278014496      0.497894848 F F F 
       0.831827753      0.163956538      0.498742209 F F F 
       0.887767201      0.275512815      0.498252387 F F F 
       0.998810994      0.331231862      0.497933526 F F F 
       0.054544901      0.442691078      0.497158442 F F F 
       0.165213817      0.331805556      0.497545261 F F F 
       0.220157034      0.443057803      0.496794504 F F F 
       0.334060382      0.335144502      0.497377203 F F F 
       0.388968382      0.446786822      0.496804594 F F F 
       0.503233824      0.340088770      0.497905357 F F F 
       0.559757431      0.453137198      0.497861962 F F F 
       0.667472270      0.335146528      0.497796622 F F F 
       0.724208293      0.446790715      0.497653221 F F F 
       0.832981698      0.331799375      0.497960293 F F F 
       0.889294885      0.443051673      0.497605645 F F F 
      -0.000144709      0.498750094      0.497090708 F F F 
       0.056145264      0.610448720      0.496601241 F F F 
       0.165294023      0.498758827      0.496573618 F F F 
       0.220710394      0.610458028      0.495930346 F F F 
       0.330818988      0.499232231      0.496214984 F F F 
       0.384402952      0.609886671      0.495300860 F F F 
       0.500937484      0.507214281      0.497043730 F F F 
       0.672654229      0.507209122      0.497705120 F F F 
       0.834807987      0.499225493      0.497422409 F F F 
       0.891876391      0.609880207      0.496881300 F F F 
       0.002192595      0.666487692      0.496690960 F F F 
       0.057404437      0.777956229      0.496630887 F F F 
       0.166501936      0.666604299      0.496057566 F F F 
       0.222253163      0.778110373      0.495923027 F F F 
       0.330698371      0.666499700      0.495332932 F F F 
       0.386946905      0.777962989      0.495267053 F F F 
       0.493740220      0.664035401      0.495099270 F F F 
       0.551455627      0.776378007      0.495617408 F F F 
       0.836678304      0.664025105      0.496672270 F F F 
       0.891281911      0.776364528      0.497198675 F F F 
       0.001958557      0.833062451      0.497053935 F F F 
       0.056378490      0.944278547      0.497872193 F F F 
       0.167681215      0.834131679      0.496409974 F F F 
       0.223235133      0.945851199      0.496818879 F F F 
       0.332845632      0.834129787      0.495739852 F F F 
       0.388997462      0.945847887      0.496280298 F F F 
       0.497491534      0.833076864      0.495464347 F F F 
       0.554289750      0.944283077      0.496719908 F F F 
       0.660840314      0.829018361      0.498699705 F F F 
       0.719259294      0.939480117      0.499411071 F F F 
       0.834437847      0.828960471      0.499602025 F F F 
       0.886567538      0.939461190      0.499947768 F F F 
       0.548817106      0.613981979      0.495929907 F F F 
       0.731544178      0.613992441      0.497064489 F F F 
       0.694942150      0.723950883      0.513402517 F F F 
       0.680416827      0.701059718      0.610768687 T T T 
       0.717791751      0.768926642      0.632967101 T T T 
