H4 F4                                   
   1.00000000000000     
     3.0285118927867458    0.0000000000000000    0.0000000000000002
     0.0000000000000007    4.4830507983766168    0.0000000000000003
     0.0000000000000000    0.0000000000000000    5.4430075726130465
   H    F 
     4     4
Direct
  0.5000000000000000  0.0653265400017773  0.4159321907416924
  0.5000000000000000  0.9346734599982227  0.9159321907416924
  0.0000000000000000  0.5653265400017773  0.4159321907416924
  0.0000000000000000  0.4346734599982227  0.9159321907416924
  0.5000000000000000  0.8522168537472368  0.4220678092583086
  0.5000000000000000  0.1477831462527632  0.9220678092583086
  0.0000000000000000  0.3522168537472368  0.4220678092583086
  0.0000000000000000  0.6477831462527632  0.9220678092583086
 
  0.00000000E+00  0.00000000E+00  0.00000000E+00
  0.00000000E+00  0.00000000E+00  0.00000000E+00
  0.00000000E+00  0.00000000E+00  0.00000000E+00
  0.00000000E+00  0.00000000E+00  0.00000000E+00
  0.00000000E+00  0.00000000E+00  0.00000000E+00
  0.00000000E+00  0.00000000E+00  0.00000000E+00
  0.00000000E+00  0.00000000E+00  0.00000000E+00
  0.00000000E+00  0.00000000E+00  0.00000000E+00
