   8   8   0   0
  0.9239785E+01  0.3023102E-09  0.4477167E-09  0.5461297E-09  0.5000000E-15
  1.000000000000000E-004
  CAR 
 unknown system                          
     15.13705687    -28.45814449  301     -4.47170141      1.00000000
    -28.458  0.0000E+00  0.0000E+00
    -28.313  0.0000E+00  0.0000E+00
    -28.168  0.0000E+00  0.0000E+00
    -28.022  0.0000E+00  0.0000E+00
    -27.877  0.0000E+00  0.0000E+00
    -27.732  0.0000E+00  0.0000E+00
    -27.586  0.0000E+00  0.0000E+00
    -27.441  0.0000E+00  0.0000E+00
    -27.296  0.0000E+00  0.0000E+00
    -27.150  0.0000E+00  0.0000E+00
    -27.005  0.1872E-14  0.2721E-15
    -26.860  0.2060E-08  0.2994E-09
    -26.714  0.4684E-04  0.6807E-05
    -26.569  0.2820E-01  0.4105E-02
    -26.424  0.8327E+00  0.1251E+00
    -26.278  0.3771E+01  0.6731E+00
    -26.133  0.7292E+01  0.1733E+01
    -25.988  0.1103E+02  0.3336E+01
    -25.842  0.1509E+02  0.5529E+01
    -25.697  0.1203E+02  0.7277E+01
    -25.552  0.4665E+01  0.7955E+01
    -25.406  0.3109E+00  0.8000E+01
    -25.261  0.1135E-02  0.8000E+01
    -25.116  0.1167E-06  0.8000E+01
    -24.971  0.2498E-12  0.8000E+01
    -24.825  0.0000E+00  0.8000E+01
    -24.680  0.0000E+00  0.8000E+01
    -24.535  0.0000E+00  0.8000E+01
    -24.389  0.0000E+00  0.8000E+01
    -24.244  0.0000E+00  0.8000E+01
    -24.099  0.0000E+00  0.8000E+01
    -23.953  0.0000E+00  0.8000E+01
    -23.808  0.0000E+00  0.8000E+01
    -23.663  0.0000E+00  0.8000E+01
    -23.517  0.0000E+00  0.8000E+01
    -23.372  0.0000E+00  0.8000E+01
    -23.227  0.0000E+00  0.8000E+01
    -23.081  0.0000E+00  0.8000E+01
    -22.936  0.0000E+00  0.8000E+01
    -22.791  0.0000E+00  0.8000E+01
    -22.645  0.0000E+00  0.8000E+01
    -22.500  0.0000E+00  0.8000E+01
    -22.355  0.0000E+00  0.8000E+01
    -22.209  0.0000E+00  0.8000E+01
    -22.064  0.0000E+00  0.8000E+01
    -21.919  0.0000E+00  0.8000E+01
    -21.774  0.0000E+00  0.8000E+01
    -21.628  0.0000E+00  0.8000E+01
    -21.483  0.0000E+00  0.8000E+01
    -21.338  0.0000E+00  0.8000E+01
    -21.192  0.0000E+00  0.8000E+01
    -21.047  0.0000E+00  0.8000E+01
    -20.902  0.0000E+00  0.8000E+01
    -20.756  0.0000E+00  0.8000E+01
    -20.611  0.0000E+00  0.8000E+01
    -20.466  0.0000E+00  0.8000E+01
    -20.320  0.0000E+00  0.8000E+01
    -20.175  0.0000E+00  0.8000E+01
    -20.030  0.0000E+00  0.8000E+01
    -19.884  0.0000E+00  0.8000E+01
    -19.739  0.0000E+00  0.8000E+01
    -19.594  0.0000E+00  0.8000E+01
    -19.448  0.0000E+00  0.8000E+01
    -19.303  0.0000E+00  0.8000E+01
    -19.158  0.0000E+00  0.8000E+01
    -19.013  0.0000E+00  0.8000E+01
    -18.867  0.0000E+00  0.8000E+01
    -18.722  0.0000E+00  0.8000E+01
    -18.577  0.0000E+00  0.8000E+01
    -18.431  0.0000E+00  0.8000E+01
    -18.286  0.0000E+00  0.8000E+01
    -18.141  0.0000E+00  0.8000E+01
    -17.995  0.0000E+00  0.8000E+01
    -17.850  0.0000E+00  0.8000E+01
    -17.705  0.0000E+00  0.8000E+01
    -17.559  0.0000E+00  0.8000E+01
    -17.414  0.0000E+00  0.8000E+01
    -17.269  0.0000E+00  0.8000E+01
    -17.123  0.0000E+00  0.8000E+01
    -16.978  0.0000E+00  0.8000E+01
    -16.833  0.0000E+00  0.8000E+01
    -16.687  0.0000E+00  0.8000E+01
    -16.542  0.0000E+00  0.8000E+01
    -16.397  0.0000E+00  0.8000E+01
    -16.251  0.0000E+00  0.8000E+01
    -16.106  0.0000E+00  0.8000E+01
    -15.961  0.0000E+00  0.8000E+01
    -15.816  0.0000E+00  0.8000E+01
    -15.670  0.0000E+00  0.8000E+01
    -15.525  0.0000E+00  0.8000E+01
    -15.380  0.0000E+00  0.8000E+01
    -15.234  0.0000E+00  0.8000E+01
    -15.089  0.0000E+00  0.8000E+01
    -14.944  0.0000E+00  0.8000E+01
    -14.798  0.0000E+00  0.8000E+01
    -14.653  0.0000E+00  0.8000E+01
    -14.508  0.0000E+00  0.8000E+01
    -14.362  0.0000E+00  0.8000E+01
    -14.217  0.0000E+00  0.8000E+01
    -14.072  0.0000E+00  0.8000E+01
    -13.926  0.0000E+00  0.8000E+01
    -13.781  0.0000E+00  0.8000E+01
    -13.636  0.0000E+00  0.8000E+01
    -13.490  0.0000E+00  0.8000E+01
    -13.345  0.0000E+00  0.8000E+01
    -13.200  0.0000E+00  0.8000E+01
    -13.055  0.0000E+00  0.8000E+01
    -12.909  0.0000E+00  0.8000E+01
    -12.764  0.0000E+00  0.8000E+01
    -12.619  0.0000E+00  0.8000E+01
    -12.473  0.0000E+00  0.8000E+01
    -12.328  0.0000E+00  0.8000E+01
    -12.183  0.0000E+00  0.8000E+01
    -12.037  0.0000E+00  0.8000E+01
    -11.892  0.0000E+00  0.8000E+01
    -11.747  0.0000E+00  0.8000E+01
    -11.601  0.0000E+00  0.8000E+01
    -11.456  0.0000E+00  0.8000E+01
    -11.311  0.5892E-14  0.8000E+01
    -11.165  0.4455E-08  0.8000E+01
    -11.020  0.6309E-04  0.8000E+01
    -10.875  0.2439E-01  0.8004E+01
    -10.729  0.5722E+00  0.8087E+01
    -10.584  0.1868E+01  0.8358E+01
    -10.439  0.2184E+01  0.8675E+01
    -10.293  0.2765E+01  0.9077E+01
    -10.148  0.2575E+01  0.9451E+01
    -10.003  0.3061E+01  0.9896E+01
     -9.858  0.5155E+01  0.1065E+02
     -9.712  0.4271E+01  0.1127E+02
     -9.567  0.5961E+01  0.1213E+02
     -9.422  0.4796E+01  0.1283E+02
     -9.276  0.2568E+01  0.1320E+02
     -9.131  0.3022E+01  0.1364E+02
     -8.986  0.2707E+01  0.1403E+02
     -8.840  0.2678E+01  0.1442E+02
     -8.695  0.1627E+01  0.1466E+02
     -8.550  0.2138E+01  0.1497E+02
     -8.404  0.2247E+01  0.1530E+02
     -8.259  0.1463E+01  0.1551E+02
     -8.114  0.1893E+01  0.1579E+02
     -7.968  0.1232E+01  0.1596E+02
     -7.823  0.2404E+00  0.1600E+02
     -7.678  0.4444E-02  0.1600E+02
     -7.532  0.2745E-05  0.1600E+02
     -7.387  0.3578E-10  0.1600E+02
     -7.242  0.8121E-07  0.1600E+02
     -7.096  0.2881E-03  0.1600E+02
     -6.951  0.3564E-01  0.1601E+02
     -6.806  0.3768E+00  0.1606E+02
     -6.661  0.9521E+00  0.1620E+02
     -6.515  0.2209E+01  0.1652E+02
     -6.370  0.4622E+01  0.1719E+02
     -6.225  0.6982E+01  0.1821E+02
     -6.079  0.9034E+01  0.1952E+02
     -5.934  0.1149E+02  0.2119E+02
     -5.789  0.1239E+02  0.2299E+02
     -5.643  0.1277E+02  0.2484E+02
     -5.498  0.1238E+02  0.2664E+02
     -5.353  0.1445E+02  0.2874E+02
     -5.207  0.1506E+02  0.3093E+02
     -5.062  0.5682E+01  0.3176E+02
     -4.917  0.1517E+01  0.3198E+02
     -4.771  0.1484E+00  0.3200E+02
     -4.626  0.1098E-02  0.3200E+02
     -4.481  0.2194E-06  0.3200E+02
     -4.335  0.8550E-12  0.3200E+02
     -4.190  0.0000E+00  0.3200E+02
     -4.045  0.0000E+00  0.3200E+02
     -3.900  0.0000E+00  0.3200E+02
     -3.754  0.0000E+00  0.3200E+02
     -3.609  0.0000E+00  0.3200E+02
     -3.464  0.0000E+00  0.3200E+02
     -3.318  0.0000E+00  0.3200E+02
     -3.173  0.0000E+00  0.3200E+02
     -3.028  0.0000E+00  0.3200E+02
     -2.882  0.0000E+00  0.3200E+02
     -2.737  0.0000E+00  0.3200E+02
     -2.592  0.0000E+00  0.3200E+02
     -2.446  0.0000E+00  0.3200E+02
     -2.301  0.0000E+00  0.3200E+02
     -2.156  0.0000E+00  0.3200E+02
     -2.010  0.0000E+00  0.3200E+02
     -1.865  0.0000E+00  0.3200E+02
     -1.720  0.0000E+00  0.3200E+02
     -1.574  0.0000E+00  0.3200E+02
     -1.429  0.0000E+00  0.3200E+02
     -1.284  0.0000E+00  0.3200E+02
     -1.138  0.0000E+00  0.3200E+02
     -0.993  0.0000E+00  0.3200E+02
     -0.848  0.0000E+00  0.3200E+02
     -0.703  0.0000E+00  0.3200E+02
     -0.557  0.0000E+00  0.3200E+02
     -0.412  0.0000E+00  0.3200E+02
     -0.267  0.0000E+00  0.3200E+02
     -0.121  0.0000E+00  0.3200E+02
      0.024  0.0000E+00  0.3200E+02
      0.169  0.0000E+00  0.3200E+02
      0.315  0.0000E+00  0.3200E+02
      0.460  0.0000E+00  0.3200E+02
      0.605  0.0000E+00  0.3200E+02
      0.751  0.0000E+00  0.3200E+02
      0.896  0.0000E+00  0.3200E+02
      1.041  0.0000E+00  0.3200E+02
      1.187  0.0000E+00  0.3200E+02
      1.332  0.0000E+00  0.3200E+02
      1.477  0.0000E+00  0.3200E+02
      1.623  0.1202E-11  0.3200E+02
      1.768  0.1263E-06  0.3200E+02
      1.913  0.2324E-03  0.3200E+02
      2.058  0.9692E-02  0.3200E+02
      2.204  0.3325E-01  0.3201E+02
      2.349  0.1148E+00  0.3202E+02
      2.494  0.1887E+00  0.3205E+02
      2.640  0.2004E+00  0.3208E+02
      2.785  0.1734E+00  0.3210E+02
      2.930  0.1609E+00  0.3213E+02
      3.076  0.4113E+00  0.3219E+02
      3.221  0.5146E+00  0.3226E+02
      3.366  0.2937E+00  0.3231E+02
      3.512  0.1497E+00  0.3233E+02
      3.657  0.4634E+00  0.3239E+02
      3.802  0.6936E+00  0.3250E+02
      3.948  0.5267E+00  0.3257E+02
      4.093  0.4681E+00  0.3264E+02
      4.238  0.5232E+00  0.3272E+02
      4.384  0.8680E+00  0.3284E+02
      4.529  0.8988E+00  0.3297E+02
      4.674  0.3416E+00  0.3302E+02
      4.820  0.5743E+00  0.3311E+02
      4.965  0.1140E+01  0.3327E+02
      5.110  0.1362E+01  0.3347E+02
      5.255  0.9569E+00  0.3361E+02
      5.401  0.1003E+01  0.3375E+02
      5.546  0.1109E+01  0.3392E+02
      5.691  0.1010E+01  0.3406E+02
      5.837  0.1294E+01  0.3425E+02
      5.982  0.1450E+01  0.3446E+02
      6.127  0.1581E+01  0.3469E+02
      6.273  0.1431E+01  0.3490E+02
      6.418  0.1474E+01  0.3511E+02
      6.563  0.1661E+01  0.3535E+02
      6.709  0.1796E+01  0.3562E+02
      6.854  0.1989E+01  0.3590E+02
      6.999  0.2027E+01  0.3620E+02
      7.145  0.2027E+01  0.3649E+02
      7.290  0.1752E+01  0.3675E+02
      7.435  0.2006E+01  0.3704E+02
      7.581  0.2331E+01  0.3738E+02
      7.726  0.2535E+01  0.3775E+02
      7.871  0.2572E+01  0.3812E+02
      8.017  0.2303E+01  0.3845E+02
      8.162  0.2726E+01  0.3885E+02
      8.307  0.2738E+01  0.3925E+02
      8.452  0.2239E+01  0.3957E+02
      8.598  0.1588E+01  0.3980E+02
      8.743  0.1161E+01  0.3997E+02
      8.888  0.6151E+00  0.4006E+02
      9.034  0.5376E+00  0.4014E+02
      9.179  0.9259E+00  0.4028E+02
      9.324  0.8865E+00  0.4040E+02
      9.470  0.1012E+01  0.4055E+02
      9.615  0.8882E+00  0.4068E+02
      9.760  0.1545E+01  0.4091E+02
      9.906  0.2825E+01  0.4132E+02
     10.051  0.4301E+01  0.4194E+02
     10.196  0.3821E+01  0.4250E+02
     10.342  0.4377E+01  0.4313E+02
     10.487  0.4250E+01  0.4375E+02
     10.632  0.3711E+01  0.4429E+02
     10.778  0.4466E+01  0.4494E+02
     10.923  0.4304E+01  0.4556E+02
     11.068  0.2547E+01  0.4593E+02
     11.213  0.1743E+01  0.4619E+02
     11.359  0.1533E+01  0.4641E+02
     11.504  0.2051E+01  0.4671E+02
     11.649  0.1572E+01  0.4694E+02
     11.795  0.1708E+01  0.4718E+02
     11.940  0.1400E+01  0.4739E+02
     12.085  0.6791E+00  0.4749E+02
     12.231  0.4082E+00  0.4755E+02
     12.376  0.4746E+00  0.4761E+02
     12.521  0.5188E+00  0.4769E+02
     12.667  0.6500E+00  0.4778E+02
     12.812  0.8359E+00  0.4791E+02
     12.957  0.2423E+00  0.4794E+02
     13.103  0.2541E+00  0.4798E+02
     13.248  0.1389E+00  0.4800E+02
     13.393  0.1156E-01  0.4800E+02
     13.539  0.3633E-04  0.4800E+02
     13.684  0.2351E-08  0.4800E+02
     13.829  0.2668E-14  0.4800E+02
     13.975  0.0000E+00  0.4800E+02
     14.120  0.0000E+00  0.4800E+02
     14.265  0.0000E+00  0.4800E+02
     14.410  0.0000E+00  0.4800E+02
     14.556  0.0000E+00  0.4800E+02
     14.701  0.0000E+00  0.4800E+02
     14.846  0.0000E+00  0.4800E+02
     14.992  0.0000E+00  0.4800E+02
     15.137  0.0000E+00  0.4800E+02
