    8    8    1    1
  0.9239785E+01  0.3023102E-09  0.4477167E-09  0.5461297E-09  0.5000000E-15
  1.000000000000000E-004
  CAR 
 unknown system                          
     32    120     24
 
  0.0000000E+00  0.0000000E+00  0.0000000E+00  0.1893939E-02
    1      -26.476544   1.000000
    2      -26.265733   1.000000
    3      -25.667464   1.000000
    4      -25.611046   1.000000
    5      -10.788356   1.000000
    6      -10.695761   1.000000
    7       -7.999006   1.000000
    8       -7.972173   1.000000
    9       -6.919019   1.000000
   10       -5.891370   1.000000
   11       -5.671468   1.000000
   12       -5.473853   1.000000
   13       -5.375566   1.000000
   14       -5.296284   1.000000
   15       -4.988919   1.000000
   16       -4.959859   1.000000
   17        2.080687   0.000000
   18        5.113954   0.000000
   19        7.917783   0.000000
   20        8.706585   0.000000
   21        8.773551   0.000000
   22       10.263534   0.000000
   23       11.710503   0.000000
   24       12.689367   0.000000
 
  0.9090909E-01  0.3081488E-32  0.0000000E+00  0.3787879E-02
    1      -26.453143   1.000000
    2      -26.245636   1.000000
    3      -25.675761   1.000000
    4      -25.617083   1.000000
    5      -10.734385   1.000000
    6      -10.641730   1.000000
    7       -8.051183   1.000000
    8       -8.028046   1.000000
    9       -6.878300   1.000000
   10       -5.964777   1.000000
   11       -5.736497   1.000000
   12       -5.487654   1.000000
   13       -5.365306   1.000000
   14       -5.289382   1.000000
   15       -5.097766   1.000000
   16       -5.093738   1.000000
   17        2.300591   0.000000
   18        5.286207   0.000000
   19        7.988133   0.000000
   20        8.743117   0.000000
   21        8.745829   0.000000
   22       10.369401   0.000000
   23       11.814419   0.000000
   24       12.773899   0.000000
 
  0.1818182E+00  0.6162976E-32  0.0000000E+00  0.3787879E-02
    1      -26.387036   1.000000
    2      -26.189447   1.000000
    3      -25.702328   1.000000
    4      -25.636321   1.000000
    5      -10.576133   1.000000
    6      -10.484467   1.000000
    7       -8.205255   1.000000
    8       -8.193596   1.000000
    9       -6.760591   1.000000
   10       -6.152263   1.000000
   11       -5.903142   1.000000
   12       -5.532118   1.000000
   13       -5.445290   1.000000
   14       -5.365181   1.000000
   15       -5.337254   1.000000
   16       -5.271004   1.000000
   17        2.897796   0.000000
   18        5.755217   0.000000
   19        8.151512   0.000000
   20        8.597774   0.000000
   21        8.859612   0.000000
   22       10.660997   0.000000
   23       12.107891   0.000000
   24       13.028487   0.000000
 
  0.2727273E+00  0.0000000E+00  0.0000000E+00  0.3787879E-02
    1      -26.286815   1.000000
    2      -26.104911   1.000000
    3      -25.750834   1.000000
    4      -25.671974   1.000000
    5      -10.323672   1.000000
    6      -10.234764   1.000000
    7       -8.459944   1.000000
    8       -8.452435   1.000000
    9       -6.580096   1.000000
   10       -6.375010   1.000000
   11       -6.102131   1.000000
   12       -5.866417   1.000000
   13       -5.705029   1.000000
   14       -5.614658   1.000000
   15       -5.299155   1.000000
   16       -5.248000   1.000000
   17        3.746627   0.000000
   18        6.404869   0.000000
   19        8.232862   0.000000
   20        8.299752   0.000000
   21        9.079308   0.000000
   22       11.029454   0.000000
   23       12.396482   0.000000
   24       12.894808   0.000000
 
  0.3636364E+00  0.1232595E-31  0.0000000E+00  0.3787879E-02
    1      -26.165776   1.000000
    2      -26.003606   1.000000
    3      -25.824022   1.000000
    4      -25.727413   1.000000
    5       -9.994044   1.000000
    6       -9.911188   1.000000
    7       -8.807033   1.000000
    8       -8.775789   1.000000
    9       -6.546088   1.000000
   10       -6.360456   1.000000
   11       -6.256783   1.000000
   12       -6.242390   1.000000
   13       -6.015108   1.000000
   14       -5.742683   1.000000
   15       -5.261370   1.000000
   16       -5.229199   1.000000
   17        4.732527   0.000000
   18        7.098380   0.000000
   19        7.608184   0.000000
   20        8.318537   0.000000
   21        9.438536   0.000000
   22       11.361588   0.000000
   23       11.722663   0.000000
   24       12.472329   0.000000
 
  0.4545455E+00  0.1232595E-31  0.0000000E+00  0.3787879E-02
    1      -26.038998   1.000000
    2      -25.921804   1.000000
    3      -25.899295   1.000000
    4      -25.804709   1.000000
    5       -9.610407   1.000000
    6       -9.538898   1.000000
    7       -9.203009   1.000000
    8       -9.148983   1.000000
    9       -6.598808   1.000000
   10       -6.497971   1.000000
   11       -6.308394   1.000000
   12       -6.227424   1.000000
   13       -6.130299   1.000000
   14       -5.917637   1.000000
   15       -5.233826   1.000000
   16       -5.222851   1.000000
   17        5.764760   0.000000
   18        6.755992   0.000000
   19        7.706516   0.000000
   20        8.128868   0.000000
   21        9.981179   0.000000
   22       10.745858   0.000000
   23       11.670342   0.000000
   24       12.032413   0.000000
 
  0.0000000E+00  0.1250000E+00  0.0000000E+00  0.3787879E-02
    1      -26.448901   1.000000
    2      -26.241690   1.000000
    3      -25.704216   1.000000
    4      -25.634519   1.000000
    5      -10.700351   1.000000
    6      -10.604685   1.000000
    7       -8.136367   1.000000
    8       -8.094771   1.000000
    9       -6.880074   1.000000
   10       -5.860773   1.000000
   11       -5.644765   1.000000
   12       -5.614250   1.000000
   13       -5.290608   1.000000
   14       -5.287872   1.000000
   15       -5.033668   1.000000
   16       -4.981127   1.000000
   17        2.296378   0.000000
   18        5.320215   0.000000
   19        7.654831   0.000000
   20        8.735506   0.000000
   21        8.775430   0.000000
   22       10.339270   0.000000
   23       11.069669   0.000000
   24       13.155457   0.000000
 
  0.9090909E-01  0.1250000E+00  0.0000000E+00  0.7575758E-02
    1      -26.426652   1.000000
    2      -26.222659   1.000000
    3      -25.711048   1.000000
    4      -25.639722   1.000000
    5      -10.652370   1.000000
    6      -10.556059   1.000000
    7       -8.191194   1.000000
    8       -8.148095   1.000000
    9       -6.840130   1.000000
   10       -5.930748   1.000000
   11       -5.707410   1.000000
   12       -5.614606   1.000000
   13       -5.291423   1.000000
   14       -5.281785   1.000000
   15       -5.133265   1.000000
   16       -5.097529   1.000000
   17        2.502390   0.000000
   18        5.478653   0.000000
   19        7.734759   0.000000
   20        8.747692   0.000000
   21        8.772143   0.000000
   22       10.413388   0.000000
   23       11.150102   0.000000
   24       13.138189   0.000000
 
  0.1818182E+00  0.1250000E+00  0.0000000E+00  0.7575758E-02
    1      -26.363150   1.000000
    2      -26.168957   1.000000
    3      -25.732261   1.000000
    4      -25.656459   1.000000
    5      -10.511772   1.000000
    6      -10.413608   1.000000
    7       -8.353157   1.000000
    8       -8.303405   1.000000
    9       -6.725100   1.000000
   10       -6.108428   1.000000
   11       -5.867156   1.000000
   12       -5.624944   1.000000
   13       -5.424799   1.000000
   14       -5.361508   1.000000
   15       -5.290566   1.000000
   16       -5.264270   1.000000
   17        3.066370   0.000000
   18        5.909559   0.000000
   19        7.918349   0.000000
   20        8.621190   0.000000
   21        8.888826   0.000000
   22       10.603128   0.000000
   23       11.380272   0.000000
   24       13.018675   0.000000
 
  0.2727273E+00  0.1250000E+00  0.0000000E+00  0.7575758E-02
    1      -26.267541   1.000000
    2      -26.088426   1.000000
    3      -25.772814   1.000000
    4      -25.688003   1.000000
    5      -10.289094   1.000000
    6      -10.187829   1.000000
    7       -8.610903   1.000000
    8       -8.546247   1.000000
    9       -6.549819   1.000000
   10       -6.316353   1.000000
   11       -6.055856   1.000000
   12       -5.803692   1.000000
   13       -5.671512   1.000000
   14       -5.668542   1.000000
   15       -5.280519   1.000000
   16       -5.244760   1.000000
   17        3.874539   0.000000
   18        6.506163   0.000000
   19        8.000312   0.000000
   20        8.390362   0.000000
   21        9.107912   0.000000
   22       10.820443   0.000000
   23       11.676931   0.000000
   24       12.677503   0.000000
 
  0.3636364E+00  0.1250000E+00  0.0000000E+00  0.7575758E-02
    1      -26.152614   1.000000
    2      -25.992655   1.000000
    3      -25.836993   1.000000
    4      -25.737725   1.000000
    5       -9.999472   1.000000
    6       -9.895726   1.000000
    7       -8.937824   1.000000
    8       -8.855193   1.000000
    9       -6.469977   1.000000
   10       -6.339243   1.000000
   11       -6.198867   1.000000
   12       -6.150249   1.000000
   13       -5.957298   1.000000
   14       -5.765728   1.000000
   15       -5.259700   1.000000
   16       -5.229570   1.000000
   17        4.819424   0.000000
   18        7.144094   0.000000
   19        7.556819   0.000000
   20        8.295894   0.000000
   21        9.463807   0.000000
   22       11.031020   0.000000
   23       11.520476   0.000000
   24       12.173834   0.000000
 
  0.4545455E+00  0.1250000E+00  0.0000000E+00  0.7575758E-02
    1      -26.033872   1.000000
    2      -25.925391   1.000000
    3      -25.895478   1.000000
    4      -25.807734   1.000000
    5       -9.662032   1.000000
    6       -9.558800   1.000000
    7       -9.299281   1.000000
    8       -9.202668   1.000000
    9       -6.507042   1.000000
   10       -6.399890   1.000000
   11       -6.241167   1.000000
   12       -6.158962   1.000000
   13       -6.116161   1.000000
   14       -5.919325   1.000000
   15       -5.237964   1.000000
   16       -5.226418   1.000000
   17        5.811178   0.000000
   18        6.760820   0.000000
   19        7.707991   0.000000
   20        8.107485   0.000000
   21        9.994815   0.000000
   22       10.721978   0.000000
   23       11.301076   0.000000
   24       11.683994   0.000000
 
  0.0000000E+00  0.2500000E+00  0.0000000E+00  0.3787879E-02
    1      -26.369603   1.000000
    2      -26.172660   1.000000
    3      -25.803218   1.000000
    4      -25.705210   1.000000
    5      -10.444570   1.000000
    6      -10.342849   1.000000
    7       -8.503145   1.000000
    8       -8.435321   1.000000
    9       -6.764360   1.000000
   10       -5.838440   1.000000
   11       -5.772542   1.000000
   12       -5.568189   1.000000
   13       -5.265012   1.000000
   14       -5.222882   1.000000
   15       -5.145521   1.000000
   16       -5.055133   1.000000
   17        2.898164   0.000000
   18        5.892072   0.000000
   19        6.932004   0.000000
   20        8.674684   0.000000
   21        8.828321   0.000000
   22       10.295393   0.000000
   23       10.666611   0.000000
   24       13.060755   0.000000
 
  0.9090909E-01  0.2500000E+00  0.0000000E+00  0.7575758E-02
    1      -26.350149   1.000000
    2      -26.156192   1.000000
    3      -25.805553   1.000000
    4      -25.707315   1.000000
    5      -10.413043   1.000000
    6      -10.308521   1.000000
    7       -8.556053   1.000000
    8       -8.482102   1.000000
    9       -6.727130   1.000000
   10       -5.836029   1.000000
   11       -5.827061   1.000000
   12       -5.624825   1.000000
   13       -5.261797   1.000000
   14       -5.226631   1.000000
   15       -5.217629   1.000000
   16       -5.142481   1.000000
   17        3.072410   0.000000
   18        6.015392   0.000000
   19        7.025673   0.000000
   20        8.659905   0.000000
   21        8.865573   0.000000
   22       10.358830   0.000000
   23       10.666178   0.000000
   24       12.973291   0.000000
 
  0.1818182E+00  0.2500000E+00  0.0000000E+00  0.7575758E-02
    1      -26.294726   1.000000
    2      -26.110273   1.000000
    3      -25.814013   1.000000
    4      -25.715902   1.000000
    5      -10.321423   1.000000
    6      -10.208363   1.000000
    7       -8.708626   1.000000
    8       -8.617129   1.000000
    9       -6.620747   1.000000
   10       -5.987023   1.000000
   11       -5.809809   1.000000
   12       -5.767136   1.000000
   13       -5.416344   1.000000
   14       -5.363545   1.000000
   15       -5.247700   1.000000
   16       -5.237068   1.000000
   17        3.555687   0.000000
   18        6.349030   0.000000
   19        7.254196   0.000000
   20        8.585231   0.000000
   21        8.983631   0.000000
   22       10.533899   0.000000
   23       10.635924   0.000000
   24       12.665113   0.000000
 
  0.2727273E+00  0.2500000E+00  0.0000000E+00  0.7575758E-02
    1      -26.212177   1.000000
    2      -26.041838   1.000000
    3      -25.834551   1.000000
    4      -25.734335   1.000000
    5      -10.177184   1.000000
    6      -10.050763   1.000000
    7       -8.940235   1.000000
    8       -8.824085   1.000000
    9       -6.461041   1.000000
   10       -6.159425   1.000000
   11       -5.933853   1.000000
   12       -5.798928   1.000000
   13       -5.690049   1.000000
   14       -5.617674   1.000000
   15       -5.249735   1.000000
   16       -5.236537   1.000000
   17        4.258624   0.000000
   18        6.805371   0.000000
   19        7.452399   0.000000
   20        8.420124   0.000000
   21        9.202160   0.000000
   22       10.501479   0.000000
   23       10.822494   0.000000
   24       12.129200   0.000000
 
  0.3636364E+00  0.2500000E+00  0.0000000E+00  0.7575758E-02
    1      -26.115374   1.000000
    2      -25.962288   1.000000
    3      -25.873839   1.000000
    4      -25.767224   1.000000
    5       -9.988495   1.000000
    6       -9.847082   1.000000
    7       -9.216239   1.000000
    8       -9.077016   1.000000
    9       -6.275668   1.000000
   10       -6.273817   1.000000
   11       -6.053509   1.000000
   12       -5.963154   1.000000
   13       -5.844661   1.000000
   14       -5.831255   1.000000
   15       -5.254869   1.000000
   16       -5.231062   1.000000
   17        5.087732   0.000000
   18        7.288630   0.000000
   19        7.322387   0.000000
   20        8.242986   0.000000
   21        9.548120   0.000000
   22       10.428280   0.000000
   23       10.989752   0.000000
   24       11.511973   0.000000
 
  0.4545455E+00  0.2500000E+00  0.0000000E+00  0.7575758E-02
    1      -26.018938   1.000000
    2      -25.935974   1.000000
    3      -25.884273   1.000000
    4      -25.817578   1.000000
    5       -9.760586   1.000000
    6       -9.608594   1.000000
    7       -9.498829   1.000000
    8       -9.346565   1.000000
    9       -6.286904   1.000000
   10       -6.185142   1.000000
   11       -6.083288   1.000000
   12       -6.075852   1.000000
   13       -6.007948   1.000000
   14       -5.926305   1.000000
   15       -5.247338   1.000000
   16       -5.235715   1.000000
   17        5.953787   0.000000
   18        6.752918   0.000000
   19        7.722742   0.000000
   20        8.048411   0.000000
   21       10.042393   0.000000
   22       10.572697   0.000000
   23       10.640893   0.000000
   24       10.962798   0.000000
 
  0.0000000E+00  0.3750000E+00  0.0000000E+00  0.3787879E-02
    1      -26.247741   1.000000
    2      -26.067678   1.000000
    3      -25.942761   1.000000
    4      -25.813817   1.000000
    5      -10.046401   1.000000
    6       -9.940143   1.000000
    7       -9.006101   1.000000
    8       -8.914998   1.000000
    9       -6.581083   1.000000
   10       -6.092263   1.000000
   11       -5.637335   1.000000
   12       -5.452117   1.000000
   13       -5.299970   1.000000
   14       -5.234686   1.000000
   15       -5.199242   1.000000
   16       -5.172948   1.000000
   17        3.782225   0.000000
   18        5.928654   0.000000
   19        6.705634   0.000000
   20        8.288646   0.000000
   21        9.003411   0.000000
   22        9.714853   0.000000
   23       11.246019   0.000000
   24       12.688143   0.000000
 
  0.9090909E-01  0.3750000E+00  0.0000000E+00  0.7575758E-02
    1      -26.232491   1.000000
    2      -26.055234   1.000000
    3      -25.939196   1.000000
    4      -25.811514   1.000000
    5      -10.038297   1.000000
    6       -9.926976   1.000000
    7       -9.045889   1.000000
    8       -8.947445   1.000000
    9       -6.548659   1.000000
   10       -6.074530   1.000000
   11       -5.688497   1.000000
   12       -5.503087   1.000000
   13       -5.353177   1.000000
   14       -5.239495   1.000000
   15       -5.228647   1.000000
   16       -5.202444   1.000000
   17        3.923719   0.000000
   18        6.032272   0.000000
   19        6.786436   0.000000
   20        8.298238   0.000000
   21        9.042882   0.000000
   22        9.766259   0.000000
   23       11.163771   0.000000
   24       12.533474   0.000000
 
  0.1818182E+00  0.3750000E+00  0.0000000E+00  0.7575758E-02
    1      -26.189799   1.000000
    2      -26.020821   1.000000
    3      -25.930654   1.000000
    4      -25.806817   1.000000
    5      -10.015115   1.000000
    6       -9.888895   1.000000
    7       -9.159506   1.000000
    8       -9.040326   1.000000
    9       -6.457113   1.000000
   10       -6.028060   1.000000
   11       -5.814345   1.000000
   12       -5.631105   1.000000
   13       -5.489327   1.000000
   14       -5.398743   1.000000
   15       -5.228120   1.000000
   16       -5.212674   1.000000
   17        4.316953   0.000000
   18        6.302703   0.000000
   19        6.997302   0.000000
   20        8.297703   0.000000
   21        9.165783   0.000000
   22        9.918784   0.000000
   23       10.900956   0.000000
   24       12.088772   0.000000
 
  0.2727273E+00  0.3750000E+00  0.0000000E+00  0.7575758E-02
    1      -26.128233   1.000000
    2      -25.971500   1.000000
    3      -25.924465   1.000000
    4      -25.804724   1.000000
    5       -9.977130   1.000000
    6       -9.828770   1.000000
    7       -9.327228   1.000000
    8       -9.179975   1.000000
    9       -6.323213   1.000000
   10       -5.981810   1.000000
   11       -5.942441   1.000000
   12       -5.778087   1.000000
   13       -5.659832   1.000000
   14       -5.601882   1.000000
   15       -5.229779   1.000000
   16       -5.227687   1.000000
   17        4.887227   0.000000
   18        6.626632   0.000000
   19        7.267247   0.000000
   20        8.237159   0.000000
   21        9.385894   0.000000
   22       10.161589   0.000000
   23       10.491060   0.000000
   24       11.460234   0.000000
 
  0.3636364E+00  0.3750000E+00  0.0000000E+00  0.7575758E-02
    1      -26.059681   1.000000
    2      -25.929300   1.000000
    3      -25.917074   1.000000
    4      -25.811546   1.000000
    5       -9.918215   1.000000
    6       -9.747024   1.000000
    7       -9.516155   1.000000
    8       -9.343240   1.000000
    9       -6.174008   1.000000
   10       -6.048213   1.000000
   11       -5.933607   1.000000
   12       -5.883598   1.000000
   13       -5.827488   1.000000
   14       -5.780378   1.000000
   15       -5.247802   1.000000
   16       -5.234477   1.000000
   17        5.544880   0.000000
   18        6.817526   0.000000
   19        7.533926   0.000000
   20        8.112976   0.000000
   21        9.716403   0.000000
   22       10.113491   0.000000
   23       10.432363   0.000000
   24       10.814791   0.000000
 
  0.4545455E+00  0.3750000E+00  0.0000000E+00  0.7575758E-02
    1      -25.997881   1.000000
    2      -25.952706   1.000000
    3      -25.868320   1.000000
    4      -25.832126   1.000000
    5       -9.826067   1.000000
    6       -9.690514   1.000000
    7       -9.639637   1.000000
    8       -9.503000   1.000000
    9       -6.059193   1.000000
   10       -6.051413   1.000000
   11       -5.958455   1.000000
   12       -5.951873   1.000000
   13       -5.919185   1.000000
   14       -5.890503   1.000000
   15       -5.254865   1.000000
   16       -5.246947   1.000000
   17        6.187205   0.000000
   18        6.670007   0.000000
   19        7.767801   0.000000
   20        7.958663   0.000000
   21       10.017902   0.000000
   22       10.136873   0.000000
   23       10.292821   0.000000
   24       10.483403   0.000000
 
  0.0000000E+00  0.5000000E+00  0.0000000E+00  0.1893939E-02
    1      -26.098797   1.000000
    2      -26.098797   1.000000
    3      -25.941907   1.000000
    4      -25.941907   1.000000
    5       -9.547101   1.000000
    6       -9.547101   1.000000
    7       -9.443313   1.000000
    8       -9.443313   1.000000
    9       -6.348867   1.000000
   10       -6.348867   1.000000
   11       -5.472343   1.000000
   12       -5.472343   1.000000
   13       -5.313211   1.000000
   14       -5.313211   1.000000
   15       -5.208083   1.000000
   16       -5.208083   1.000000
   17        4.831730   0.000000
   18        4.831730   0.000000
   19        7.577626   0.000000
   20        7.577626   0.000000
   21        9.288738   0.000000
   22        9.288738   0.000000
   23       12.001681   0.000000
   24       12.001681   0.000000
 
  0.9090909E-01  0.5000000E+00  0.0000000E+00  0.3787879E-02
    1      -26.089109   1.000000
    2      -26.089109   1.000000
    3      -25.934193   1.000000
    4      -25.934193   1.000000
    5       -9.564718   1.000000
    6       -9.564718   1.000000
    7       -9.454064   1.000000
    8       -9.454064   1.000000
    9       -6.323103   1.000000
   10       -6.323103   1.000000
   11       -5.518734   1.000000
   12       -5.518734   1.000000
   13       -5.364394   1.000000
   14       -5.364394   1.000000
   15       -5.208876   1.000000
   16       -5.208876   1.000000
   17        4.949451   0.000000
   18        4.949451   0.000000
   19        7.619306   0.000000
   20        7.619306   0.000000
   21        9.332588   0.000000
   22        9.332588   0.000000
   23       11.855147   0.000000
   24       11.855147   0.000000
 
  0.1818182E+00  0.5000000E+00  0.0000000E+00  0.3787879E-02
    1      -26.062628   1.000000
    2      -26.062628   1.000000
    3      -25.914214   1.000000
    4      -25.914214   1.000000
    5       -9.615139   1.000000
    6       -9.615139   1.000000
    7       -9.485055   1.000000
    8       -9.485055   1.000000
    9       -6.251879   1.000000
   10       -6.251879   1.000000
   11       -5.634064   1.000000
   12       -5.634064   1.000000
   13       -5.494710   1.000000
   14       -5.494710   1.000000
   15       -5.213088   1.000000
   16       -5.213088   1.000000
   17        5.270459   0.000000
   18        5.270459   0.000000
   19        7.713923   0.000000
   20        7.713923   0.000000
   21        9.466315   0.000000
   22        9.466315   0.000000
   23       11.439466   0.000000
   24       11.439466   0.000000
 
  0.2727273E+00  0.5000000E+00  0.0000000E+00  0.3787879E-02
    1      -26.027256   1.000000
    2      -26.027256   1.000000
    3      -25.888128   1.000000
    4      -25.888128   1.000000
    5       -9.687935   1.000000
    6       -9.687935   1.000000
    7       -9.530801   1.000000
    8       -9.530801   1.000000
    9       -6.153256   1.000000
   10       -6.153256   1.000000
   11       -5.765054   1.000000
   12       -5.765054   1.000000
   13       -5.651840   1.000000
   14       -5.651840   1.000000
   15       -5.223689   1.000000
   16       -5.223689   1.000000
   17        5.712135   0.000000
   18        5.712135   0.000000
   19        7.799838   0.000000
   20        7.799838   0.000000
   21        9.693319   0.000000
   22        9.693319   0.000000
   23       10.859211   0.000000
   24       10.859211   0.000000
 
  0.3636364E+00  0.5000000E+00  0.0000000E+00  0.3787879E-02
    1      -25.994498   1.000000
    2      -25.994498   1.000000
    3      -25.864032   1.000000
    4      -25.864032   1.000000
    5       -9.761160   1.000000
    6       -9.761160   1.000000
    7       -9.578150   1.000000
    8       -9.578150   1.000000
    9       -6.057108   1.000000
   10       -6.057108   1.000000
   11       -5.862638   1.000000
   12       -5.862638   1.000000
   13       -5.785878   1.000000
   14       -5.785878   1.000000
   15       -5.240359   1.000000
   16       -5.240359   1.000000
   17        6.159722   0.000000
   18        6.159722   0.000000
   19        7.843163   0.000000
   20        7.843163   0.000000
   21       10.000793   0.000000
   22       10.000793   0.000000
   23       10.290250   0.000000
   24       10.290250   0.000000
 
  0.4545455E+00  0.5000000E+00  0.0000000E+00  0.3787879E-02
    1      -25.974439   1.000000
    2      -25.974439   1.000000
    3      -25.850198   1.000000
    4      -25.850198   1.000000
    5       -9.807434   1.000000
    6       -9.807434   1.000000
    7       -9.608758   1.000000
    8       -9.608758   1.000000
    9       -6.002260   1.000000
   10       -6.002260   1.000000
   11       -5.899561   1.000000
   12       -5.899561   1.000000
   13       -5.866179   1.000000
   14       -5.866179   1.000000
   15       -5.254788   1.000000
   16       -5.254788   1.000000
   17        6.461201   0.000000
   18        6.461201   0.000000
   19        7.853400   0.000000
   20        7.853400   0.000000
   21        9.918602   0.000000
   22        9.918602   0.000000
   23       10.296066   0.000000
   24       10.296066   0.000000
 
  0.0000000E+00  0.1540744E-32  0.1666667E+00  0.3787879E-02
    1      -26.462706   1.000000
    2      -26.280189   1.000000
    3      -25.663450   1.000000
    4      -25.614438   1.000000
    5      -10.785390   1.000000
    6      -10.704953   1.000000
    7       -7.996898   1.000000
    8       -7.973482   1.000000
    9       -6.827165   1.000000
   10       -5.876989   1.000000
   11       -5.686537   1.000000
   12       -5.458563   1.000000
   13       -5.428629   1.000000
   14       -5.373429   1.000000
   15       -4.986925   1.000000
   16       -4.961772   1.000000
   17        2.271968   0.000000
   18        4.852377   0.000000
   19        7.958443   0.000000
   20        8.718823   0.000000
   21        8.997577   0.000000
   22       10.254038   0.000000
   23       11.474779   0.000000
   24       12.743656   0.000000
 
  0.9090909E-01 -0.1540744E-32  0.1666667E+00  0.7575758E-02
    1      -26.439684   1.000000
    2      -26.260387   1.000000
    3      -25.672012   1.000000
    4      -25.620860   1.000000
    5      -10.731496   1.000000
    6      -10.651403   1.000000
    7       -8.049364   1.000000
    8       -8.029154   1.000000
    9       -6.789104   1.000000
   10       -5.951055   1.000000
   11       -5.754207   1.000000
   12       -5.468991   1.000000
   13       -5.430296   1.000000
   14       -5.363752   1.000000
   15       -5.091830   1.000000
   16       -5.083847   1.000000
   17        2.485145   0.000000
   18        5.023555   0.000000
   19        8.028587   0.000000
   20        8.707439   0.000000
   21        9.034790   0.000000
   22       10.359224   0.000000
   23       11.577127   0.000000
   24       12.755814   0.000000
 
  0.1818182E+00  0.1694818E-31  0.1666667E+00  0.7575758E-02
    1      -26.374098   1.000000
    2      -26.203215   1.000000
    3      -25.697922   1.000000
    4      -25.640650   1.000000
    5      -10.573056   1.000000
    6      -10.493632   1.000000
    7       -8.204247   1.000000
    8       -8.194209   1.000000
    9       -6.680005   1.000000
   10       -6.139489   1.000000
   11       -5.925785   1.000000
   12       -5.529811   1.000000
   13       -5.505775   1.000000
   14       -5.362248   1.000000
   15       -5.338925   1.000000
   16       -5.295547   1.000000
   17        3.065872   0.000000
   18        5.490627   0.000000
   19        8.190990   0.000000
   20        8.599998   0.000000
   21        9.150558   0.000000
   22       10.667565   0.000000
   23       11.877513   0.000000
   24       12.744080   0.000000
 
  0.2727273E+00  0.1078521E-31  0.1666667E+00  0.7575758E-02
    1      -26.274764   1.000000
    2      -26.117275   1.000000
    3      -25.745418   1.000000
    4      -25.677269   1.000000
    5      -10.320490   1.000000
    6      -10.243352   1.000000
    7       -8.459784   1.000000
    8       -8.452895   1.000000
    9       -6.517150   1.000000
   10       -6.362917   1.000000
   11       -6.130237   1.000000
   12       -5.889912   1.000000
   13       -5.695911   1.000000
   14       -5.577470   1.000000
   15       -5.311231   1.000000
   16       -5.307648   1.000000
   17        3.894136   0.000000
   18        6.144703   0.000000
   19        8.275300   0.000000
   20        8.325960   0.000000
   21        9.356331   0.000000
   22       11.074210   0.000000
   23       12.228553   0.000000
   24       12.596473   0.000000
 
  0.3636364E+00  0.1078521E-31  0.1666667E+00  0.7575758E-02
    1      -26.154956   1.000000
    2      -26.014495   1.000000
    3      -25.817507   1.000000
    4      -25.733890   1.000000
    5       -9.990795   1.000000
    6       -9.918790   1.000000
    7       -8.805812   1.000000
    8       -8.778198   1.000000
    9       -6.535218   1.000000
   10       -6.342664   1.000000
   11       -6.291403   1.000000
   12       -6.248586   1.000000
   13       -5.974632   1.000000
   14       -5.690304   1.000000
   15       -5.286675   1.000000
   16       -5.279999   1.000000
   17        4.859605   0.000000
   18        6.865225   0.000000
   19        7.679528   0.000000
   20        8.308332   0.000000
   21        9.667356   0.000000
   22       11.403026   0.000000
   23       11.631806   0.000000
   24       12.284060   0.000000
 
  0.4545455E+00  0.1078521E-31  0.1666667E+00  0.7575758E-02
    1      -26.029964   1.000000
    2      -25.913889   1.000000
    3      -25.908709   1.000000
    4      -25.812357   1.000000
    5       -9.607566   1.000000
    6       -9.545164   1.000000
    7       -9.200681   1.000000
    8       -9.153458   1.000000
    9       -6.590651   1.000000
   10       -6.495032   1.000000
   11       -6.354001   1.000000
   12       -6.311022   1.000000
   13       -6.003136   1.000000
   14       -5.842457   1.000000
   15       -5.267815   1.000000
   16       -5.265055   1.000000
   17        5.872984   0.000000
   18        6.846865   0.000000
   19        7.539121   0.000000
   20        8.049113   0.000000
   21       10.112525   0.000000
   22       10.753276   0.000000
   23       11.649940   0.000000
   24       11.934793   0.000000
 
  0.0000000E+00  0.1250000E+00  0.1666667E+00  0.7575758E-02
    1      -26.435425   1.000000
    2      -26.255898   1.000000
    3      -25.699612   1.000000
    4      -25.639058   1.000000
    5      -10.697314   1.000000
    6      -10.614544   1.000000
    7       -8.134812   1.000000
    8       -8.098011   1.000000
    9       -6.787324   1.000000
   10       -5.846634   1.000000
   11       -5.659571   1.000000
   12       -5.584418   1.000000
   13       -5.415098   1.000000
   14       -5.304014   1.000000
   15       -5.030136   1.000000
   16       -4.984621   1.000000
   17        2.483182   0.000000
   18        5.052656   0.000000
   19        7.711211   0.000000
   20        8.702209   0.000000
   21        9.030381   0.000000
   22       10.289876   0.000000
   23       11.009159   0.000000
   24       12.747086   0.000000
 
  0.9090909E-01  0.1250000E+00  0.1666667E+00  0.1515152E-01
    1      -26.413364   1.000000
    2      -26.236752   1.000000
    3      -25.706074   1.000000
    4      -25.644434   1.000000
    5      -10.649205   1.000000
    6      -10.565868   1.000000
    7       -8.189486   1.000000
    8       -8.151527   1.000000
    9       -6.750048   1.000000
   10       -5.917638   1.000000
   11       -5.725431   1.000000
   12       -5.582079   1.000000
   13       -5.416474   1.000000
   14       -5.303640   1.000000
   15       -5.125917   1.000000
   16       -5.090845   1.000000
   17        2.683008   0.000000
   18        5.210572   0.000000
   19        7.791913   0.000000
   20        8.694037   0.000000
   21        9.066628   0.000000
   22       10.367819   0.000000
   23       11.067614   0.000000
   24       12.739679   0.000000
 
  0.1818182E+00  0.1250000E+00  0.1666667E+00  0.1515152E-01
    1      -26.350443   1.000000
    2      -26.182398   1.000000
    3      -25.727262   1.000000
    4      -25.661534   1.000000
    5      -10.508368   1.000000
    6      -10.423276   1.000000
    7       -8.350990   1.000000
    8       -8.307314   1.000000
    9       -6.643433   1.000000
   10       -6.096600   1.000000
   11       -5.889975   1.000000
   12       -5.588709   1.000000
   13       -5.503667   1.000000
   14       -5.361906   1.000000
   15       -5.301660   1.000000
   16       -5.288308   1.000000
   17        3.231372   0.000000
   18        5.642105   0.000000
   19        7.975951   0.000000
   20        8.609525   0.000000
   21        9.178967   0.000000
   22       10.582301   0.000000
   23       11.239722   0.000000
   24       12.666630   0.000000
 
  0.2727273E+00  0.1250000E+00  0.1666667E+00  0.1515152E-01
    1      -26.255687   1.000000
    2      -26.100770   1.000000
    3      -25.767148   1.000000
    4      -25.693767   1.000000
    5      -10.285078   1.000000
    6      -10.197358   1.000000
    7       -8.607670   1.000000
    8       -8.551209   1.000000
    9       -6.484512   1.000000
   10       -6.305388   1.000000
   11       -6.083779   1.000000
   12       -5.827384   1.000000
   13       -5.663591   1.000000
   14       -5.626003   1.000000
   15       -5.306195   1.000000
   16       -5.293763   1.000000
   17        4.019891   0.000000
   18        6.247819   0.000000
   19        8.060341   0.000000
   20        8.404619   0.000000
   21        9.377393   0.000000
   22       10.823155   0.000000
   23       11.495183   0.000000
   24       12.425522   0.000000
 
  0.3636364E+00  0.1250000E+00  0.1666667E+00  0.1515152E-01
    1      -26.142076   1.000000
    2      -26.003801   1.000000
    3      -25.830192   1.000000
    4      -25.744479   1.000000
    5       -9.994861   1.000000
    6       -9.904899   1.000000
    7       -8.933659   1.000000
    8       -8.861626   1.000000
    9       -6.460441   1.000000
   10       -6.311373   1.000000
   11       -6.233008   1.000000
   12       -6.158083   1.000000
   13       -5.925325   1.000000
   14       -5.711001   1.000000
   15       -5.285295   1.000000
   16       -5.279781   1.000000
   17        4.944455   0.000000
   18        6.918009   0.000000
   19        7.632221   0.000000
   20        8.286967   0.000000
   21        9.675781   0.000000
   22       10.981711   0.000000
   23       11.434047   0.000000
   24       12.027361   0.000000
 
  0.4545455E+00  0.1250000E+00  0.1666667E+00  0.1515152E-01
    1      -26.024729   1.000000
    2      -25.917462   1.000000
    3      -25.904821   1.000000
    4      -25.815652   1.000000
    5       -9.657127   1.000000
    6       -9.567452   1.000000
    7       -9.294391   1.000000
    8       -9.210326   1.000000
    9       -6.500432   1.000000
   10       -6.398444   1.000000
   11       -6.286589   1.000000
   12       -6.248129   1.000000
   13       -5.982251   1.000000
   14       -5.842745   1.000000
   15       -5.270033   1.000000
   16       -5.268798   1.000000
   17        5.918067   0.000000
   18        6.851523   0.000000
   19        7.549330   0.000000
   20        8.033826   0.000000
   21       10.097670   0.000000
   22       10.665111   0.000000
   23       11.314728   0.000000
   24       11.617983   0.000000
 
  0.0000000E+00  0.2500000E+00  0.1666667E+00  0.7575758E-02
    1      -26.356818   1.000000
    2      -26.186096   1.000000
    3      -25.796950   1.000000
    4      -25.711581   1.000000
    5      -10.441387   1.000000
    6      -10.353424   1.000000
    7       -8.501564   1.000000
    8       -8.442625   1.000000
    9       -6.672180   1.000000
   10       -5.790514   1.000000
   11       -5.759133   1.000000
   12       -5.582174   1.000000
   13       -5.379095   1.000000
   14       -5.257364   1.000000
   15       -5.139485   1.000000
   16       -5.061212   1.000000
   17        3.073381   0.000000
   18        5.608304   0.000000
   19        7.018679   0.000000
   20        8.530881   0.000000
   21        9.132078   0.000000
   22       10.231869   0.000000
   23       10.716379   0.000000
   24       12.695366   0.000000
 
  0.9090909E-01  0.2500000E+00  0.1666667E+00  0.1515152E-01
    1      -26.337373   1.000000
    2      -26.169644   1.000000
    3      -25.798897   1.000000
    4      -25.714104   1.000000
    5      -10.409512   1.000000
    6      -10.319125   1.000000
    7       -8.553914   1.000000
    8       -8.489687   1.000000
    9       -6.637518   1.000000
   10       -5.829420   1.000000
   11       -5.774317   1.000000
   12       -5.639337   1.000000
   13       -5.381443   1.000000
   14       -5.258769   1.000000
   15       -5.210389   1.000000
   16       -5.139089   1.000000
   17        3.242554   0.000000
   18        5.733436   0.000000
   19        7.112332   0.000000
   20        8.541453   0.000000
   21        9.165460   0.000000
   22       10.277386   0.000000
   23       10.700039   0.000000
   24       12.632049   0.000000
 
  0.1818182E+00  0.2500000E+00  0.1666667E+00  0.1515152E-01
    1      -26.282428   1.000000
    2      -26.122623   1.000000
    3      -25.807365   1.000000
    4      -25.722488   1.000000
    5      -10.317072   1.000000
    6      -10.219261   1.000000
    7       -8.705037   1.000000
    8       -8.625580   1.000000
    9       -6.539000   1.000000
   10       -5.980199   1.000000
   11       -5.802420   1.000000
   12       -5.741666   1.000000
   13       -5.459521   1.000000
   14       -5.383529   1.000000
   15       -5.279485   1.000000
   16       -5.264621   1.000000
   17        3.712253   0.000000
   18        6.075049   0.000000
   19        7.340260   0.000000
   20        8.522755   0.000000
   21        9.267845   0.000000
   22       10.421709   0.000000
   23       10.625949   0.000000
   24       12.400073   0.000000
 
  0.2727273E+00  0.2500000E+00  0.1666667E+00  0.1515152E-01
    1      -26.200839   1.000000
    2      -26.053297   1.000000
    3      -25.827865   1.000000
    4      -25.741169   1.000000
    5      -10.171737   1.000000
    6      -10.062197   1.000000
    7       -8.934821   1.000000
    8       -8.833865   1.000000
    9       -6.393460   1.000000
   10       -6.152818   1.000000
   11       -5.962994   1.000000
   12       -5.741205   1.000000
   13       -5.710325   1.000000
   14       -5.613925   1.000000
   15       -5.293717   1.000000
   16       -5.273722   1.000000
   17        4.397248   0.000000
   18        6.553815   0.000000
   19        7.537100   0.000000
   20        8.401684   0.000000
   21        9.445277   0.000000
   22       10.464652   0.000000
   23       10.667977   0.000000
   24       11.965301   0.000000
 
  0.3636364E+00  0.2500000E+00  0.1666667E+00  0.1515152E-01
    1      -26.105241   1.000000
    2      -25.972899   1.000000
    3      -25.866499   1.000000
    4      -25.774437   1.000000
    5       -9.981618   1.000000
    6       -9.858999   1.000000
    7       -9.209217   1.000000
    8       -9.088212   1.000000
    9       -6.270539   1.000000
   10       -6.232742   1.000000
   11       -6.087639   1.000000
   12       -5.973025   1.000000
   13       -5.825009   1.000000
   14       -5.768096   1.000000
   15       -5.281842   1.000000
   16       -5.279127   1.000000
   17        5.207164   0.000000
   18        7.083660   0.000000
   19        7.407999   0.000000
   20        8.226736   0.000000
   21        9.707987   0.000000
   22       10.361289   0.000000
   23       10.828167   0.000000
   24       11.429839   0.000000
 
  0.4545455E+00  0.2500000E+00  0.1666667E+00  0.1515152E-01
    1      -26.010299   1.000000
    2      -25.928006   1.000000
    3      -25.893657   1.000000
    4      -25.825577   1.000000
    5       -9.752830   1.000000
    6       -9.620895   1.000000
    7       -9.490941   1.000000
    8       -9.358755   1.000000
    9       -6.284931   1.000000
   10       -6.188539   1.000000
   11       -6.130071   1.000000
   12       -6.116821   1.000000
   13       -5.918962   1.000000
   14       -5.843664   1.000000
   15       -5.277346   1.000000
   16       -5.275650   1.000000
   17        6.056176   0.000000
   18        6.843733   0.000000
   19        7.587877   0.000000
   20        7.986412   0.000000
   21       10.059888   0.000000
   22       10.364527   0.000000
   23       10.718240   0.000000
   24       10.946823   0.000000
 
  0.0000000E+00  0.3750000E+00  0.1666667E+00  0.7575758E-02
    1      -26.236098   1.000000
    2      -26.080131   1.000000
    3      -25.934269   1.000000
    4      -25.822564   1.000000
    5      -10.043010   1.000000
    6       -9.951280   1.000000
    7       -9.003772   1.000000
    8       -8.925222   1.000000
    9       -6.493976   1.000000
   10       -6.028104   1.000000
   11       -5.625157   1.000000
   12       -5.464754   1.000000
   13       -5.331286   1.000000
   14       -5.291549   1.000000
   15       -5.255134   1.000000
   16       -5.181546   1.000000
   17        3.940957   0.000000
   18        6.043491   0.000000
   19        6.399552   0.000000
   20        8.033309   0.000000
   21        9.310533   0.000000
   22        9.871530   0.000000
   23       11.191640   0.000000
   24       12.425027   0.000000
 
  0.9090909E-01  0.3750000E+00  0.1666667E+00  0.1515152E-01
    1      -26.220956   1.000000
    2      -26.067587   1.000000
    3      -25.930830   1.000000
    4      -25.820283   1.000000
    5      -10.034508   1.000000
    6       -9.938337   1.000000
    7       -9.042927   1.000000
    8       -8.957906   1.000000
    9       -6.463993   1.000000
   10       -6.013227   1.000000
   11       -5.675083   1.000000
   12       -5.517891   1.000000
   13       -5.351115   1.000000
   14       -5.332508   1.000000
   15       -5.254338   1.000000
   16       -5.230606   1.000000
   17        4.078342   0.000000
   18        6.145317   0.000000
   19        6.487203   0.000000
   20        8.068126   0.000000
   21        9.339123   0.000000
   22        9.893369   0.000000
   23       11.107397   0.000000
   24       12.299067   0.000000
 
  0.1818182E+00  0.3750000E+00  0.1666667E+00  0.1515152E-01
    1      -26.178691   1.000000
    2      -26.032488   1.000000
    3      -25.922462   1.000000
    4      -25.815106   1.000000
    5      -10.010086   1.000000
    6       -9.900915   1.000000
    7       -9.154808   1.000000
    8       -9.051746   1.000000
    9       -6.379790   1.000000
   10       -5.979033   1.000000
   11       -5.793939   1.000000
   12       -5.647917   1.000000
   13       -5.482855   1.000000
   14       -5.434484   1.000000
   15       -5.280708   1.000000
   16       -5.256841   1.000000
   17        4.460534   0.000000
   18        6.411241   0.000000
   19        6.721526   0.000000
   20        8.132903   0.000000
   21        9.425062   0.000000
   22        9.964940   0.000000
   23       10.847526   0.000000
   24       11.923271   0.000000
 
  0.2727273E+00  0.3750000E+00  0.1666667E+00  0.1515152E-01
    1      -26.117757   1.000000
    2      -25.982175   1.000000
    3      -25.916223   1.000000
    4      -25.812887   1.000000
    5       -9.970285   1.000000
    6       -9.841912   1.000000
    7       -9.320413   1.000000
    8       -9.192760   1.000000
    9       -6.258675   1.000000
   10       -5.988017   1.000000
   11       -5.882001   1.000000
   12       -5.787215   1.000000
   13       -5.655352   1.000000
   14       -5.618308   1.000000
   15       -5.280365   1.000000
   16       -5.266007   1.000000
   17        5.015481   0.000000
   18        6.728021   0.000000
   19        7.036644   0.000000
   20        8.145132   0.000000
   21        9.571199   0.000000
   22       10.088743   0.000000
   23       10.465222   0.000000
   24       11.366695   0.000000
 
  0.3636364E+00  0.3750000E+00  0.1666667E+00  0.1515152E-01
    1      -26.050200   1.000000
    2      -25.926804   1.000000
    3      -25.921221   1.000000
    4      -25.819468   1.000000
    5       -9.909621   1.000000
    6       -9.761306   1.000000
    7       -9.507421   1.000000
    8       -9.357351   1.000000
    9       -6.130783   1.000000
   10       -6.058196   1.000000
   11       -5.937137   1.000000
   12       -5.830760   1.000000
   13       -5.830676   1.000000
   14       -5.772547   1.000000
   15       -5.278408   1.000000
   16       -5.278162   1.000000
   17        5.656031   0.000000
   18        6.911839   0.000000
   19        7.367220   0.000000
   20        8.061637   0.000000
   21        9.782201   0.000000
   22       10.027770   0.000000
   23       10.336030   0.000000
   24       10.779987   0.000000
 
  0.4545455E+00  0.3750000E+00  0.1666667E+00  0.1515152E-01
    1      -25.989380   1.000000
    2      -25.944802   1.000000
    3      -25.877191   1.000000
    4      -25.840409   1.000000
    5       -9.816262   1.000000
    6       -9.680691   1.000000
    7       -9.654690   1.000000
    8       -9.518082   1.000000
    9       -6.071038   1.000000
   10       -6.051727   1.000000
   11       -5.981375   1.000000
   12       -5.958961   1.000000
   13       -5.848031   1.000000
   14       -5.839906   1.000000
   15       -5.284412   1.000000
   16       -5.281798   1.000000
   17        6.284109   0.000000
   18        6.761009   0.000000
   19        7.666311   0.000000
   20        7.901598   0.000000
   21        9.938677   0.000000
   22        9.997972   0.000000
   23       10.350770   0.000000
   24       10.367745   0.000000
 
  0.0000000E+00  0.5000000E+00  0.1666667E+00  0.3787879E-02
    1      -26.088454   1.000000
    2      -26.088454   1.000000
    3      -25.952498   1.000000
    4      -25.952498   1.000000
    5       -9.544023   1.000000
    6       -9.544023   1.000000
    7       -9.454424   1.000000
    8       -9.454424   1.000000
    9       -6.271367   1.000000
   10       -6.271367   1.000000
   11       -5.461838   1.000000
   12       -5.461838   1.000000
   13       -5.324010   1.000000
   14       -5.324010   1.000000
   15       -5.284933   1.000000
   16       -5.284933   1.000000
   17        4.970387   0.000000
   18        4.970387   0.000000
   19        7.266187   0.000000
   20        7.266187   0.000000
   21        9.563736   0.000000
   22        9.563736   0.000000
   23       11.859310   0.000000
   24       11.859310   0.000000
 
  0.9090909E-01  0.5000000E+00  0.1666667E+00  0.7575758E-02
    1      -26.078848   1.000000
    2      -26.078848   1.000000
    3      -25.944922   1.000000
    4      -25.944922   1.000000
    5       -9.561072   1.000000
    6       -9.561072   1.000000
    7       -9.465563   1.000000
    8       -9.465563   1.000000
    9       -6.247996   1.000000
   10       -6.247996   1.000000
   11       -5.507798   1.000000
   12       -5.507798   1.000000
   13       -5.382937   1.000000
   14       -5.382937   1.000000
   15       -5.275358   1.000000
   16       -5.275358   1.000000
   17        5.085009   0.000000
   18        5.085009   0.000000
   19        7.323354   0.000000
   20        7.323354   0.000000
   21        9.586107   0.000000
   22        9.586107   0.000000
   23       11.725836   0.000000
   24       11.725836   0.000000
 
  0.1818182E+00  0.5000000E+00  0.1666667E+00  0.7575758E-02
    1      -26.052878   1.000000
    2      -26.052878   1.000000
    3      -25.924466   1.000000
    4      -25.924466   1.000000
    5       -9.609971   1.000000
    6       -9.609971   1.000000
    7       -9.497583   1.000000
    8       -9.497583   1.000000
    9       -6.184206   1.000000
   10       -6.184206   1.000000
   11       -5.621363   1.000000
   12       -5.621363   1.000000
   13       -5.515752   1.000000
   14       -5.515752   1.000000
   15       -5.269571   1.000000
   16       -5.269571   1.000000
   17        5.397467   0.000000
   18        5.397467   0.000000
   19        7.464369   0.000000
   20        7.464369   0.000000
   21        9.653598   0.000000
   22        9.653598   0.000000
   23       11.344820   0.000000
   24       11.344820   0.000000
 
  0.2727273E+00  0.5000000E+00  0.1666667E+00  0.7575758E-02
    1      -26.018125   1.000000
    2      -26.018125   1.000000
    3      -25.897663   1.000000
    4      -25.897663   1.000000
    5       -9.680607   1.000000
    6       -9.680607   1.000000
    7       -9.544621   1.000000
    8       -9.544621   1.000000
    9       -6.099617   1.000000
   10       -6.099617   1.000000
   11       -5.747459   1.000000
   12       -5.747459   1.000000
   13       -5.671439   1.000000
   14       -5.671439   1.000000
   15       -5.270246   1.000000
   16       -5.270246   1.000000
   17        5.827203   0.000000
   18        5.827203   0.000000
   19        7.620386   0.000000
   20        7.620386   0.000000
   21        9.770874   0.000000
   22        9.770874   0.000000
   23       10.808772   0.000000
   24       10.808772   0.000000
 
  0.3636364E+00  0.5000000E+00  0.1666667E+00  0.7575758E-02
    1      -25.985695   1.000000
    2      -25.985695   1.000000
    3      -25.873024   1.000000
    4      -25.873024   1.000000
    5       -9.751849   1.000000
    6       -9.751849   1.000000
    7       -9.593287   1.000000
    8       -9.593287   1.000000
    9       -6.029649   1.000000
   10       -6.029649   1.000000
   11       -5.833642   1.000000
   12       -5.833642   1.000000
   13       -5.798285   1.000000
   14       -5.798285   1.000000
   15       -5.277365   1.000000
   16       -5.277365   1.000000
   17        6.261693   0.000000
   18        6.261693   0.000000
   19        7.732290   0.000000
   20        7.732290   0.000000
   21        9.917809   0.000000
   22        9.917809   0.000000
   23       10.304207   0.000000
   24       10.304207   0.000000
 
  0.4545455E+00  0.5000000E+00  0.1666667E+00  0.7575758E-02
    1      -25.966203   1.000000
    2      -25.966203   1.000000
    3      -25.858391   1.000000
    4      -25.858391   1.000000
    5       -9.796976   1.000000
    6       -9.796976   1.000000
    7       -9.624720   1.000000
    8       -9.624720   1.000000
    9       -6.006670   1.000000
   10       -6.006670   1.000000
   11       -5.886404   1.000000
   12       -5.886404   1.000000
   13       -5.836052   1.000000
   14       -5.836052   1.000000
   15       -5.285538   1.000000
   16       -5.285538   1.000000
   17        6.554098   0.000000
   18        6.554098   0.000000
   19        7.782365   0.000000
   20        7.782365   0.000000
   21        9.839155   0.000000
   22        9.839155   0.000000
   23       10.207870   0.000000
   24       10.207870   0.000000
 
  0.3081488E-32 -0.6162976E-32  0.3333333E+00  0.3787879E-02
    1      -26.424844   1.000000
    2      -26.319416   1.000000
    3      -25.653209   1.000000
    4      -25.625076   1.000000
    5      -10.775160   1.000000
    6      -10.728761   1.000000
    7       -7.991229   1.000000
    8       -7.977366   1.000000
    9       -6.566749   1.000000
   10       -5.837409   1.000000
   11       -5.766747   1.000000
   12       -5.727464   1.000000
   13       -5.423142   1.000000
   14       -5.373943   1.000000
   15       -4.981548   1.000000
   16       -4.967026   1.000000
   17        2.785233   0.000000
   18        4.231072   0.000000
   19        8.083964   0.000000
   20        8.540403   0.000000
   21        9.728448   0.000000
   22       10.329599   0.000000
   23       11.010789   0.000000
   24       11.784694   0.000000
 
  0.9090909E-01  0.3081488E-32  0.3333333E+00  0.7575758E-02
    1      -26.402399   1.000000
    2      -26.298796   1.000000
    3      -25.661137   1.000000
    4      -25.631667   1.000000
    5      -10.721109   1.000000
    6      -10.674763   1.000000
    7       -8.044352   1.000000
    8       -8.032530   1.000000
    9       -6.536751   1.000000
   10       -5.912568   1.000000
   11       -5.799613   1.000000
   12       -5.763408   1.000000
   13       -5.426744   1.000000
   14       -5.366579   1.000000
   15       -5.086759   1.000000
   16       -5.077344   1.000000
   17        2.983262   0.000000
   18        4.404636   0.000000
   19        8.154128   0.000000
   20        8.569878   0.000000
   21        9.763156   0.000000
   22       10.427319   0.000000
   23       11.108699   0.000000
   24       11.804361   0.000000
 
  0.1818182E+00 -0.3081488E-32  0.3333333E+00  0.7575758E-02
    1      -26.338675   1.000000
    2      -26.240129   1.000000
    3      -25.685980   1.000000
    4      -25.652777   1.000000
    5      -10.562409   1.000000
    6      -10.516638   1.000000
    7       -8.201685   1.000000
    8       -8.196023   1.000000
    9       -6.454278   1.000000
   10       -6.102106   1.000000
   11       -5.980509   1.000000
   12       -5.787287   1.000000
   13       -5.446240   1.000000
   14       -5.353737   1.000000
   15       -5.351507   1.000000
   16       -5.322289   1.000000
   17        3.525655   0.000000
   18        4.880321   0.000000
   19        8.302620   0.000000
   20        8.567103   0.000000
   21        9.863925   0.000000
   22       10.742230   0.000000
   23       11.413162   0.000000
   24       11.837048   0.000000
 
  0.2727273E+00 -0.3081488E-32  0.3333333E+00  0.7575758E-02
    1      -26.242062   1.000000
    2      -26.151235   1.000000
    3      -25.730909   1.000000
    4      -25.691810   1.000000
    5      -10.309596   1.000000
    6      -10.264904   1.000000
    7       -8.458771   1.000000
    8       -8.454402   1.000000
    9       -6.349046   1.000000
   10       -6.326168   1.000000
   11       -6.195047   1.000000
   12       -5.972841   1.000000
   13       -5.663546   1.000000
   14       -5.492258   1.000000
   15       -5.457750   1.000000
   16       -5.339433   1.000000
   17        4.304693   0.000000
   18        5.558908   0.000000
   19        8.364950   0.000000
   20        8.384152   0.000000
   21       10.020339   0.000000
   22       11.218283   0.000000
   23       11.819755   0.000000
   24       11.865742   0.000000
 
  0.3636364E+00  0.9244464E-32  0.3333333E+00  0.7575758E-02
    1      -26.125959   1.000000
    2      -26.044825   1.000000
    3      -25.800017   1.000000
    4      -25.751748   1.000000
    5       -9.980164   1.000000
    6       -9.938256   1.000000
    7       -8.801455   1.000000
    8       -8.784908   1.000000
    9       -6.500868   1.000000
   10       -6.365819   1.000000
   11       -6.310468   1.000000
   12       -6.264300   1.000000
   13       -5.846535   1.000000
   14       -5.570835   1.000000
   15       -5.442190   1.000000
   16       -5.339428   1.000000
   17        5.217255   0.000000
   18        6.337575   0.000000
   19        7.867097   0.000000
   20        8.247504   0.000000
   21       10.220558   0.000000
   22       11.491878   0.000000
   23       11.504660   0.000000
   24       11.713237   0.000000
 
  0.4545455E+00 -0.3081488E-32  0.3333333E+00  0.7575758E-02
    1      -26.004828   1.000000
    2      -25.935001   1.000000
    3      -25.892919   1.000000
    4      -25.833982   1.000000
    5       -9.597929   1.000000
    6       -9.561493   1.000000
    7       -9.193333   1.000000
    8       -9.165395   1.000000
    9       -6.563112   1.000000
   10       -6.482046   1.000000
   11       -6.437248   1.000000
   12       -6.394544   1.000000
   13       -5.801472   1.000000
   14       -5.680767   1.000000
   15       -5.395980   1.000000
   16       -5.358133   1.000000
   17        6.178716   0.000000
   18        7.100322   0.000000
   19        7.124691   0.000000
   20        7.808501   0.000000
   21       10.476426   0.000000
   22       10.867853   0.000000
   23       11.503367   0.000000
   24       11.574421   0.000000
 
  0.3081488E-32  0.1250000E+00  0.3333333E+00  0.7575758E-02
    1      -26.398121   1.000000
    2      -26.294478   1.000000
    3      -25.686921   1.000000
    4      -25.651710   1.000000
    5      -10.686599   1.000000
    6      -10.638973   1.000000
    7       -8.128801   1.000000
    8       -8.106922   1.000000
    9       -6.526997   1.000000
   10       -5.807741   1.000000
   11       -5.742027   1.000000
   12       -5.699751   1.000000
   13       -5.508771   1.000000
   14       -5.346722   1.000000
   15       -5.020487   1.000000
   16       -4.994209   1.000000
   17        2.987320   0.000000
   18        4.425170   0.000000
   19        7.881967   0.000000
   20        8.471537   0.000000
   21        9.762249   0.000000
   22       10.303447   0.000000
   23       10.785437   0.000000
   24       11.802281   0.000000
 
  0.9090909E-01  0.1250000E+00  0.3333333E+00  0.1515152E-01
    1      -26.376674   1.000000
    2      -26.274858   1.000000
    3      -25.692972   1.000000
    4      -25.657394   1.000000
    5      -10.638227   1.000000
    6      -10.590177   1.000000
    7       -8.183242   1.000000
    8       -8.160673   1.000000
    9       -6.497551   1.000000
   10       -5.880371   1.000000
   11       -5.769878   1.000000
   12       -5.738028   1.000000
   13       -5.503934   1.000000
   14       -5.343869   1.000000
   15       -5.114980   1.000000
   16       -5.092032   1.000000
   17        3.172906   0.000000
   18        4.586399   0.000000
   19        7.961801   0.000000
   20        8.507983   0.000000
   21        9.793633   0.000000
   22       10.369411   0.000000
   23       10.830465   0.000000
   24       11.810263   0.000000
 
  0.1818182E+00  0.1250000E+00  0.3333333E+00  0.1515152E-01
    1      -26.315522   1.000000
    2      -26.218657   1.000000
    3      -25.713239   1.000000
    4      -25.675391   1.000000
    5      -10.496596   1.000000
    6      -10.447502   1.000000
    7       -8.343572   1.000000
    8       -8.317758   1.000000
    9       -6.416265   1.000000
   10       -6.061194   1.000000
   11       -5.943521   1.000000
   12       -5.755241   1.000000
   13       -5.503910   1.000000
   14       -5.352830   1.000000
   15       -5.339988   1.000000
   16       -5.315390   1.000000
   17        3.684657   0.000000
   18        5.030298   0.000000
   19        8.136573   0.000000
   20        8.533708   0.000000
   21        9.883513   0.000000
   22       10.576196   0.000000
   23       10.959090   0.000000
   24       11.806808   0.000000
 
  0.2727273E+00  0.1250000E+00  0.3333333E+00  0.1515152E-01
    1      -26.223371   1.000000
    2      -26.133932   1.000000
    3      -25.751671   1.000000
    4      -25.709318   1.000000
    5      -10.272050   1.000000
    6      -10.221383   1.000000
    7       -8.597709   1.000000
    8       -8.564627   1.000000
    9       -6.309886   1.000000
   10       -6.271336   1.000000
   11       -6.146635   1.000000
   12       -5.913732   1.000000
   13       -5.634861   1.000000
   14       -5.527527   1.000000
   15       -5.446845   1.000000
   16       -5.338727   1.000000
   17        4.424893   0.000000
   18        5.666654   0.000000
   19        8.209017   0.000000
   20        8.416811   0.000000
   21       10.020120   0.000000
   22       10.834418   0.000000
   23       11.152442   0.000000
   24       11.728310   0.000000
 
  0.3636364E+00  0.1250000E+00  0.3333333E+00  0.1515152E-01
    1      -26.113405   1.000000
    2      -26.033402   1.000000
    3      -25.812389   1.000000
    4      -25.762811   1.000000
    5       -9.980560   1.000000
    6       -9.928412   1.000000
    7       -8.920813   1.000000
    8       -8.878705   1.000000
    9       -6.429614   1.000000
   10       -6.304238   1.000000
   11       -6.255934   1.000000
   12       -6.179238   1.000000
   13       -5.816436   1.000000
   14       -5.586921   1.000000
   15       -5.435859   1.000000
   16       -5.343470   1.000000
   17        5.297207   0.000000
   18        6.401625   0.000000
   19        7.830506   0.000000
   20        8.227508   0.000000
   21       10.189943   0.000000
   22       10.903676   0.000000
   23       11.208957   0.000000
   24       11.547338   0.000000
 
  0.4545455E+00  0.1250000E+00  0.3333333E+00  0.1515152E-01
    1      -25.999785   1.000000
    2      -25.930531   1.000000
    3      -25.896410   1.000000
    4      -25.837525   1.000000
    5       -9.642083   1.000000
    6       -9.589937   1.000000
    7       -9.279723   1.000000
    8       -9.230751   1.000000
    9       -6.477238   1.000000
   10       -6.390030   1.000000
   11       -6.364863   1.000000
   12       -6.320550   1.000000
   13       -5.788606   1.000000
   14       -5.681653   1.000000
   15       -5.394730   1.000000
   16       -5.361078   1.000000
   17        6.219897   0.000000
   18        7.104648   0.000000
   19        7.149803   0.000000
   20        7.804424   0.000000
   21       10.397832   0.000000
   22       10.675318   0.000000
   23       11.184030   0.000000
   24       11.331059   0.000000
 
  0.3081488E-32  0.2500000E+00  0.3333333E+00  0.7575758E-02
    1      -26.321305   1.000000
    2      -26.222898   1.000000
    3      -25.779065   1.000000
    4      -25.729687   1.000000
    5      -10.429856   1.000000
    6      -10.379269   1.000000
    7       -8.494625   1.000000
    8       -8.460339   1.000000
    9       -6.417377   1.000000
   10       -5.722307   1.000000
   11       -5.676771   1.000000
   12       -5.664456   1.000000
   13       -5.620148   1.000000
   14       -5.356556   1.000000
   15       -5.122993   1.000000
   16       -5.077796   1.000000
   17        3.552282   0.000000
   18        4.964912   0.000000
   19        7.274532   0.000000
   20        8.143589   0.000000
   21        9.859823   0.000000
   22       10.269224   0.000000
   23       10.657822   0.000000
   24       11.819268   0.000000
 
  0.9090909E-01  0.2500000E+00  0.3333333E+00  0.1515152E-01
    1      -26.302497   1.000000
    2      -26.205677   1.000000
    3      -25.781153   1.000000
    4      -25.732176   1.000000
    5      -10.397318   1.000000
    6      -10.345314   1.000000
    7       -8.545752   1.000000
    8       -8.508433   1.000000
    9       -6.390047   1.000000
   10       -5.793164   1.000000
   11       -5.692203   1.000000
   12       -5.672750   1.000000
   13       -5.639190   1.000000
   14       -5.351956   1.000000
   15       -5.193684   1.000000
   16       -5.150052   1.000000
   17        3.709096   0.000000
   18        5.096569   0.000000
   19        7.365873   0.000000
   20        8.198706   0.000000
   21        9.880875   0.000000
   22       10.278534   0.000000
   23       10.630064   0.000000
   24       11.793081   0.000000
 
  0.1818182E+00  0.2500000E+00  0.3333333E+00  0.1515152E-01
    1      -26.249221   1.000000
    2      -26.157144   1.000000
    3      -25.789497   1.000000
    4      -25.740531   1.000000
    5      -10.302925   1.000000
    6      -10.246549   1.000000
    7       -8.693241   1.000000
    8       -8.647150   1.000000
    9       -6.314476   1.000000
   10       -5.951429   1.000000
   11       -5.843888   1.000000
   12       -5.683039   1.000000
   13       -5.622525   1.000000
   14       -5.373211   1.000000
   15       -5.346841   1.000000
   16       -5.316978   1.000000
   17        4.145923   0.000000
   18        5.461506   0.000000
   19        7.585796   0.000000
   20        8.299763   0.000000
   21        9.938175   0.000000
   22       10.318927   0.000000
   23       10.533033   0.000000
   24       11.687497   0.000000
 
  0.2727273E+00  0.2500000E+00  0.3333333E+00  0.1515152E-01
    1      -26.170074   1.000000
    2      -26.084872   1.000000
    3      -25.809418   1.000000
    4      -25.759548   1.000000
    5      -10.154447   1.000000
    6      -10.091201   1.000000
    7       -8.918028   1.000000
    8       -8.859455   1.000000
    9       -6.212949   1.000000
   10       -6.127331   1.000000
   11       -6.019711   1.000000
   12       -5.797623   1.000000
   13       -5.613528   1.000000
   14       -5.589900   1.000000
   15       -5.423212   1.000000
   16       -5.347826   1.000000
   17        4.785455   0.000000
   18        5.988182   0.000000
   19        7.769285   0.000000
   20        8.303510   0.000000
   21       10.017021   0.000000
   22       10.360734   0.000000
   23       10.419348   0.000000
   24       11.455989   0.000000
 
  0.3636364E+00  0.2500000E+00  0.3333333E+00  0.1515152E-01
    1      -26.077839   1.000000
    2      -26.001226   1.000000
    3      -25.847207   1.000000
    4      -25.793987   1.000000
    5       -9.960921   1.000000
    6       -9.889965   1.000000
    7       -9.187958   1.000000
    8       -9.117661   1.000000
    9       -6.250022   1.000000
   10       -6.149942   1.000000
   11       -6.140822   1.000000
   12       -6.004289   1.000000
   13       -5.748135   1.000000
   14       -5.631052   1.000000
   15       -5.419349   1.000000
   16       -5.354783   1.000000
   17        5.545002   0.000000
   18        6.601130   0.000000
   19        7.638638   0.000000
   20        8.139747   0.000000
   21       10.103438   0.000000
   22       10.246268   0.000000
   23       10.503708   0.000000
   24       11.119480   0.000000
 
  0.4545455E+00  0.2500000E+00  0.3333333E+00  0.1515152E-01
    1      -25.986109   1.000000
    2      -25.918546   1.000000
    3      -25.906718   1.000000
    4      -25.847382   1.000000
    5       -9.729568   1.000000
    6       -9.653076   1.000000
    7       -9.467335   1.000000
    8       -9.390630   1.000000
    9       -6.273361   1.000000
   10       -6.194301   1.000000
   11       -6.190419   1.000000
   12       -6.155687   1.000000
   13       -5.753685   1.000000
   14       -5.684667   1.000000
   15       -5.390912   1.000000
   16       -5.368123   1.000000
   17        6.347163   0.000000
   18        7.097333   0.000000
   19        7.229557   0.000000
   20        7.780898   0.000000
   21       10.189039   0.000000
   22       10.236473   0.000000
   23       10.567169   0.000000
   24       10.780020   0.000000
 
  0.3081488E-32  0.3750000E+00  0.3333333E+00  0.7575758E-02
    1      -26.203516   1.000000
    2      -26.113463   1.000000
    3      -25.910868   1.000000
    4      -25.846486   1.000000
    5      -10.031228   1.000000
    6       -9.978465   1.000000
    7       -8.994519   1.000000
    8       -8.949457   1.000000
    9       -6.255826   1.000000
   10       -5.856340   1.000000
   11       -5.591716   1.000000
   12       -5.588254   1.000000
   13       -5.499103   1.000000
   14       -5.410532   1.000000
   15       -5.268481   1.000000
   16       -5.204954   1.000000
   17        4.382285   0.000000
   18        5.743125   0.000000
   19        6.374471   0.000000
   20        7.479551   0.000000
   21       10.001329   0.000000
   22       10.213759   0.000000
   23       10.981934   0.000000
   24       11.730278   0.000000
 
  0.9090909E-01  0.3750000E+00  0.3333333E+00  0.1515152E-01
    1      -26.188902   1.000000
    2      -26.100233   1.000000
    3      -25.907381   1.000000
    4      -25.843858   1.000000
    5      -10.021530   1.000000
    6       -9.966236   1.000000
    7       -9.032074   1.000000
    8       -8.983233   1.000000
    9       -6.232741   1.000000
   10       -5.851374   1.000000
   11       -5.636835   1.000000
   12       -5.587694   1.000000
   13       -5.560257   1.000000
   14       -5.396228   1.000000
   15       -5.319815   1.000000
   16       -5.254247   1.000000
   17        4.509557   0.000000
   18        5.843648   0.000000
   19        6.470929   0.000000
   20        7.546401   0.000000
   21       10.005840   0.000000
   22       10.193085   0.000000
   23       10.905473   0.000000
   24       11.658440   0.000000
 
  0.1818182E+00  0.3750000E+00  0.3333333E+00  0.1515152E-01
    1      -26.148103   1.000000
    2      -26.063706   1.000000
    3      -25.899983   1.000000
    4      -25.838176   1.000000
    5       -9.993910   1.000000
    6       -9.931072   1.000000
    7       -9.139577   1.000000
    8       -9.080228   1.000000
    9       -6.169918   1.000000
   10       -5.868210   1.000000
   11       -5.732775   1.000000
   12       -5.679415   1.000000
   13       -5.609356   1.000000
   14       -5.449211   1.000000
   15       -5.380596   1.000000
   16       -5.358482   1.000000
   17        4.863231   0.000000
   18        6.118949   0.000000
   19        6.721065   0.000000
   20        7.706203   0.000000
   21       10.011812   0.000000
   22       10.133221   0.000000
   23       10.675494   0.000000
   24       11.428457   0.000000
 
  0.2727273E+00  0.3750000E+00  0.3333333E+00  0.1515152E-01
    1      -26.089431   1.000000
    2      -26.011072   1.000000
    3      -25.894473   1.000000
    4      -25.834808   1.000000
    5       -9.949415   1.000000
    6       -9.875281   1.000000
    7       -9.299397   1.000000
    8       -9.225678   1.000000
    9       -6.088365   1.000000
   10       -5.964914   1.000000
   11       -5.865061   1.000000
   12       -5.716687   1.000000
   13       -5.703849   1.000000
   14       -5.600101   1.000000
   15       -5.407826   1.000000
   16       -5.371798   1.000000
   17        5.376534   0.000000
   18        6.508617   0.000000
   19        7.014956   0.000000
   20        7.854807   0.000000
   21       10.006660   0.000000
   22       10.045872   0.000000
   23       10.342841   0.000000
   24       11.047957   0.000000
 
  0.3636364E+00  0.3750000E+00  0.3333333E+00  0.1515152E-01
    1      -26.024781   1.000000
    2      -25.953297   1.000000
    3      -25.899908   1.000000
    4      -25.841097   1.000000
    5       -9.883868   1.000000
    6       -9.798179   1.000000
    7       -9.481284   1.000000
    8       -9.394400   1.000000
    9       -6.053400   1.000000
   10       -6.031491   1.000000
   11       -5.976335   1.000000
   12       -5.868990   1.000000
   13       -5.704070   1.000000
   14       -5.686339   1.000000
   15       -5.400231   1.000000
   16       -5.370362   1.000000
   17        5.971148   0.000000
   18        6.946795   0.000000
   19        7.175266   0.000000
   20        7.872739   0.000000
   21        9.905973   0.000000
   22        9.984777   0.000000
   23       10.123734   0.000000
   24       10.605088   0.000000
 
  0.4545455E+00  0.3750000E+00  0.3333333E+00  0.1515152E-01
    1      -25.965895   1.000000
    2      -25.922990   1.000000
    3      -25.901263   1.000000
    4      -25.862741   1.000000
    5       -9.787423   1.000000
    6       -9.693932   1.000000
    7       -9.651576   1.000000
    8       -9.557417   1.000000
    9       -6.075082   1.000000
   10       -6.042212   1.000000
   11       -6.020398   1.000000
   12       -5.985352   1.000000
   13       -5.714619   1.000000
   14       -5.689658   1.000000
   15       -5.384873   1.000000
   16       -5.374912   1.000000
   17        6.559723   0.000000
   18        7.016763   0.000000
   19        7.370550   0.000000
   20        7.704073   0.000000
   21        9.838891   0.000000
   22        9.931665   0.000000
   23       10.112755   0.000000
   24       10.247507   0.000000
 
  0.3081488E-32  0.5000000E+00  0.3333333E+00  0.3787879E-02
    1      -26.060012   1.000000
    2      -26.060012   1.000000
    3      -25.981655   1.000000
    4      -25.981655   1.000000
    5       -9.532836   1.000000
    6       -9.532836   1.000000
    7       -9.481579   1.000000
    8       -9.481579   1.000000
    9       -6.061466   1.000000
   10       -6.061466   1.000000
   11       -5.493666   1.000000
   12       -5.493666   1.000000
   13       -5.433026   1.000000
   14       -5.433026   1.000000
   15       -5.353444   1.000000
   16       -5.353444   1.000000
   17        5.362688   0.000000
   18        5.362688   0.000000
   19        6.626880   0.000000
   20        6.626880   0.000000
   21       10.136943   0.000000
   22       10.136943   0.000000
   23       11.428114   0.000000
   24       11.428114   0.000000
 
  0.9090909E-01  0.5000000E+00  0.3333333E+00  0.7575758E-02
    1      -26.050845   1.000000
    2      -26.050845   1.000000
    3      -25.973446   1.000000
    4      -25.973446   1.000000
    5       -9.548462   1.000000
    6       -9.548462   1.000000
    7       -9.493632   1.000000
    8       -9.493632   1.000000
    9       -6.045044   1.000000
   10       -6.045044   1.000000
   11       -5.509837   1.000000
   12       -5.509837   1.000000
   13       -5.475689   1.000000
   14       -5.475689   1.000000
   15       -5.381538   1.000000
   16       -5.381538   1.000000
   17        5.469137   0.000000
   18        5.469137   0.000000
   19        6.705176   0.000000
   20        6.705176   0.000000
   21       10.122666   0.000000
   22       10.122666   0.000000
   23       11.331320   0.000000
   24       11.331320   0.000000
 
  0.1818182E+00  0.5000000E+00  0.3333333E+00  0.7575758E-02
    1      -26.025857   1.000000
    2      -26.025857   1.000000
    3      -25.951859   1.000000
    4      -25.951859   1.000000
    5       -9.593223   1.000000
    6       -9.593223   1.000000
    7       -9.528587   1.000000
    8       -9.528587   1.000000
    9       -6.003951   1.000000
   10       -6.003951   1.000000
   11       -5.600264   1.000000
   12       -5.600264   1.000000
   13       -5.576058   1.000000
   14       -5.576058   1.000000
   15       -5.405069   1.000000
   16       -5.405069   1.000000
   17        5.758361   0.000000
   18        5.758361   0.000000
   19        6.910788   0.000000
   20        6.910788   0.000000
   21       10.075011   0.000000
   22       10.075011   0.000000
   23       11.045407   0.000000
   24       11.045407   0.000000
 
  0.2727273E+00  0.5000000E+00  0.3333333E+00  0.7575758E-02
    1      -25.992760   1.000000
    2      -25.992760   1.000000
    3      -25.923254   1.000000
    4      -25.923254   1.000000
    5       -9.658270   1.000000
    6       -9.658270   1.000000
    7       -9.579795   1.000000
    8       -9.579795   1.000000
    9       -5.966887   1.000000
   10       -5.966887   1.000000
   11       -5.736316   1.000000
   12       -5.736316   1.000000
   13       -5.678565   1.000000
   14       -5.678565   1.000000
   15       -5.397007   1.000000
   16       -5.397007   1.000000
   17        6.153986   0.000000
   18        6.153986   0.000000
   19        7.173921   0.000000
   20        7.173921   0.000000
   21        9.993505   0.000000
   22        9.993505   0.000000
   23       10.621916   0.000000
   24       10.621916   0.000000
 
  0.3636364E+00  0.5000000E+00  0.3333333E+00  0.7575758E-02
    1      -25.962233   1.000000
    2      -25.962233   1.000000
    3      -25.897062   1.000000
    4      -25.897062   1.000000
    5       -9.724185   1.000000
    6       -9.724185   1.000000
    7       -9.632507   1.000000
    8       -9.632507   1.000000
    9       -5.973380   1.000000
   10       -5.973380   1.000000
   11       -5.856765   1.000000
   12       -5.856765   1.000000
   13       -5.709689   1.000000
   14       -5.709689   1.000000
   15       -5.385284   1.000000
   16       -5.385284   1.000000
   17        6.551209   0.000000
   18        6.551209   0.000000
   19        7.411592   0.000000
   20        7.411592   0.000000
   21        9.886394   0.000000
   22        9.886394   0.000000
   23       10.202266   0.000000
   24       10.202266   0.000000
 
  0.4545455E+00  0.5000000E+00  0.3333333E+00  0.7575758E-02
    1      -25.943664   1.000000
    2      -25.943664   1.000000
    3      -25.881395   1.000000
    4      -25.881395   1.000000
    5       -9.766129   1.000000
    6       -9.766129   1.000000
    7       -9.666394   1.000000
    8       -9.666394   1.000000
    9       -5.997305   1.000000
   10       -5.997305   1.000000
   11       -5.925512   1.000000
   12       -5.925512   1.000000
   13       -5.696423   1.000000
   14       -5.696423   1.000000
   15       -5.379324   1.000000
   16       -5.379324   1.000000
   17        6.816714   0.000000
   18        6.816714   0.000000
   19        7.551190   0.000000
   20        7.551190   0.000000
   21        9.746638   0.000000
   22        9.746638   0.000000
   23        9.997127   0.000000
   24        9.997127   0.000000
 
  0.0000000E+00  0.6162976E-32  0.5000000E+00  0.1893939E-02
    1      -26.372393   1.000000
    2      -26.372393   1.000000
    3      -25.639014   1.000000
    4      -25.639014   1.000000
    5      -10.755242   1.000000
    6      -10.755242   1.000000
    7       -7.983885   1.000000
    8       -7.983885   1.000000
    9       -6.185415   1.000000
   10       -6.185415   1.000000
   11       -5.782782   1.000000
   12       -5.782782   1.000000
   13       -5.389809   1.000000
   14       -5.389809   1.000000
   15       -4.974230   1.000000
   16       -4.974230   1.000000
   17        3.486703   0.000000
   18        3.486703   0.000000
   19        8.294625   0.000000
   20        8.294625   0.000000
   21       10.592173   0.000000
   22       10.592173   0.000000
   23       10.704124   0.000000
   24       10.704124   0.000000
 
  0.9090909E-01  0.6162976E-32  0.5000000E+00  0.3787879E-02
    1      -26.350981   1.000000
    2      -26.350981   1.000000
    3      -25.646102   1.000000
    4      -25.646102   1.000000
    5      -10.701136   1.000000
    6      -10.701136   1.000000
    7       -8.038142   1.000000
    8       -8.038142   1.000000
    9       -6.168235   1.000000
   10       -6.168235   1.000000
   11       -5.857638   1.000000
   12       -5.857638   1.000000
   13       -5.386978   1.000000
   14       -5.386978   1.000000
   15       -5.080636   1.000000
   16       -5.080636   1.000000
   17        3.669655   0.000000
   18        3.669655   0.000000
   19        8.354319   0.000000
   20        8.354319   0.000000
   21       10.685540   0.000000
   22       10.685540   0.000000
   23       10.731914   0.000000
   24       10.731914   0.000000
 
  0.1818182E+00  0.6162976E-32  0.5000000E+00  0.3787879E-02
    1      -26.289686   1.000000
    2      -26.289686   1.000000
    3      -25.669268   1.000000
    4      -25.669268   1.000000
    5      -10.542430   1.000000
    6      -10.542430   1.000000
    7       -8.198632   1.000000
    8       -8.198632   1.000000
    9       -6.130695   1.000000
   10       -6.130695   1.000000
   11       -6.045209   1.000000
   12       -6.045209   1.000000
   13       -5.387581   1.000000
   14       -5.387581   1.000000
   15       -5.340295   1.000000
   16       -5.340295   1.000000
   17        4.172661   0.000000
   18        4.172661   0.000000
   19        8.453418   0.000000
   20        8.453418   0.000000
   21       10.802729   0.000000
   22       10.802729   0.000000
   23       10.990607   0.000000
   24       10.990607   0.000000
 
  0.2727273E+00  0.1848893E-31  0.5000000E+00  0.3787879E-02
    1      -26.196791   1.000000
    2      -26.196791   1.000000
    3      -25.711662   1.000000
    4      -25.711662   1.000000
    5      -10.290019   1.000000
    6      -10.290019   1.000000
    7       -8.456535   1.000000
    8       -8.456535   1.000000
    9       -6.266913   1.000000
   10       -6.266913   1.000000
   11       -6.138241   1.000000
   12       -6.138241   1.000000
   13       -5.590515   1.000000
   14       -5.590515   1.000000
   15       -5.403208   1.000000
   16       -5.403208   1.000000
   17        4.896323   0.000000
   18        4.896323   0.000000
   19        8.414078   0.000000
   20        8.414078   0.000000
   21       10.883891   0.000000
   22       10.883891   0.000000
   23       11.488091   0.000000
   24       11.488091   0.000000
 
  0.3636364E+00  0.4314083E-31  0.5000000E+00  0.3787879E-02
    1      -26.085513   1.000000
    2      -26.085513   1.000000
    3      -25.776311   1.000000
    4      -25.776311   1.000000
    5       -9.961432   1.000000
    6       -9.961432   1.000000
    7       -8.793607   1.000000
    8       -8.793607   1.000000
    9       -6.442106   1.000000
   10       -6.442106   1.000000
   11       -6.284777   1.000000
   12       -6.284777   1.000000
   13       -5.649692   1.000000
   14       -5.649692   1.000000
   15       -5.441395   1.000000
   16       -5.441395   1.000000
   17        5.742031   0.000000
   18        5.742031   0.000000
   19        8.089666   0.000000
   20        8.089666   0.000000
   21       10.945917   0.000000
   22       10.945917   0.000000
   23       11.504285   0.000000
   24       11.504285   0.000000
 
  0.4545455E+00  0.6162976E-32  0.5000000E+00  0.3787879E-02
    1      -25.969862   1.000000
    2      -25.969862   1.000000
    3      -25.863590   1.000000
    4      -25.863590   1.000000
    5       -9.581369   1.000000
    6       -9.581369   1.000000
    7       -9.180346   1.000000
    8       -9.180346   1.000000
    9       -6.511531   1.000000
   10       -6.511531   1.000000
   11       -6.450604   1.000000
   12       -6.450604   1.000000
   13       -5.585671   1.000000
   14       -5.585671   1.000000
   15       -5.504877   1.000000
   16       -5.504877   1.000000
   17        6.627138   0.000000
   18        6.627138   0.000000
   19        7.455460   0.000000
   20        7.455460   0.000000
   21       11.010037   0.000000
   22       11.010037   0.000000
   23       11.167409   0.000000
   24       11.167409   0.000000
 
  0.0000000E+00  0.1250000E+00  0.5000000E+00  0.3787879E-02
    1      -26.346524   1.000000
    2      -26.346524   1.000000
    3      -25.669326   1.000000
    4      -25.669326   1.000000
    5      -10.666186   1.000000
    6      -10.666186   1.000000
    7       -8.118532   1.000000
    8       -8.118532   1.000000
    9       -6.150620   1.000000
   10       -6.150620   1.000000
   11       -5.754078   1.000000
   12       -5.754078   1.000000
   13       -5.419501   1.000000
   14       -5.419501   1.000000
   15       -5.007332   1.000000
   16       -5.007332   1.000000
   17        3.681694   0.000000
   18        3.681694   0.000000
   19        8.156402   0.000000
   20        8.156402   0.000000
   21       10.496416   0.000000
   22       10.496416   0.000000
   23       10.732599   0.000000
   24       10.732599   0.000000
 
  0.9090909E-01  0.1250000E+00  0.5000000E+00  0.7575758E-02
    1      -26.326042   1.000000
    2      -26.326042   1.000000
    3      -25.675111   1.000000
    4      -25.675111   1.000000
    5      -10.617525   1.000000
    6      -10.617525   1.000000
    7       -8.172624   1.000000
    8       -8.172624   1.000000
    9       -6.133358   1.000000
   10       -6.133358   1.000000
   11       -5.826642   1.000000
   12       -5.826642   1.000000
   13       -5.414673   1.000000
   14       -5.414673   1.000000
   15       -5.102341   1.000000
   16       -5.102341   1.000000
   17        3.852837   0.000000
   18        3.852837   0.000000
   19        8.224774   0.000000
   20        8.224774   0.000000
   21       10.546940   0.000000
   22       10.546940   0.000000
   23       10.753771   0.000000
   24       10.753771   0.000000
 
  0.1818182E+00  0.1250000E+00  0.5000000E+00  0.7575758E-02
    1      -26.267344   1.000000
    2      -26.267344   1.000000
    3      -25.694443   1.000000
    4      -25.694443   1.000000
    5      -10.475238   1.000000
    6      -10.475238   1.000000
    7       -8.331434   1.000000
    8       -8.331434   1.000000
    9       -6.093985   1.000000
   10       -6.093985   1.000000
   11       -6.006317   1.000000
   12       -6.006317   1.000000
   13       -5.410921   1.000000
   14       -5.410921   1.000000
   15       -5.336277   1.000000
   16       -5.336277   1.000000
   17        4.325427   0.000000
   18        4.325427   0.000000
   19        8.353361   0.000000
   20        8.353361   0.000000
   21       10.703030   0.000000
   22       10.703030   0.000000
   23       10.803534   0.000000
   24       10.803534   0.000000
 
  0.2727273E+00  0.1250000E+00  0.5000000E+00  0.7575758E-02
    1      -26.178980   1.000000
    2      -26.178980   1.000000
    3      -25.730628   1.000000
    4      -25.730628   1.000000
    5      -10.249452   1.000000
    6      -10.249452   1.000000
    7       -8.582012   1.000000
    8       -8.582012   1.000000
    9       -6.215337   1.000000
   10       -6.215337   1.000000
   11       -6.089033   1.000000
   12       -6.089033   1.000000
   13       -5.569493   1.000000
   14       -5.569493   1.000000
   15       -5.420610   1.000000
   16       -5.420610   1.000000
   17        5.009757   0.000000
   18        5.009757   0.000000
   19        8.356731   0.000000
   20        8.356731   0.000000
   21       10.848000   0.000000
   22       10.848000   0.000000
   23       10.912890   0.000000
   24       10.912890   0.000000
 
  0.3636364E+00  0.1250000E+00  0.5000000E+00  0.7575758E-02
    1      -26.073594   1.000000
    2      -26.073594   1.000000
    3      -25.787648   1.000000
    4      -25.787648   1.000000
    5       -9.956792   1.000000
    6       -9.956792   1.000000
    7       -8.900803   1.000000
    8       -8.900803   1.000000
    9       -6.375629   1.000000
   10       -6.375629   1.000000
   11       -6.210797   1.000000
   12       -6.210797   1.000000
   13       -5.634803   1.000000
   14       -5.634803   1.000000
   15       -5.451520   1.000000
   16       -5.451520   1.000000
   17        5.814857   0.000000
   18        5.814857   0.000000
   19        8.065331   0.000000
   20        8.065331   0.000000
   21       10.858744   0.000000
   22       10.858744   0.000000
   23       10.970019   0.000000
   24       10.970019   0.000000
 
  0.4545455E+00  0.1250000E+00  0.5000000E+00  0.7575758E-02
    1      -25.965506   1.000000
    2      -25.965506   1.000000
    3      -25.867095   1.000000
    4      -25.867095   1.000000
    5       -9.617830   1.000000
    6       -9.617830   1.000000
    7       -9.256674   1.000000
    8       -9.256674   1.000000
    9       -6.432037   1.000000
   10       -6.432037   1.000000
   11       -6.366269   1.000000
   12       -6.366269   1.000000
   13       -5.579469   1.000000
   14       -5.579469   1.000000
   15       -5.506941   1.000000
   16       -5.506941   1.000000
   17        6.661675   0.000000
   18        6.661675   0.000000
   19        7.457973   0.000000
   20        7.457973   0.000000
   21       10.852532   0.000000
   22       10.852532   0.000000
   23       10.888419   0.000000
   24       10.888419   0.000000
 
  0.0000000E+00  0.2500000E+00  0.5000000E+00  0.3787879E-02
    1      -26.272196   1.000000
    2      -26.272196   1.000000
    3      -25.754504   1.000000
    4      -25.754504   1.000000
    5      -10.408145   1.000000
    6      -10.408145   1.000000
    7       -8.480008   1.000000
    8       -8.480008   1.000000
    9       -6.057565   1.000000
   10       -6.057565   1.000000
   11       -5.671525   1.000000
   12       -5.671525   1.000000
   13       -5.503796   1.000000
   14       -5.503796   1.000000
   15       -5.100418   1.000000
   16       -5.100418   1.000000
   17        4.225810   0.000000
   18        4.225810   0.000000
   19        7.674149   0.000000
   20        7.674149   0.000000
   21       10.457349   0.000000
   22       10.457349   0.000000
   23       10.800431   0.000000
   24       10.800431   0.000000
 
  0.9090909E-01  0.2500000E+00  0.5000000E+00  0.7575758E-02
    1      -26.254365   1.000000
    2      -26.254365   1.000000
    3      -25.756573   1.000000
    4      -25.756573   1.000000
    5      -10.374826   1.000000
    6      -10.374826   1.000000
    7       -8.529539   1.000000
    8       -8.529539   1.000000
    9       -6.041311   1.000000
   10       -6.041311   1.000000
   11       -5.740464   1.000000
   12       -5.740464   1.000000
   13       -5.491468   1.000000
   14       -5.491468   1.000000
   15       -5.171297   1.000000
   16       -5.171297   1.000000
   17        4.368955   0.000000
   18        4.368955   0.000000
   19        7.755470   0.000000
   20        7.755470   0.000000
   21       10.441024   0.000000
   22       10.441025   0.000000
   23       10.801865   0.000000
   24       10.801865   0.000000
 
  0.1818182E+00  0.2500000E+00  0.5000000E+00  0.7575758E-02
    1      -26.203396   1.000000
    2      -26.203396   1.000000
    3      -25.765087   1.000000
    4      -25.765087   1.000000
    5      -10.277983   1.000000
    6      -10.277983   1.000000
    7       -8.672492   1.000000
    8       -8.672492   1.000000
    9       -6.002517   1.000000
   10       -6.002517   1.000000
   11       -5.901112   1.000000
   12       -5.901112   1.000000
   13       -5.475197   1.000000
   14       -5.475197   1.000000
   15       -5.347807   1.000000
   16       -5.347807   1.000000
   17        4.767573   0.000000
   18        4.767573   0.000000
   19        7.941836   0.000000
   20        7.941836   0.000000
   21       10.388049   0.000000
   22       10.388049   0.000000
   23       10.791035   0.000000
   24       10.791035   0.000000
 
  0.2727273E+00  0.2500000E+00  0.5000000E+00  0.7575758E-02
    1      -26.127829   1.000000
    2      -26.127829   1.000000
    3      -25.784601   1.000000
    4      -25.784601   1.000000
    5      -10.125682   1.000000
    6      -10.125682   1.000000
    7       -8.890872   1.000000
    8       -8.890872   1.000000
    9       -6.079930   1.000000
   10       -6.079930   1.000000
   11       -5.982976   1.000000
   12       -5.982976   1.000000
   13       -5.531924   1.000000
   14       -5.531924   1.000000
   15       -5.468701   1.000000
   16       -5.468701   1.000000
   17        5.350314   0.000000
   18        5.350314   0.000000
   19        8.068944   0.000000
   20        8.068944   0.000000
   21       10.307966   0.000000
   22       10.307966   0.000000
   23       10.735086   0.000000
   24       10.735086   0.000000
 
  0.3636364E+00  0.2500000E+00  0.5000000E+00  0.7575758E-02
    1      -26.039679   1.000000
    2      -26.039679   1.000000
    3      -25.820768   1.000000
    4      -25.820768   1.000000
    5       -9.928046   1.000000
    6       -9.928046   1.000000
    7       -9.154852   1.000000
    8       -9.154852   1.000000
    9       -6.208525   1.000000
   10       -6.208525   1.000000
   11       -6.058363   1.000000
   12       -6.058363   1.000000
   13       -5.597940   1.000000
   14       -5.597940   1.000000
   15       -5.479512   1.000000
   16       -5.479512   1.000000
   17        6.041657   0.000000
   18        6.041657   0.000000
   19        7.926064   0.000000
   20        7.926064   0.000000
   21       10.268590   0.000000
   22       10.268590   0.000000
   23       10.617459   0.000000
   24       10.617459   0.000000
 
  0.4545455E+00  0.2500000E+00  0.5000000E+00  0.7575758E-02
    1      -25.952499   1.000000
    2      -25.952499   1.000000
    3      -25.877186   1.000000
    4      -25.877186   1.000000
    5       -9.693631   1.000000
    6       -9.693631   1.000000
    7       -9.431050   1.000000
    8       -9.431050   1.000000
    9       -6.243797   1.000000
   10       -6.243797   1.000000
   11       -6.180418   1.000000
   12       -6.180418   1.000000
   13       -5.562636   1.000000
   14       -5.562636   1.000000
   15       -5.512576   1.000000
   16       -5.512576   1.000000
   17        6.770968   0.000000
   18        6.770968   0.000000
   19        7.447834   0.000000
   20        7.447834   0.000000
   21       10.331153   0.000000
   22       10.331153   0.000000
   23       10.465656   0.000000
   24       10.465656   0.000000
 
  0.0000000E+00  0.3750000E+00  0.5000000E+00  0.3787879E-02
    1      -26.158768   1.000000
    2      -26.158768   1.000000
    3      -25.878725   1.000000
    4      -25.878725   1.000000
    5      -10.008679   1.000000
    6      -10.008679   1.000000
    7       -8.975591   1.000000
    8       -8.975591   1.000000
    9       -5.926681   1.000000
   10       -5.926681   1.000000
   11       -5.629370   1.000000
   12       -5.629370   1.000000
   13       -5.545653   1.000000
   14       -5.545653   1.000000
   15       -5.236794   1.000000
   16       -5.236794   1.000000
   17        5.020484   0.000000
   18        5.020484   0.000000
   19        6.879605   0.000000
   20        6.879605   0.000000
   21       10.618745   0.000000
   22       10.618745   0.000000
   23       10.852005   0.000000
   24       10.852005   0.000000
 
  0.9090909E-01  0.3750000E+00  0.5000000E+00  0.7575758E-02
    1      -26.144748   1.000000
    2      -26.144748   1.000000
    3      -25.875637   1.000000
    4      -25.875637   1.000000
    5       -9.997629   1.000000
    6       -9.997629   1.000000
    7       -9.011172   1.000000
    8       -9.011172   1.000000
    9       -5.914036   1.000000
   10       -5.914036   1.000000
   11       -5.659653   1.000000
   12       -5.659653   1.000000
   13       -5.558767   1.000000
   14       -5.558767   1.000000
   15       -5.287279   1.000000
   16       -5.287279   1.000000
   17        5.134556   0.000000
   18        5.134556   0.000000
   19        6.965547   0.000000
   20        6.965547   0.000000
   21       10.565695   0.000000
   22       10.565695   0.000000
   23       10.824003   0.000000
   24       10.824003   0.000000
 
  0.1818182E+00  0.3750000E+00  0.5000000E+00  0.7575758E-02
    1      -26.106057   1.000000
    2      -26.106057   1.000000
    3      -25.868989   1.000000
    4      -25.868989   1.000000
    5       -9.965888   1.000000
    6       -9.965888   1.000000
    7       -9.113117   1.000000
    8       -9.113117   1.000000
    9       -5.885626   1.000000
   10       -5.885626   1.000000
   11       -5.774483   1.000000
   12       -5.774483   1.000000
   13       -5.551860   1.000000
   14       -5.551860   1.000000
   15       -5.410130   1.000000
   16       -5.410130   1.000000
   17        5.450692   0.000000
   18        5.450692   0.000000
   19        7.184607   0.000000
   20        7.184607   0.000000
   21       10.404692   0.000000
   22       10.404692   0.000000
   23       10.726867   0.000000
   24       10.726867   0.000000
 
  0.2727273E+00  0.3750000E+00  0.5000000E+00  0.7575758E-02
    1      -26.050458   1.000000
    2      -26.050458   1.000000
    3      -25.864727   1.000000
    4      -25.864727   1.000000
    5       -9.915427   1.000000
    6       -9.915427   1.000000
    7       -9.265511   1.000000
    8       -9.265511   1.000000
    9       -5.917414   1.000000
   10       -5.917414   1.000000
   11       -5.877806   1.000000
   12       -5.877806   1.000000
   13       -5.531032   1.000000
   14       -5.531032   1.000000
   15       -5.528810   1.000000
   16       -5.528810   1.000000
   17        5.907060   0.000000
   18        5.907060   0.000000
   19        7.428851   0.000000
   20        7.428851   0.000000
   21       10.159870   0.000000
   22       10.159870   0.000000
   23       10.543102   0.000000
   24       10.543102   0.000000
 
  0.3636364E+00  0.3750000E+00  0.5000000E+00  0.7575758E-02
    1      -25.989203   1.000000
    2      -25.989203   1.000000
    3      -25.870501   1.000000
    4      -25.870501   1.000000
    5       -9.843871   1.000000
    6       -9.843871   1.000000
    7       -9.440552   1.000000
    8       -9.440552   1.000000
    9       -6.022279   1.000000
   10       -6.022279   1.000000
   11       -5.936915   1.000000
   12       -5.936915   1.000000
   13       -5.563597   1.000000
   14       -5.563597   1.000000
   15       -5.516520   1.000000
   16       -5.516520   1.000000
   17        6.434161   0.000000
   18        6.434161   0.000000
   19        7.538720   0.000000
   20        7.538720   0.000000
   21        9.939118   0.000000
   22        9.939118   0.000000
   23       10.293999   0.000000
   24       10.293999   0.000000
 
  0.4545455E+00  0.3750000E+00  0.5000000E+00  0.7575758E-02
    1      -25.933776   1.000000
    2      -25.933776   1.000000
    3      -25.892925   1.000000
    4      -25.892925   1.000000
    5       -9.743319   1.000000
    6       -9.743319   1.000000
    7       -9.607080   1.000000
    8       -9.607080   1.000000
    9       -6.056135   1.000000
   10       -6.056135   1.000000
   11       -6.018405   1.000000
   12       -6.018405   1.000000
   13       -5.541803   1.000000
   14       -5.541803   1.000000
   15       -5.519739   1.000000
   16       -5.519739   1.000000
   17        6.957376   0.000000
   18        6.957376   0.000000
   19        7.371711   0.000000
   20        7.371711   0.000000
   21        9.895662   0.000000
   22        9.895662   0.000000
   23       10.046886   0.000000
   24       10.046886   0.000000
 
  0.0000000E+00  0.5000000E+00  0.5000000E+00  0.1893939E-02
    1      -26.020839   1.000000
    2      -26.020839   1.000000
    3      -26.020839   1.000000
    4      -26.020839   1.000000
    5       -9.511106   1.000000
    6       -9.511106   1.000000
    7       -9.511106   1.000000
    8       -9.511106   1.000000
    9       -5.777287   1.000000
   10       -5.777287   1.000000
   11       -5.777287   1.000000
   12       -5.777287   1.000000
   13       -5.393393   1.000000
   14       -5.393393   1.000000
   15       -5.393393   1.000000
   16       -5.393393   1.000000
   17        5.946139   0.000000
   18        5.946139   0.000000
   19        5.946139   0.000000
   20        5.946139   0.000000
   21       10.799742   0.000000
   22       10.799742   0.000000
   23       10.799742   0.000000
   24       10.799742   0.000000
 
  0.9090909E-01  0.5000000E+00  0.5000000E+00  0.3787879E-02
    1      -26.012298   1.000000
    2      -26.012298   1.000000
    3      -26.012298   1.000000
    4      -26.012298   1.000000
    5       -9.524856   1.000000
    6       -9.524856   1.000000
    7       -9.524856   1.000000
    8       -9.524856   1.000000
    9       -5.772225   1.000000
   10       -5.772225   1.000000
   11       -5.772225   1.000000
   12       -5.772225   1.000000
   13       -5.433376   1.000000
   14       -5.433376   1.000000
   15       -5.433376   1.000000
   16       -5.433376   1.000000
   17        6.040355   0.000000
   18        6.040355   0.000000
   19        6.040355   0.000000
   20        6.040355   0.000000
   21       10.745868   0.000000
   22       10.745868   0.000000
   23       10.745868   0.000000
   24       10.745868   0.000000
 
  0.1818182E+00  0.5000000E+00  0.5000000E+00  0.3787879E-02
    1      -25.988960   1.000000
    2      -25.988960   1.000000
    3      -25.988960   1.000000
    4      -25.988960   1.000000
    5       -9.564410   1.000000
    6       -9.564410   1.000000
    7       -9.564410   1.000000
    8       -9.564410   1.000000
    9       -5.774065   1.000000
   10       -5.774065   1.000000
   11       -5.774065   1.000000
   12       -5.774065   1.000000
   13       -5.517247   1.000000
   14       -5.517247   1.000000
   15       -5.517247   1.000000
   16       -5.517247   1.000000
   17        6.294418   0.000000
   18        6.294418   0.000000
   19        6.294418   0.000000
   20        6.294418   0.000000
   21       10.579491   0.000000
   22       10.579491   0.000000
   23       10.579491   0.000000
   24       10.579491   0.000000
 
  0.2727273E+00  0.5000000E+00  0.5000000E+00  0.3787879E-02
    1      -25.958163   1.000000
    2      -25.958163   1.000000
    3      -25.958163   1.000000
    4      -25.958163   1.000000
    5       -9.622183   1.000000
    6       -9.622183   1.000000
    7       -9.622183   1.000000
    8       -9.622183   1.000000
    9       -5.828926   1.000000
   10       -5.828926   1.000000
   11       -5.828926   1.000000
   12       -5.828926   1.000000
   13       -5.558002   1.000000
   14       -5.558002   1.000000
   15       -5.558002   1.000000
   16       -5.558002   1.000000
   17        6.635839   0.000000
   18        6.635839   0.000000
   19        6.635839   0.000000
   20        6.635839   0.000000
   21       10.312011   0.000000
   22       10.312011   0.000000
   23       10.312011   0.000000
   24       10.312011   0.000000
 
  0.3636364E+00  0.5000000E+00  0.5000000E+00  0.3787879E-02
    1      -25.929773   1.000000
    2      -25.929773   1.000000
    3      -25.929773   1.000000
    4      -25.929773   1.000000
    5       -9.681241   1.000000
    6       -9.681241   1.000000
    7       -9.681241   1.000000
    8       -9.681241   1.000000
    9       -5.914262   1.000000
   10       -5.914262   1.000000
   11       -5.914262   1.000000
   12       -5.914262   1.000000
   13       -5.544873   1.000000
   14       -5.544873   1.000000
   15       -5.544873   1.000000
   16       -5.544873   1.000000
   17        6.970459   0.000000
   18        6.970459   0.000000
   19        6.970459   0.000000
   20        6.970459   0.000000
   21       10.012339   0.000000
   22       10.012339   0.000000
   23       10.012339   0.000000
   24       10.012339   0.000000
 
  0.4545455E+00  0.5000000E+00  0.5000000E+00  0.3787879E-02
    1      -25.912774   1.000000
    2      -25.912774   1.000000
    3      -25.912774   1.000000
    4      -25.912774   1.000000
    5       -9.719028   1.000000
    6       -9.719028   1.000000
    7       -9.719028   1.000000
    8       -9.719028   1.000000
    9       -5.967868   1.000000
   10       -5.967868   1.000000
   11       -5.967868   1.000000
   12       -5.967868   1.000000
   13       -5.527443   1.000000
   14       -5.527443   1.000000
   15       -5.527443   1.000000
   16       -5.527443   1.000000
   17        7.188071   0.000000
   18        7.188071   0.000000
   19        7.188071   0.000000
   20        7.188071   0.000000
   21        9.804013   0.000000
   22        9.804013   0.000000
   23        9.804013   0.000000
   24        9.804013   0.000000
