H4 F4                                   
   1.00000000000000     
     3.0231018751739431   -0.0000000000000000    0.0000000000000002
     0.0000000000000007    4.4771666687919573    0.0000000000000003
    -0.0000000000000000   -0.0000000000000000    5.4612972586860158
   H    F 
     4     4
Direct
  0.5000000000000000  0.0655686317755608  0.4160718655683226
  0.5000000000000000  0.9344313682244396  0.9160718655683225
  0.0000000000000000  0.5655686317755604  0.4160718655683226
  0.0000000000000000  0.4344313682244391  0.9160718655683225
  0.5000000000000000  0.8521017081788164  0.4219281344316784
  0.5000000000000000  0.1478982918211838  0.9219281344316784
 -0.0000000000000000  0.3521017081788162  0.4219281344316784
 -0.0000000000000000  0.6478982918211836  0.9219281344316784
 
  0.00000000E+00  0.00000000E+00  0.00000000E+00
  0.00000000E+00  0.00000000E+00  0.00000000E+00
  0.00000000E+00  0.00000000E+00  0.00000000E+00
  0.00000000E+00  0.00000000E+00  0.00000000E+00
  0.00000000E+00  0.00000000E+00  0.00000000E+00
  0.00000000E+00  0.00000000E+00  0.00000000E+00
  0.00000000E+00  0.00000000E+00  0.00000000E+00
  0.00000000E+00  0.00000000E+00  0.00000000E+00
