Automatic mesh 
0
Gamma-centeredk
11 8 6 
0 0 0 
