 vasp.5.4.4.18Apr17-6-g9f103f2a35 (build May 27 2024 22:40:15) complex          
  
 executed on             LinuxIFC date 2024.10.26  20:35:46
 running on    4 total cores
 distrk:  each k-point on    4 cores,    1 groups
 distr:  one band on NCORES_PER_BAND=   1 cores,    4 groups


--------------------------------------------------------------------------------------------------------


 INCAR:
 POTCAR:    PAW_PBE H 15Jun2001                   
 POTCAR:    PAW_PBE F 08Apr2002                   
 POTCAR:    PAW_PBE H 15Jun2001                   
   VRHFIN =H: ultrasoft test                                                    
   LEXCH  = PE                                                                  
   EATOM  =    12.4884 eV,    0.9179 Ry                                         
                                                                                
   TITEL  = PAW_PBE H 15Jun2001                                                 
   LULTRA =        F    use ultrasoft PP ?                                      
   IUNSCR =        0    unscreen: 0-lin 1-nonlin 2-no                           
   RPACOR =    0.000    partial core radius                                     
   POMASS =    1.000; ZVAL   =    1.000    mass and valenz                      
   RCORE  =    1.100    outmost cutoff radius                                   
   RWIGS  =    0.700; RWIGS  =    0.370    wigner-seitz radius (au A)           
   ENMAX  =  250.000; ENMIN  =  200.000 eV                                      
   RCLOC  =    0.701    cutoff for local pot                                    
   LCOR   =        T    correct aug charges                                     
   LPAW   =        T    paw PP                                                  
   EAUG   =  400.000                                                            
   RMAX   =    1.123    core radius for proj-oper                               
   RAUG   =    1.200    factor for augmentation sphere                          
   RDEP   =    1.112    radius for radial grids                                 
   RDEPT  =    0.926    core radius for aug-charge                              
                                                                                
   Atomic configuration                                                         
    2 entries                                                                   
     n  l   j            E        occ.                                          
     1  0  0.50        -6.4927   1.0000                                         
     2  1  0.50        -3.4015   0.0000                                         
   Description                                                                  
     l       E           TYP  RCUT    TYP  RCUT                                 
     0     -6.4927494     23  1.100                                             
     0      6.8029130     23  1.100                                             
     1     -4.0817478     23  1.100                                             
  local pseudopotential read in
  atomic valenz-charges read in
  non local Contribution for L=           0  read in
    real space projection operators read in
  non local Contribution for L=           0  read in
    real space projection operators read in
  non local Contribution for L=           1  read in
    real space projection operators read in
    PAW grid and wavefunctions read in
 
   number of l-projection  operators is LMAX  =           3
   number of lm-projection operators is LMMAX =           5
 
 POTCAR:    PAW_PBE F 08Apr2002                   
   VRHFIN =F: s2p5                                                              
   LEXCH  = PE                                                                  
   EATOM  =   659.6475 eV,   48.4827 Ry                                         
                                                                                
   TITEL  = PAW_PBE F 08Apr2002                                                 
   LULTRA =        F    use ultrasoft PP ?                                      
   IUNSCR =        1    unscreen: 0-lin 1-nonlin 2-no                           
   RPACOR =    1.200    partial core radius                                     
   POMASS =   18.998; ZVAL   =    7.000    mass and valenz                      
   RCORE  =    1.520    outmost cutoff radius                                   
   RWIGS  =    1.500; RWIGS  =    0.794    wigner-seitz radius (au A)           
   ENMAX  =  400.000; ENMIN  =  300.000 eV                                      
   ICORE  =        2    local potential                                         
   LCOR   =        T    correct aug charges                                     
   LPAW   =        T    paw PP                                                  
   EAUG   =  613.614                                                            
   RMAX   =    1.555    core radius for proj-oper                               
   RAUG   =    1.300    factor for augmentation sphere                          
   RDEP   =    1.539    radius for radial grids                                 
   RDEPT  =    1.299    core radius for aug-charge                              
                                                                                
   Atomic configuration                                                         
    4 entries                                                                   
     n  l   j            E        occ.                                          
     1  0  0.50      -663.3661   2.0000                                         
     2  0  0.50       -29.8995   2.0000                                         
     2  1  0.50       -11.1114   5.0000                                         
     3  2  1.50       -10.8847   0.0000                                         
   Description                                                                  
     l       E           TYP  RCUT    TYP  RCUT                                 
     0    -29.8995018     23  1.200                                             
     0     -9.5240782     23  1.200                                             
     1    -11.1113914     23  1.520                                             
     1      1.3605826     23  1.520                                             
     2    -10.8846608      7  1.500                                             
  local pseudopotential read in
  partial core-charges read in
  partial kinetic energy density read in
  atomic valenz-charges read in
  non local Contribution for L=           0  read in
    real space projection operators read in
  non local Contribution for L=           0  read in
    real space projection operators read in
  non local Contribution for L=           1  read in
    real space projection operators read in
  non local Contribution for L=           1  read in
    real space projection operators read in
    PAW grid and wavefunctions read in
 
   number of l-projection  operators is LMAX  =           4
   number of lm-projection operators is LMMAX =           8
 
  PAW_PBE H 15Jun2001                   :
 energy of atom  1       EATOM=  -12.4884
 kinetic energy error for atom=    0.0014 (will be added to EATOM!!)
  PAW_PBE F 08Apr2002                   :
 energy of atom  2       EATOM= -659.6475
 kinetic energy error for atom=    0.0323 (will be added to EATOM!!)
 
 
 POSCAR: H4 F4                                   
  positions in direct lattice
  velocities in cartesian coordinates
 exchange correlation table for  LEXCH =        8
   RHO(1)=    0.500       N(1)  =     2000
   RHO(2)=  100.500       N(2)  =     4000
 


--------------------------------------------------------------------------------------------------------


 ion  position               nearest neighbor table
   1  0.500  0.066  0.416-   5 0.96
   2  0.500  0.934  0.916-   6 0.96
   3  0.000  0.566  0.416-   7 0.96
   4  0.000  0.434  0.916-   8 0.96
   5  0.500  0.852  0.422-   1 0.96
   6  0.500  0.148  0.922-   2 0.96
   7  0.000  0.352  0.422-   3 0.96
   8  0.000  0.648  0.922-   4 0.96
 
  LATTYP: Found a simple orthorhombic cell.
 ALAT       =     3.0231018752
 B/A-ratio  =     1.4809843841
 C/A-ratio  =     1.8065210781
  
  Lattice vectors:
  
 A1 = (   3.0231018752,   0.0000000000,   0.0000000000)
 A2 = (   0.0000000000,   4.4771666688,   0.0000000000)
 A3 = (   0.0000000000,   0.0000000000,   5.4612972587)


Analysis of symmetry for initial positions (statically):
=====================================================================
 Subroutine PRICEL returns following result:
 
  LATTYP: Found a base centered orthorhombic cell.
 ALAT       =     3.0231018752
 B/A-ratio  =     1.4809843841
 C/A-ratio  =     1.8065210781
  
  Lattice vectors:
  
 A1 = (  -1.5115509376,  -2.2385833344,   0.0000000000)
 A2 = (  -1.5115509376,   2.2385833344,   0.0000000000)
 A3 = (   0.0000000000,   0.0000000000,  -5.4612972587)
 
   2 primitive cells build up your supercell.
 

 Routine SETGRP: Setting up the symmetry group for a 
 simple orthorhombic supercell.


 Subroutine GETGRP returns: Found  4 space group operations
 (whereof  2 operations were pure point group operations)
 out of a pool of  8 trial point group operations.


The static configuration has the point symmetry C_1h.
 The point group associated with its full space group is C_2v.


Analysis of symmetry for dynamics (positions and initial velocities):
=====================================================================
 Subroutine PRICEL returns following result:
 
  LATTYP: Found a base centered orthorhombic cell.
 ALAT       =     3.0231018752
 B/A-ratio  =     1.4809843841
 C/A-ratio  =     1.8065210781
  
  Lattice vectors:
  
 A1 = (  -1.5115509376,  -2.2385833344,   0.0000000000)
 A2 = (  -1.5115509376,   2.2385833344,   0.0000000000)
 A3 = (   0.0000000000,   0.0000000000,  -5.4612972587)
 
   2 primitive cells build up your supercell.
 

 Routine SETGRP: Setting up the symmetry group for a 
 simple orthorhombic supercell.


 Subroutine GETGRP returns: Found  4 space group operations
 (whereof  2 operations were pure point group operations)
 out of a pool of  8 trial point group operations.


The dynamic configuration has the point symmetry C_1h.
 The point group associated with its full space group is C_2v.


 Subroutine INISYM returns: Found  4 space group operations
 (whereof  2 operations are pure point group operations),
 and found     2 'primitive' translations

 
 
 KPOINTS: Automatic mesh                          

Automatic generation of k-mesh.
Space group operators:
 irot       det(A)        alpha          n_x          n_y          n_z        tau_x        tau_y        tau_z
    1     1.000000     0.000001     1.000000     0.000000     0.000000     0.000000     0.000000     0.000000
    2    -1.000000   180.000000     1.000000    -0.000000     0.000000     0.000000     0.000000     0.000000
    3     1.000000   179.999999    -0.000000    -0.000000     1.000000     0.000000     0.000000    -0.500000
    4    -1.000000   180.000000     0.000000     1.000000     0.000000     0.000000     0.000000    -0.500000
 
 Subroutine IBZKPT returns following result:
 ===========================================
 
 Found    120 irreducible k-points:
 
 Following reciprocal coordinates:
            Coordinates               Weight
  0.000000  0.000000  0.000000      1.000000
  0.090909  0.000000  0.000000      2.000000
  0.181818  0.000000  0.000000      2.000000
  0.272727  0.000000  0.000000      2.000000
  0.363636  0.000000  0.000000      2.000000
  0.454545  0.000000  0.000000      2.000000
  0.000000  0.125000  0.000000      2.000000
  0.090909  0.125000  0.000000      4.000000
  0.181818  0.125000  0.000000      4.000000
  0.272727  0.125000  0.000000      4.000000
  0.363636  0.125000  0.000000      4.000000
  0.454545  0.125000  0.000000      4.000000
  0.000000  0.250000  0.000000      2.000000
  0.090909  0.250000  0.000000      4.000000
  0.181818  0.250000  0.000000      4.000000
  0.272727  0.250000  0.000000      4.000000
  0.363636  0.250000  0.000000      4.000000
  0.454545  0.250000  0.000000      4.000000
  0.000000  0.375000  0.000000      2.000000
  0.090909  0.375000  0.000000      4.000000
  0.181818  0.375000  0.000000      4.000000
  0.272727  0.375000  0.000000      4.000000
  0.363636  0.375000  0.000000      4.000000
  0.454545  0.375000  0.000000      4.000000
  0.000000  0.500000  0.000000      1.000000
  0.090909  0.500000  0.000000      2.000000
  0.181818  0.500000  0.000000      2.000000
  0.272727  0.500000  0.000000      2.000000
  0.363636  0.500000  0.000000      2.000000
  0.454545  0.500000  0.000000      2.000000
  0.000000  0.000000  0.166667      2.000000
  0.090909 -0.000000  0.166667      4.000000
  0.181818  0.000000  0.166667      4.000000
  0.272727  0.000000  0.166667      4.000000
  0.363636  0.000000  0.166667      4.000000
  0.454545  0.000000  0.166667      4.000000
  0.000000  0.125000  0.166667      4.000000
  0.090909  0.125000  0.166667      8.000000
  0.181818  0.125000  0.166667      8.000000
  0.272727  0.125000  0.166667      8.000000
  0.363636  0.125000  0.166667      8.000000
  0.454545  0.125000  0.166667      8.000000
  0.000000  0.250000  0.166667      4.000000
  0.090909  0.250000  0.166667      8.000000
  0.181818  0.250000  0.166667      8.000000
  0.272727  0.250000  0.166667      8.000000
  0.363636  0.250000  0.166667      8.000000
  0.454545  0.250000  0.166667      8.000000
  0.000000  0.375000  0.166667      4.000000
  0.090909  0.375000  0.166667      8.000000
  0.181818  0.375000  0.166667      8.000000
  0.272727  0.375000  0.166667      8.000000
  0.363636  0.375000  0.166667      8.000000
  0.454545  0.375000  0.166667      8.000000
  0.000000  0.500000  0.166667      2.000000
  0.090909  0.500000  0.166667      4.000000
  0.181818  0.500000  0.166667      4.000000
  0.272727  0.500000  0.166667      4.000000
  0.363636  0.500000  0.166667      4.000000
  0.454545  0.500000  0.166667      4.000000
  0.000000 -0.000000  0.333333      2.000000
  0.090909  0.000000  0.333333      4.000000
  0.181818 -0.000000  0.333333      4.000000
  0.272727 -0.000000  0.333333      4.000000
  0.363636  0.000000  0.333333      4.000000
  0.454545 -0.000000  0.333333      4.000000
  0.000000  0.125000  0.333333      4.000000
  0.090909  0.125000  0.333333      8.000000
  0.181818  0.125000  0.333333      8.000000
  0.272727  0.125000  0.333333      8.000000
  0.363636  0.125000  0.333333      8.000000
  0.454545  0.125000  0.333333      8.000000
  0.000000  0.250000  0.333333      4.000000
  0.090909  0.250000  0.333333      8.000000
  0.181818  0.250000  0.333333      8.000000
  0.272727  0.250000  0.333333      8.000000
  0.363636  0.250000  0.333333      8.000000
  0.454545  0.250000  0.333333      8.000000
  0.000000  0.375000  0.333333      4.000000
  0.090909  0.375000  0.333333      8.000000
  0.181818  0.375000  0.333333      8.000000
  0.272727  0.375000  0.333333      8.000000
  0.363636  0.375000  0.333333      8.000000
  0.454545  0.375000  0.333333      8.000000
  0.000000  0.500000  0.333333      2.000000
  0.090909  0.500000  0.333333      4.000000
  0.181818  0.500000  0.333333      4.000000
  0.272727  0.500000  0.333333      4.000000
  0.363636  0.500000  0.333333      4.000000
  0.454545  0.500000  0.333333      4.000000
  0.000000  0.000000  0.500000      1.000000
  0.090909  0.000000  0.500000      2.000000
  0.181818  0.000000  0.500000      2.000000
  0.272727  0.000000  0.500000      2.000000
  0.363636  0.000000  0.500000      2.000000
  0.454545  0.000000  0.500000      2.000000
  0.000000  0.125000  0.500000      2.000000
  0.090909  0.125000  0.500000      4.000000
  0.181818  0.125000  0.500000      4.000000
  0.272727  0.125000  0.500000      4.000000
  0.363636  0.125000  0.500000      4.000000
  0.454545  0.125000  0.500000      4.000000
  0.000000  0.250000  0.500000      2.000000
  0.090909  0.250000  0.500000      4.000000
  0.181818  0.250000  0.500000      4.000000
  0.272727  0.250000  0.500000      4.000000
  0.363636  0.250000  0.500000      4.000000
  0.454545  0.250000  0.500000      4.000000
  0.000000  0.375000  0.500000      2.000000
  0.090909  0.375000  0.500000      4.000000
  0.181818  0.375000  0.500000      4.000000
  0.272727  0.375000  0.500000      4.000000
  0.363636  0.375000  0.500000      4.000000
  0.454545  0.375000  0.500000      4.000000
  0.000000  0.500000  0.500000      1.000000
  0.090909  0.500000  0.500000      2.000000
  0.181818  0.500000  0.500000      2.000000
  0.272727  0.500000  0.500000      2.000000
  0.363636  0.500000  0.500000      2.000000
  0.454545  0.500000  0.500000      2.000000
 
 Following cartesian coordinates:
            Coordinates               Weight
  0.000000  0.000000  0.000000      1.000000
  0.030071 -0.000000  0.000000      2.000000
  0.060143 -0.000000  0.000000      2.000000
  0.090214 -0.000000  0.000000      2.000000
  0.120286 -0.000000  0.000000      2.000000
  0.150357 -0.000000  0.000000      2.000000
  0.000000  0.027919  0.000000      2.000000
  0.030071  0.027919  0.000000      4.000000
  0.060143  0.027919  0.000000      4.000000
  0.090214  0.027919  0.000000      4.000000
  0.120286  0.027919  0.000000      4.000000
  0.150357  0.027919  0.000000      4.000000
  0.000000  0.055839  0.000000      2.000000
  0.030071  0.055839  0.000000      4.000000
  0.060143  0.055839  0.000000      4.000000
  0.090214  0.055839  0.000000      4.000000
  0.120286  0.055839  0.000000      4.000000
  0.150357  0.055839  0.000000      4.000000
  0.000000  0.083758  0.000000      2.000000
  0.030071  0.083758  0.000000      4.000000
  0.060143  0.083758  0.000000      4.000000
  0.090214  0.083758  0.000000      4.000000
  0.120286  0.083758  0.000000      4.000000
  0.150357  0.083758  0.000000      4.000000
  0.000000  0.111678  0.000000      1.000000
  0.030071  0.111678  0.000000      2.000000
  0.060143  0.111678  0.000000      2.000000
  0.090214  0.111678  0.000000      2.000000
  0.120286  0.111678  0.000000      2.000000
  0.150357  0.111678  0.000000      2.000000
 -0.000000 -0.000000  0.030518      2.000000
  0.030071 -0.000000  0.030518      4.000000
  0.060143 -0.000000  0.030518      4.000000
  0.090214 -0.000000  0.030518      4.000000
  0.120286 -0.000000  0.030518      4.000000
  0.150357 -0.000000  0.030518      4.000000
 -0.000000  0.027919  0.030518      4.000000
  0.030071  0.027919  0.030518      8.000000
  0.060143  0.027919  0.030518      8.000000
  0.090214  0.027919  0.030518      8.000000
  0.120286  0.027919  0.030518      8.000000
  0.150357  0.027919  0.030518      8.000000
 -0.000000  0.055839  0.030518      4.000000
  0.030071  0.055839  0.030518      8.000000
  0.060143  0.055839  0.030518      8.000000
  0.090214  0.055839  0.030518      8.000000
  0.120286  0.055839  0.030518      8.000000
  0.150357  0.055839  0.030518      8.000000
 -0.000000  0.083758  0.030518      4.000000
  0.030071  0.083758  0.030518      8.000000
  0.060143  0.083758  0.030518      8.000000
  0.090214  0.083758  0.030518      8.000000
  0.120286  0.083758  0.030518      8.000000
  0.150357  0.083758  0.030518      8.000000
 -0.000000  0.111678  0.030518      2.000000
  0.030071  0.111678  0.030518      4.000000
  0.060143  0.111678  0.030518      4.000000
  0.090214  0.111678  0.030518      4.000000
  0.120286  0.111678  0.030518      4.000000
  0.150357  0.111678  0.030518      4.000000
 -0.000000 -0.000000  0.061036      2.000000
  0.030071 -0.000000  0.061036      4.000000
  0.060143 -0.000000  0.061036      4.000000
  0.090214 -0.000000  0.061036      4.000000
  0.120286 -0.000000  0.061036      4.000000
  0.150357 -0.000000  0.061036      4.000000
 -0.000000  0.027919  0.061036      4.000000
  0.030071  0.027919  0.061036      8.000000
  0.060143  0.027919  0.061036      8.000000
  0.090214  0.027919  0.061036      8.000000
  0.120286  0.027919  0.061036      8.000000
  0.150357  0.027919  0.061036      8.000000
 -0.000000  0.055839  0.061036      4.000000
  0.030071  0.055839  0.061036      8.000000
  0.060143  0.055839  0.061036      8.000000
  0.090214  0.055839  0.061036      8.000000
  0.120286  0.055839  0.061036      8.000000
  0.150357  0.055839  0.061036      8.000000
 -0.000000  0.083758  0.061036      4.000000
  0.030071  0.083758  0.061036      8.000000
  0.060143  0.083758  0.061036      8.000000
  0.090214  0.083758  0.061036      8.000000
  0.120286  0.083758  0.061036      8.000000
  0.150357  0.083758  0.061036      8.000000
 -0.000000  0.111678  0.061036      2.000000
  0.030071  0.111678  0.061036      4.000000
  0.060143  0.111678  0.061036      4.000000
  0.090214  0.111678  0.061036      4.000000
  0.120286  0.111678  0.061036      4.000000
  0.150357  0.111678  0.061036      4.000000
 -0.000000 -0.000000  0.091553      1.000000
  0.030071 -0.000000  0.091553      2.000000
  0.060143 -0.000000  0.091553      2.000000
  0.090214 -0.000000  0.091553      2.000000
  0.120286 -0.000000  0.091553      2.000000
  0.150357 -0.000000  0.091553      2.000000
 -0.000000  0.027919  0.091553      2.000000
  0.030071  0.027919  0.091553      4.000000
  0.060143  0.027919  0.091553      4.000000
  0.090214  0.027919  0.091553      4.000000
  0.120286  0.027919  0.091553      4.000000
  0.150357  0.027919  0.091553      4.000000
 -0.000000  0.055839  0.091553      2.000000
  0.030071  0.055839  0.091553      4.000000
  0.060143  0.055839  0.091553      4.000000
  0.090214  0.055839  0.091553      4.000000
  0.120286  0.055839  0.091553      4.000000
  0.150357  0.055839  0.091553      4.000000
 -0.000000  0.083758  0.091553      2.000000
  0.030071  0.083758  0.091553      4.000000
  0.060143  0.083758  0.091553      4.000000
  0.090214  0.083758  0.091553      4.000000
  0.120286  0.083758  0.091553      4.000000
  0.150357  0.083758  0.091553      4.000000
 -0.000000  0.111678  0.091553      1.000000
  0.030071  0.111678  0.091553      2.000000
  0.060143  0.111678  0.091553      2.000000
  0.090214  0.111678  0.091553      2.000000
  0.120286  0.111678  0.091553      2.000000
  0.150357  0.111678  0.091553      2.000000
 


--------------------------------------------------------------------------------------------------------




 Dimension of arrays:
   k-points           NKPTS =    120   k-points in BZ     NKDIM =    120   number of bands    NBANDS=     24
   number of dos      NEDOS =    301   number of ions     NIONS =      8
   non local maximal  LDIM  =      4   non local SUM 2l+1 LMDIM =      8
   total plane-waves  NPLWV =  36288
   max r-space proj   IRMAX =      1   max aug-charges    IRDMAX=  50126
   dimension x,y,z NGX =    24 NGY =   36 NGZ =   42
   dimension x,y,z NGXF=    48 NGYF=   72 NGZF=   84
   support grid    NGXF=    96 NGYF=  144 NGZF=  168
   ions per type =               4   4
   NGX,Y,Z   is equivalent  to a cutoff of  13.20, 13.37, 12.79 a.u.
   NGXF,Y,Z  is equivalent  to a cutoff of  26.40, 26.74, 25.57 a.u.

 SYSTEM =  unknown system                          
 POSCAR =  H4 F4                                   

 Startparameter for this run:
   NWRITE =      2    write-flag & timer
   PREC   = accura    normal or accurate (medium, high low for compatibility)
   ISTART =      0    job   : 0-new  1-cont  2-samecut
   ICHARG =      2    charge: 1-file 2-atom 10-const
   ISPIN  =      1    spin polarized calculation?
   LNONCOLLINEAR =      F non collinear calculations
   LSORBIT =      F    spin-orbit coupling
   INIWAV =      1    electr: 0-lowe 1-rand  2-diag
   LASPH  =      F    aspherical Exc in radial PAW
   METAGGA=      F    non-selfconsistent MetaGGA calc.

 Electronic Relaxation 1
   ENCUT  =  520.0 eV  38.22 Ry    6.18 a.u.   5.62  8.32 10.15*2*pi/ulx,y,z
   ENINI  =  520.0     initial cutoff
   ENAUG  =  613.6 eV  augmentation charge cutoff
   NELM   =     60;   NELMIN=  2; NELMDL= -5     # of ELM steps 
   EDIFF  = 0.1E-05   stopping-criterion for ELM
   LREAL  =      F    real-space projection
   NLSPLINE    = F    spline interpolate recip. space projectors
   LCOMPAT=      F    compatible to vasp.4.4
   GGA_COMPAT  = T    GGA compatible to vasp.4.4-vasp.4.6
   LMAXPAW     = -100 max onsite density
   LMAXMIX     =    2 max onsite mixed and CHGCAR
   VOSKOWN=      0    Vosko Wilk Nusair interpolation
   ROPT   =    0.00000   0.00000
 Ionic relaxation
   EDIFFG = -.2E-01   stopping-criterion for IOM
   NSW    =      0    number of steps for IOM
   NBLOCK =      1;   KBLOCK =      1    inner block; outer block 
   IBRION =     -1    ionic relax: 0-MD 1-quasi-New 2-CG
   NFREE  =      0    steps in history (QN), initial steepest desc. (CG)
   ISIF   =      2    stress and relaxation
   IWAVPR =     10    prediction:  0-non 1-charg 2-wave 3-comb
   ISYM   =      2    0-nonsym 1-usesym 2-fastsym
   LCORR  =      T    Harris-Foulkes like correction to forces

   POTIM  = 0.5000    time-step for ionic-motion
   TEIN   =    0.0    initial temperature
   TEBEG  =    0.0;   TEEND  =   0.0 temperature during run
   SMASS  =  -3.00    Nose mass-parameter (am)
   estimated Nose-frequenzy (Omega)   =  0.10E-29 period in steps =****** mass=  -0.209E-27a.u.
   SCALEE = 1.0000    scale energy and forces
   NPACO  =    256;   APACO  = 16.0  distance and # of slots for P.C.
   PSTRESS=    0.0 pullay stress

  Mass of Ions in am
   POMASS =   1.00 19.00
  Ionic Valenz
   ZVAL   =   1.00  7.00
  Atomic Wigner-Seitz radii
   RWIGS  =  -1.00 -1.00
  virtual crystal weights 
   VCA    =   1.00  1.00
   NELECT =      32.0000    total number of electrons
   NUPDOWN=      -1.0000    fix difference up-down

 DOS related values:
   EMIN   =  10.00;   EMAX   =-10.00  energy-range for DOS
   EFERMI =   0.00
   ISMEAR =     0;   SIGMA  =   0.10  broadening in eV -4-tet -1-fermi 0-gaus

 Electronic relaxation 2 (details)
   IALGO  =     38    algorithm
   LDIAG  =      T    sub-space diagonalisation (order eigenvalues)
   LSUBROT=      F    optimize rotation matrix (better conditioning)
   TURBO    =      0    0=normal 1=particle mesh
   IRESTART =      0    0=no restart 2=restart with 2 vectors
   NREBOOT  =      0    no. of reboots
   NMIN     =      0    reboot dimension
   EREF     =   0.00    reference energy to select bands
   IMIX   =      4    mixing-type and parameters
     AMIX     =   0.40;   BMIX     =  1.00
     AMIX_MAG =   1.60;   BMIX_MAG =  1.00
     AMIN     =   0.10
     WC   =   100.;   INIMIX=   1;  MIXPRE=   1;  MAXMIX= -45

 Intra band minimization:
   WEIMIN = 0.0000     energy-eigenvalue tresh-hold
   EBREAK =  0.10E-07  absolut break condition
   DEPER  =   0.30     relativ break condition  

   TIME   =   0.40     timestep for ELM

  volume/ion in A,a.u.               =       9.24        62.35
  Fermi-wavevector in a.u.,A,eV,Ry     =   1.238438  2.340308 20.867639  1.533728
  Thomas-Fermi vector in A             =   2.372963
 
 Write flags
   LWAVE        =      T    write WAVECAR
   LDOWNSAMPLE  =      F    k-point downsampling of WAVECAR
   LCHARG       =      T    write CHGCAR
   LVTOT        =      F    write LOCPOT, total local potential
   LVHAR        =      F    write LOCPOT, Hartree potential only
   LELF         =      F    write electronic localiz. function (ELF)
   LORBIT       =      0    0 simple, 1 ext, 2 COOP (PROOUT), +10 PAW based schemes


 Dipole corrections
   LMONO  =      F    monopole corrections only (constant potential shift)
   LDIPOL =      F    correct potential (dipole corrections)
   IDIPOL =      0    1-x, 2-y, 3-z, 4-all directions 
   EPSILON=  1.0000000 bulk dielectric constant

 Exchange correlation treatment:
   GGA     =    --    GGA type
   LEXCH   =     8    internal setting for exchange type
   VOSKOWN=      0    Vosko Wilk Nusair interpolation
   LHFCALC =     F    Hartree Fock is set to
   LHFONE  =     F    Hartree Fock one center treatment
   AEXX    =    0.0000 exact exchange contribution

 Linear response parameters
   LEPSILON=     F    determine dielectric tensor
   LRPA    =     F    only Hartree local field effects (RPA)
   LNABLA  =     F    use nabla operator in PAW spheres
   LVEL    =     F    velocity operator in full k-point grid
   LINTERFAST=   F  fast interpolation
   KINTER  =     0    interpolate to denser k-point grid
   CSHIFT  =0.1000    complex shift for real part using Kramers Kronig
   OMEGAMAX=  -1.0    maximum frequency
   DEG_THRESHOLD= 0.2000000E-02 threshold for treating states as degnerate
   RTIME   =   -0.100 relaxation time in fs
  (WPLASMAI=    0.000 imaginary part of plasma frequency in eV, 0.658/RTIME)
   DFIELD  = 0.0000000 0.0000000 0.0000000 field for delta impulse in time
 
 Orbital magnetization related:
   ORBITALMAG=     F  switch on orbital magnetization
   LCHIMAG   =     F  perturbation theory with respect to B field
   DQ        =  0.001000  dq finite difference perturbation B field
   LLRAUG    =     F  two centre corrections for induced B field



--------------------------------------------------------------------------------------------------------


 Static calculation
 charge density and potential will be updated during run
 non-spin polarized calculation
 Variant of blocked Davidson
 Davidson routine will perform the subspace rotation
 perform sub-space diagonalisation
    after iterative eigenvector-optimisation
 modified Broyden-mixing scheme, WC =      100.0
 initial mixing is a Kerker type mixing with AMIX =  0.4000 and BMIX =      1.0000
 Hartree-type preconditioning will be used
 using additional bands            8
 reciprocal scheme for non local part
 use partial core corrections
 calculate Harris-corrections to forces 
   (improved forces if not selfconsistent)
 use gradient corrections 
 use of overlap-Matrix (Vanderbilt PP)
 Gauss-broadening in eV      SIGMA  =   0.10


--------------------------------------------------------------------------------------------------------


  energy-cutoff  :      520.00
  volume of cell :       73.92
      direct lattice vectors                 reciprocal lattice vectors
     3.023101875  0.000000000  0.000000000     0.330786074 -0.000000000  0.000000000
     0.000000000  4.477166669  0.000000000     0.000000000  0.223355545  0.000000000
     0.000000000  0.000000000  5.461297259    -0.000000000 -0.000000000  0.183106678

  length of vectors
     3.023101875  4.477166669  5.461297259     0.330786074  0.223355545  0.183106678


 
 k-points in units of 2pi/SCALE and weight: Automatic mesh                          
   0.00000000  0.00000000  0.00000000       0.002
   0.03007146 -0.00000000  0.00000000       0.004
   0.06014292 -0.00000000  0.00000000       0.004
   0.09021438 -0.00000000  0.00000000       0.004
   0.12028585 -0.00000000  0.00000000       0.004
   0.15035731 -0.00000000  0.00000000       0.004
   0.00000000  0.02791944  0.00000000       0.004
   0.03007146  0.02791944  0.00000000       0.008
   0.06014292  0.02791944  0.00000000       0.008
   0.09021438  0.02791944  0.00000000       0.008
   0.12028585  0.02791944  0.00000000       0.008
   0.15035731  0.02791944  0.00000000       0.008
   0.00000000  0.05583889  0.00000000       0.004
   0.03007146  0.05583889  0.00000000       0.008
   0.06014292  0.05583889  0.00000000       0.008
   0.09021438  0.05583889  0.00000000       0.008
   0.12028585  0.05583889  0.00000000       0.008
   0.15035731  0.05583889  0.00000000       0.008
   0.00000000  0.08375833  0.00000000       0.004
   0.03007146  0.08375833  0.00000000       0.008
   0.06014292  0.08375833  0.00000000       0.008
   0.09021438  0.08375833  0.00000000       0.008
   0.12028585  0.08375833  0.00000000       0.008
   0.15035731  0.08375833  0.00000000       0.008
   0.00000000  0.11167777  0.00000000       0.002
   0.03007146  0.11167777  0.00000000       0.004
   0.06014292  0.11167777  0.00000000       0.004
   0.09021438  0.11167777  0.00000000       0.004
   0.12028585  0.11167777  0.00000000       0.004
   0.15035731  0.11167777  0.00000000       0.004
  -0.00000000 -0.00000000  0.03051778       0.004
   0.03007146 -0.00000000  0.03051778       0.008
   0.06014292 -0.00000000  0.03051778       0.008
   0.09021438 -0.00000000  0.03051778       0.008
   0.12028585 -0.00000000  0.03051778       0.008
   0.15035731 -0.00000000  0.03051778       0.008
  -0.00000000  0.02791944  0.03051778       0.008
   0.03007146  0.02791944  0.03051778       0.015
   0.06014292  0.02791944  0.03051778       0.015
   0.09021438  0.02791944  0.03051778       0.015
   0.12028585  0.02791944  0.03051778       0.015
   0.15035731  0.02791944  0.03051778       0.015
  -0.00000000  0.05583889  0.03051778       0.008
   0.03007146  0.05583889  0.03051778       0.015
   0.06014292  0.05583889  0.03051778       0.015
   0.09021438  0.05583889  0.03051778       0.015
   0.12028585  0.05583889  0.03051778       0.015
   0.15035731  0.05583889  0.03051778       0.015
  -0.00000000  0.08375833  0.03051778       0.008
   0.03007146  0.08375833  0.03051778       0.015
   0.06014292  0.08375833  0.03051778       0.015
   0.09021438  0.08375833  0.03051778       0.015
   0.12028585  0.08375833  0.03051778       0.015
   0.15035731  0.08375833  0.03051778       0.015
  -0.00000000  0.11167777  0.03051778       0.004
   0.03007146  0.11167777  0.03051778       0.008
   0.06014292  0.11167777  0.03051778       0.008
   0.09021438  0.11167777  0.03051778       0.008
   0.12028585  0.11167777  0.03051778       0.008
   0.15035731  0.11167777  0.03051778       0.008
  -0.00000000 -0.00000000  0.06103556       0.004
   0.03007146 -0.00000000  0.06103556       0.008
   0.06014292 -0.00000000  0.06103556       0.008
   0.09021438 -0.00000000  0.06103556       0.008
   0.12028585 -0.00000000  0.06103556       0.008
   0.15035731 -0.00000000  0.06103556       0.008
  -0.00000000  0.02791944  0.06103556       0.008
   0.03007146  0.02791944  0.06103556       0.015
   0.06014292  0.02791944  0.06103556       0.015
   0.09021438  0.02791944  0.06103556       0.015
   0.12028585  0.02791944  0.06103556       0.015
   0.15035731  0.02791944  0.06103556       0.015
  -0.00000000  0.05583889  0.06103556       0.008
   0.03007146  0.05583889  0.06103556       0.015
   0.06014292  0.05583889  0.06103556       0.015
   0.09021438  0.05583889  0.06103556       0.015
   0.12028585  0.05583889  0.06103556       0.015
   0.15035731  0.05583889  0.06103556       0.015
  -0.00000000  0.08375833  0.06103556       0.008
   0.03007146  0.08375833  0.06103556       0.015
   0.06014292  0.08375833  0.06103556       0.015
   0.09021438  0.08375833  0.06103556       0.015
   0.12028585  0.08375833  0.06103556       0.015
   0.15035731  0.08375833  0.06103556       0.015
  -0.00000000  0.11167777  0.06103556       0.004
   0.03007146  0.11167777  0.06103556       0.008
   0.06014292  0.11167777  0.06103556       0.008
   0.09021438  0.11167777  0.06103556       0.008
   0.12028585  0.11167777  0.06103556       0.008
   0.15035731  0.11167777  0.06103556       0.008
  -0.00000000 -0.00000000  0.09155334       0.002
   0.03007146 -0.00000000  0.09155334       0.004
   0.06014292 -0.00000000  0.09155334       0.004
   0.09021438 -0.00000000  0.09155334       0.004
   0.12028585 -0.00000000  0.09155334       0.004
   0.15035731 -0.00000000  0.09155334       0.004
  -0.00000000  0.02791944  0.09155334       0.004
   0.03007146  0.02791944  0.09155334       0.008
   0.06014292  0.02791944  0.09155334       0.008
   0.09021438  0.02791944  0.09155334       0.008
   0.12028585  0.02791944  0.09155334       0.008
   0.15035731  0.02791944  0.09155334       0.008
  -0.00000000  0.05583889  0.09155334       0.004
   0.03007146  0.05583889  0.09155334       0.008
   0.06014292  0.05583889  0.09155334       0.008
   0.09021438  0.05583889  0.09155334       0.008
   0.12028585  0.05583889  0.09155334       0.008
   0.15035731  0.05583889  0.09155334       0.008
  -0.00000000  0.08375833  0.09155334       0.004
   0.03007146  0.08375833  0.09155334       0.008
   0.06014292  0.08375833  0.09155334       0.008
   0.09021438  0.08375833  0.09155334       0.008
   0.12028585  0.08375833  0.09155334       0.008
   0.15035731  0.08375833  0.09155334       0.008
  -0.00000000  0.11167777  0.09155334       0.002
   0.03007146  0.11167777  0.09155334       0.004
   0.06014292  0.11167777  0.09155334       0.004
   0.09021438  0.11167777  0.09155334       0.004
   0.12028585  0.11167777  0.09155334       0.004
   0.15035731  0.11167777  0.09155334       0.004
 
 k-points in reciprocal lattice and weights: Automatic mesh                          
   0.00000000  0.00000000  0.00000000       0.002
   0.09090909  0.00000000  0.00000000       0.004
   0.18181818  0.00000000  0.00000000       0.004
   0.27272727  0.00000000  0.00000000       0.004
   0.36363636  0.00000000  0.00000000       0.004
   0.45454545  0.00000000  0.00000000       0.004
   0.00000000  0.12500000  0.00000000       0.004
   0.09090909  0.12500000  0.00000000       0.008
   0.18181818  0.12500000  0.00000000       0.008
   0.27272727  0.12500000  0.00000000       0.008
   0.36363636  0.12500000  0.00000000       0.008
   0.45454545  0.12500000  0.00000000       0.008
   0.00000000  0.25000000  0.00000000       0.004
   0.09090909  0.25000000  0.00000000       0.008
   0.18181818  0.25000000  0.00000000       0.008
   0.27272727  0.25000000  0.00000000       0.008
   0.36363636  0.25000000  0.00000000       0.008
   0.45454545  0.25000000  0.00000000       0.008
   0.00000000  0.37500000  0.00000000       0.004
   0.09090909  0.37500000  0.00000000       0.008
   0.18181818  0.37500000  0.00000000       0.008
   0.27272727  0.37500000  0.00000000       0.008
   0.36363636  0.37500000  0.00000000       0.008
   0.45454545  0.37500000  0.00000000       0.008
   0.00000000  0.50000000  0.00000000       0.002
   0.09090909  0.50000000  0.00000000       0.004
   0.18181818  0.50000000  0.00000000       0.004
   0.27272727  0.50000000  0.00000000       0.004
   0.36363636  0.50000000  0.00000000       0.004
   0.45454545  0.50000000  0.00000000       0.004
   0.00000000  0.00000000  0.16666667       0.004
   0.09090909 -0.00000000  0.16666667       0.008
   0.18181818  0.00000000  0.16666667       0.008
   0.27272727  0.00000000  0.16666667       0.008
   0.36363636  0.00000000  0.16666667       0.008
   0.45454545  0.00000000  0.16666667       0.008
   0.00000000  0.12500000  0.16666667       0.008
   0.09090909  0.12500000  0.16666667       0.015
   0.18181818  0.12500000  0.16666667       0.015
   0.27272727  0.12500000  0.16666667       0.015
   0.36363636  0.12500000  0.16666667       0.015
   0.45454545  0.12500000  0.16666667       0.015
   0.00000000  0.25000000  0.16666667       0.008
   0.09090909  0.25000000  0.16666667       0.015
   0.18181818  0.25000000  0.16666667       0.015
   0.27272727  0.25000000  0.16666667       0.015
   0.36363636  0.25000000  0.16666667       0.015
   0.45454545  0.25000000  0.16666667       0.015
   0.00000000  0.37500000  0.16666667       0.008
   0.09090909  0.37500000  0.16666667       0.015
   0.18181818  0.37500000  0.16666667       0.015
   0.27272727  0.37500000  0.16666667       0.015
   0.36363636  0.37500000  0.16666667       0.015
   0.45454545  0.37500000  0.16666667       0.015
   0.00000000  0.50000000  0.16666667       0.004
   0.09090909  0.50000000  0.16666667       0.008
   0.18181818  0.50000000  0.16666667       0.008
   0.27272727  0.50000000  0.16666667       0.008
   0.36363636  0.50000000  0.16666667       0.008
   0.45454545  0.50000000  0.16666667       0.008
   0.00000000 -0.00000000  0.33333333       0.004
   0.09090909  0.00000000  0.33333333       0.008
   0.18181818 -0.00000000  0.33333333       0.008
   0.27272727 -0.00000000  0.33333333       0.008
   0.36363636  0.00000000  0.33333333       0.008
   0.45454545 -0.00000000  0.33333333       0.008
   0.00000000  0.12500000  0.33333333       0.008
   0.09090909  0.12500000  0.33333333       0.015
   0.18181818  0.12500000  0.33333333       0.015
   0.27272727  0.12500000  0.33333333       0.015
   0.36363636  0.12500000  0.33333333       0.015
   0.45454545  0.12500000  0.33333333       0.015
   0.00000000  0.25000000  0.33333333       0.008
   0.09090909  0.25000000  0.33333333       0.015
   0.18181818  0.25000000  0.33333333       0.015
   0.27272727  0.25000000  0.33333333       0.015
   0.36363636  0.25000000  0.33333333       0.015
   0.45454545  0.25000000  0.33333333       0.015
   0.00000000  0.37500000  0.33333333       0.008
   0.09090909  0.37500000  0.33333333       0.015
   0.18181818  0.37500000  0.33333333       0.015
   0.27272727  0.37500000  0.33333333       0.015
   0.36363636  0.37500000  0.33333333       0.015
   0.45454545  0.37500000  0.33333333       0.015
   0.00000000  0.50000000  0.33333333       0.004
   0.09090909  0.50000000  0.33333333       0.008
   0.18181818  0.50000000  0.33333333       0.008
   0.27272727  0.50000000  0.33333333       0.008
   0.36363636  0.50000000  0.33333333       0.008
   0.45454545  0.50000000  0.33333333       0.008
   0.00000000  0.00000000  0.50000000       0.002
   0.09090909  0.00000000  0.50000000       0.004
   0.18181818  0.00000000  0.50000000       0.004
   0.27272727  0.00000000  0.50000000       0.004
   0.36363636  0.00000000  0.50000000       0.004
   0.45454545  0.00000000  0.50000000       0.004
   0.00000000  0.12500000  0.50000000       0.004
   0.09090909  0.12500000  0.50000000       0.008
   0.18181818  0.12500000  0.50000000       0.008
   0.27272727  0.12500000  0.50000000       0.008
   0.36363636  0.12500000  0.50000000       0.008
   0.45454545  0.12500000  0.50000000       0.008
   0.00000000  0.25000000  0.50000000       0.004
   0.09090909  0.25000000  0.50000000       0.008
   0.18181818  0.25000000  0.50000000       0.008
   0.27272727  0.25000000  0.50000000       0.008
   0.36363636  0.25000000  0.50000000       0.008
   0.45454545  0.25000000  0.50000000       0.008
   0.00000000  0.37500000  0.50000000       0.004
   0.09090909  0.37500000  0.50000000       0.008
   0.18181818  0.37500000  0.50000000       0.008
   0.27272727  0.37500000  0.50000000       0.008
   0.36363636  0.37500000  0.50000000       0.008
   0.45454545  0.37500000  0.50000000       0.008
   0.00000000  0.50000000  0.50000000       0.002
   0.09090909  0.50000000  0.50000000       0.004
   0.18181818  0.50000000  0.50000000       0.004
   0.27272727  0.50000000  0.50000000       0.004
   0.36363636  0.50000000  0.50000000       0.004
   0.45454545  0.50000000  0.50000000       0.004
 
 position of ions in fractional coordinates (direct lattice) 
   0.50000000  0.06556863  0.41607187
   0.50000000  0.93443137  0.91607187
   0.00000000  0.56556863  0.41607187
   0.00000000  0.43443137  0.91607187
   0.50000000  0.85210171  0.42192813
   0.50000000  0.14789829  0.92192813
   0.00000000  0.35210171  0.42192813
   0.00000000  0.64789829  0.92192813
 
 position of ions in cartesian coordinates  (Angst):
   1.51155094  0.29356169  2.27229214
   1.51155094  4.18360498  5.00294077
   0.00000000  2.53214503  2.27229214
   0.00000000  1.94502164  5.00294077
   1.51155094  3.81500137  2.30427496
   1.51155094  0.66216530  5.03492359
   0.00000000  1.57641803  2.30427496
   0.00000000  2.90074864  5.03492359
 


--------------------------------------------------------------------------------------------------------


 k-point  1 :   0.0000 0.0000 0.0000  plane waves:    2003
 k-point  2 :   0.0909 0.0000 0.0000  plane waves:    1987
 k-point  3 :   0.1818 0.0000 0.0000  plane waves:    1993
 k-point  4 :   0.2727 0.0000 0.0000  plane waves:    1991
 k-point  5 :   0.3636 0.0000 0.0000  plane waves:    1987
 k-point  6 :   0.4545 0.0000 0.0000  plane waves:    1982
 k-point  7 :   0.0000 0.1250 0.0000  plane waves:    1993
 k-point  8 :   0.0909 0.1250 0.0000  plane waves:    1995
 k-point  9 :   0.1818 0.1250 0.0000  plane waves:    1989
 k-point 10 :   0.2727 0.1250 0.0000  plane waves:    1992
 k-point 11 :   0.3636 0.1250 0.0000  plane waves:    1987
 k-point 12 :   0.4545 0.1250 0.0000  plane waves:    1985
 k-point 13 :   0.0000 0.2500 0.0000  plane waves:    1989
 k-point 14 :   0.0909 0.2500 0.0000  plane waves:    1992
 k-point 15 :   0.1818 0.2500 0.0000  plane waves:    1998
 k-point 16 :   0.2727 0.2500 0.0000  plane waves:    1992
 k-point 17 :   0.3636 0.2500 0.0000  plane waves:    1984
 k-point 18 :   0.4545 0.2500 0.0000  plane waves:    1977
 k-point 19 :   0.0000 0.3750 0.0000  plane waves:    1994
 k-point 20 :   0.0909 0.3750 0.0000  plane waves:    1995
 k-point 21 :   0.1818 0.3750 0.0000  plane waves:    1997
 k-point 22 :   0.2727 0.3750 0.0000  plane waves:    1995
 k-point 23 :   0.3636 0.3750 0.0000  plane waves:    1978
 k-point 24 :   0.4545 0.3750 0.0000  plane waves:    1972
 k-point 25 :   0.0000 0.5000 0.0000  plane waves:    2012
 k-point 26 :   0.0909 0.5000 0.0000  plane waves:    2004
 k-point 27 :   0.1818 0.5000 0.0000  plane waves:    1994
 k-point 28 :   0.2727 0.5000 0.0000  plane waves:    1986
 k-point 29 :   0.3636 0.5000 0.0000  plane waves:    1980
 k-point 30 :   0.4545 0.5000 0.0000  plane waves:    1980
 k-point 31 :   0.0000 0.0000 0.1667  plane waves:    1988
 k-point 32 :   0.0909-0.0000 0.1667  plane waves:    2002
 k-point 33 :   0.1818 0.0000 0.1667  plane waves:    1993
 k-point 34 :   0.2727 0.0000 0.1667  plane waves:    1989
 k-point 35 :   0.3636 0.0000 0.1667  plane waves:    1983
 k-point 36 :   0.4545 0.0000 0.1667  plane waves:    1977
 k-point 37 :   0.0000 0.1250 0.1667  plane waves:    1994
 k-point 38 :   0.0909 0.1250 0.1667  plane waves:    1994
 k-point 39 :   0.1818 0.1250 0.1667  plane waves:    1994
 k-point 40 :   0.2727 0.1250 0.1667  plane waves:    1993
 k-point 41 :   0.3636 0.1250 0.1667  plane waves:    1990
 k-point 42 :   0.4545 0.1250 0.1667  plane waves:    1980
 k-point 43 :   0.0000 0.2500 0.1667  plane waves:    1995
 k-point 44 :   0.0909 0.2500 0.1667  plane waves:    1991
 k-point 45 :   0.1818 0.2500 0.1667  plane waves:    1986
 k-point 46 :   0.2727 0.2500 0.1667  plane waves:    1989
 k-point 47 :   0.3636 0.2500 0.1667  plane waves:    1981
 k-point 48 :   0.4545 0.2500 0.1667  plane waves:    1989
 k-point 49 :   0.0000 0.3750 0.1667  plane waves:    2003
 k-point 50 :   0.0909 0.3750 0.1667  plane waves:    2004
 k-point 51 :   0.1818 0.3750 0.1667  plane waves:    1995
 k-point 52 :   0.2727 0.3750 0.1667  plane waves:    1986
 k-point 53 :   0.3636 0.3750 0.1667  plane waves:    1973
 k-point 54 :   0.4545 0.3750 0.1667  plane waves:    1980
 k-point 55 :   0.0000 0.5000 0.1667  plane waves:    2004
 k-point 56 :   0.0909 0.5000 0.1667  plane waves:    2004
 k-point 57 :   0.1818 0.5000 0.1667  plane waves:    2004
 k-point 58 :   0.2727 0.5000 0.1667  plane waves:    1992
 k-point 59 :   0.3636 0.5000 0.1667  plane waves:    1980
 k-point 60 :   0.4545 0.5000 0.1667  plane waves:    1972
 k-point 61 :   0.0000-0.0000 0.3333  plane waves:    1994
 k-point 62 :   0.0909 0.0000 0.3333  plane waves:    1989
 k-point 63 :   0.1818-0.0000 0.3333  plane waves:    2004
 k-point 64 :   0.2727-0.0000 0.3333  plane waves:    1995
 k-point 65 :   0.3636 0.0000 0.3333  plane waves:    1997
 k-point 66 :   0.4545-0.0000 0.3333  plane waves:    1996
 k-point 67 :   0.0000 0.1250 0.3333  plane waves:    1990
 k-point 68 :   0.0909 0.1250 0.3333  plane waves:    1990
 k-point 69 :   0.1818 0.1250 0.3333  plane waves:    1993
 k-point 70 :   0.2727 0.1250 0.3333  plane waves:    1990
 k-point 71 :   0.3636 0.1250 0.3333  plane waves:    1994
 k-point 72 :   0.4545 0.1250 0.3333  plane waves:    1992
 k-point 73 :   0.0000 0.2500 0.3333  plane waves:    1997
 k-point 74 :   0.0909 0.2500 0.3333  plane waves:    2000
 k-point 75 :   0.1818 0.2500 0.3333  plane waves:    1996
 k-point 76 :   0.2727 0.2500 0.3333  plane waves:    1986
 k-point 77 :   0.3636 0.2500 0.3333  plane waves:    1983
 k-point 78 :   0.4545 0.2500 0.3333  plane waves:    1990
 k-point 79 :   0.0000 0.3750 0.3333  plane waves:    2003
 k-point 80 :   0.0909 0.3750 0.3333  plane waves:    1993
 k-point 81 :   0.1818 0.3750 0.3333  plane waves:    1994
 k-point 82 :   0.2727 0.3750 0.3333  plane waves:    1984
 k-point 83 :   0.3636 0.3750 0.3333  plane waves:    1980
 k-point 84 :   0.4545 0.3750 0.3333  plane waves:    1981
 k-point 85 :   0.0000 0.5000 0.3333  plane waves:    2008
 k-point 86 :   0.0909 0.5000 0.3333  plane waves:    1998
 k-point 87 :   0.1818 0.5000 0.3333  plane waves:    1994
 k-point 88 :   0.2727 0.5000 0.3333  plane waves:    1984
 k-point 89 :   0.3636 0.5000 0.3333  plane waves:    1980
 k-point 90 :   0.4545 0.5000 0.3333  plane waves:    1966
 k-point 91 :   0.0000 0.0000 0.5000  plane waves:    1984
 k-point 92 :   0.0909 0.0000 0.5000  plane waves:    1982
 k-point 93 :   0.1818 0.0000 0.5000  plane waves:    1994
 k-point 94 :   0.2727 0.0000 0.5000  plane waves:    2000
 k-point 95 :   0.3636 0.0000 0.5000  plane waves:    2002
 k-point 96 :   0.4545 0.0000 0.5000  plane waves:    1984
 k-point 97 :   0.0000 0.1250 0.5000  plane waves:    1986
 k-point 98 :   0.0909 0.1250 0.5000  plane waves:    1984
 k-point 99 :   0.1818 0.1250 0.5000  plane waves:    2000
 k-point ** :   0.2727 0.1250 0.5000  plane waves:    1996
 k-point ** :   0.3636 0.1250 0.5000  plane waves:    1992
 k-point ** :   0.4545 0.1250 0.5000  plane waves:    2000
 k-point ** :   0.0000 0.2500 0.5000  plane waves:    1994
 k-point ** :   0.0909 0.2500 0.5000  plane waves:    1996
 k-point ** :   0.1818 0.2500 0.5000  plane waves:    1994
 k-point ** :   0.2727 0.2500 0.5000  plane waves:    1990
 k-point ** :   0.3636 0.2500 0.5000  plane waves:    1988
 k-point ** :   0.4545 0.2500 0.5000  plane waves:    1996
 k-point ** :   0.0000 0.3750 0.5000  plane waves:    2004
 k-point ** :   0.0909 0.3750 0.5000  plane waves:    1992
 k-point ** :   0.1818 0.3750 0.5000  plane waves:    1984
 k-point ** :   0.2727 0.3750 0.5000  plane waves:    1986
 k-point ** :   0.3636 0.3750 0.5000  plane waves:    1982
 k-point ** :   0.4545 0.3750 0.5000  plane waves:    1986
 k-point ** :   0.0000 0.5000 0.5000  plane waves:    1992
 k-point ** :   0.0909 0.5000 0.5000  plane waves:    2000
 k-point ** :   0.1818 0.5000 0.5000  plane waves:    1988
 k-point ** :   0.2727 0.5000 0.5000  plane waves:    1984
 k-point ** :   0.3636 0.5000 0.5000  plane waves:    1984
 k-point ** :   0.4545 0.5000 0.5000  plane waves:    1980

 maximum and minimum number of plane-waves per node :      2012     1966

 maximum number of plane-waves:      2012
 maximum index in each direction: 
   IXMAX=    5   IYMAX=    8   IZMAX=   10
   IXMIN=   -6   IYMIN=   -8   IZMIN=  -10


 serial   3D FFT for wavefunctions
 parallel 3D FFT for charge:
    minimum data exchange during FFTs selected (reduces bandwidth)


 total amount of memory used by VASP MPI-rank0   101414. kBytes
=======================================================================

   base      :      30000. kBytes
   nonl-proj :      31161. kBytes
   fftplans  :      10854. kBytes
   grid      :       5598. kBytes
   one-center:         24. kBytes
   wavefun   :      23777. kBytes
 
     INWAV:  cpu time    0.0001: real time    0.0001
 Broyden mixing: mesh for mixing (old mesh)
   NGX = 11   NGY = 17   NGZ = 21
  (NGX  = 48   NGY  = 72   NGZ  = 84)
  gives a total of   3927 points

 initial charge density was supplied:
 charge density of overlapping atoms calculated
 number of electron      32.0000000 magnetization 
 keeping initial charge density in first step


--------------------------------------------------------------------------------------------------------


 Maximum index for augmentation-charges        12132 (set IRDMAX)


--------------------------------------------------------------------------------------------------------


 First call to EWALD:  gamma=   0.422
 Maximum number of real-space cells 4x 3x 2
 Maximum number of reciprocal cells 2x 3x 3

    FEWALD:  cpu time    0.0013: real time    0.0013


--------------------------------------- Iteration      1(   1)  ---------------------------------------


    POTLOK:  cpu time    0.0350: real time    0.0351
    SETDIJ:  cpu time    0.0206: real time    0.0206
     EDDAV:  cpu time    3.7973: real time    3.8010
       DOS:  cpu time    0.0023: real time    0.0024
    --------------------------------------------
      LOOP:  cpu time    3.8552: real time    3.8592

 eigenvalue-minimisations  :  5784
 total energy-change (2. order) : 0.1814407E+03  (-0.1787130E+04)
 number of electron      32.0000000 magnetization 
 augmentation part       32.0000000 magnetization 

 Free energy of the ion-electron system (eV)
  ---------------------------------------------------
  alpha Z        PSCENC =        47.66581736
  Ewald energy   TEWEN  =     -1525.21551231
  -Hartree energ DENC   =      -946.56994984
  -exchange      EXHF   =         0.00000000
  -V(xc)+E(xc)   XCENC  =       158.19332182
  PAW double counting   =      2165.36735197    -2185.80918074
  entropy T*S    EENTRO =        -0.00132292
  eigenvalues    EBANDS =      -220.59834686
  atomic energy  EATOM  =      2688.40856919
  Solvation  Ediel_sol  =         0.00000000
  ---------------------------------------------------
  free energy    TOTEN  =       181.44074767 eV

  energy without entropy =      181.44207058  energy(sigma->0) =      181.44140912


--------------------------------------------------------------------------------------------------------




--------------------------------------- Iteration      1(   2)  ---------------------------------------


     EDDAV:  cpu time    4.3930: real time    4.3956
       DOS:  cpu time    0.0010: real time    0.0011
    --------------------------------------------
      LOOP:  cpu time    4.3940: real time    4.3967

 eigenvalue-minimisations  :  7400
 total energy-change (2. order) :-0.2064181E+03  (-0.2004281E+03)
 number of electron      32.0000000 magnetization 
 augmentation part       32.0000000 magnetization 

 Free energy of the ion-electron system (eV)
  ---------------------------------------------------
  alpha Z        PSCENC =        47.66581736
  Ewald energy   TEWEN  =     -1525.21551231
  -Hartree energ DENC   =      -946.56994984
  -exchange      EXHF   =         0.00000000
  -V(xc)+E(xc)   XCENC  =       158.19332182
  PAW double counting   =      2165.36735197    -2185.80918074
  entropy T*S    EENTRO =        -0.00000000
  eigenvalues    EBANDS =      -427.01772367
  atomic energy  EATOM  =      2688.40856919
  Solvation  Ediel_sol  =         0.00000000
  ---------------------------------------------------
  free energy    TOTEN  =       -24.97730622 eV

  energy without entropy =      -24.97730622  energy(sigma->0) =      -24.97730622


--------------------------------------------------------------------------------------------------------




--------------------------------------- Iteration      1(   3)  ---------------------------------------


     EDDAV:  cpu time    4.2686: real time    4.2719
       DOS:  cpu time    0.0010: real time    0.0010
    --------------------------------------------
      LOOP:  cpu time    4.2696: real time    4.2729

 eigenvalue-minimisations  :  6984
 total energy-change (2. order) :-0.9636664E+01  (-0.9614031E+01)
 number of electron      32.0000000 magnetization 
 augmentation part       32.0000000 magnetization 

 Free energy of the ion-electron system (eV)
  ---------------------------------------------------
  alpha Z        PSCENC =        47.66581736
  Ewald energy   TEWEN  =     -1525.21551231
  -Hartree energ DENC   =      -946.56994984
  -exchange      EXHF   =         0.00000000
  -V(xc)+E(xc)   XCENC  =       158.19332182
  PAW double counting   =      2165.36735197    -2185.80918074
  entropy T*S    EENTRO =        -0.00000000
  eigenvalues    EBANDS =      -436.65438725
  atomic energy  EATOM  =      2688.40856919
  Solvation  Ediel_sol  =         0.00000000
  ---------------------------------------------------
  free energy    TOTEN  =       -34.61396981 eV

  energy without entropy =      -34.61396981  energy(sigma->0) =      -34.61396981


--------------------------------------------------------------------------------------------------------




--------------------------------------- Iteration      1(   4)  ---------------------------------------


     EDDAV:  cpu time    3.8889: real time    3.8980
       DOS:  cpu time    0.0012: real time    0.0012
    --------------------------------------------
      LOOP:  cpu time    3.8901: real time    3.8992

 eigenvalue-minimisations  :  6184
 total energy-change (2. order) :-0.5990275E-01  (-0.5990079E-01)
 number of electron      32.0000000 magnetization 
 augmentation part       32.0000000 magnetization 

 Free energy of the ion-electron system (eV)
  ---------------------------------------------------
  alpha Z        PSCENC =        47.66581736
  Ewald energy   TEWEN  =     -1525.21551231
  -Hartree energ DENC   =      -946.56994984
  -exchange      EXHF   =         0.00000000
  -V(xc)+E(xc)   XCENC  =       158.19332182
  PAW double counting   =      2165.36735197    -2185.80918074
  entropy T*S    EENTRO =        -0.00000000
  eigenvalues    EBANDS =      -436.71429000
  atomic energy  EATOM  =      2688.40856919
  Solvation  Ediel_sol  =         0.00000000
  ---------------------------------------------------
  free energy    TOTEN  =       -34.67387256 eV

  energy without entropy =      -34.67387256  energy(sigma->0) =      -34.67387256


--------------------------------------------------------------------------------------------------------




--------------------------------------- Iteration      1(   5)  ---------------------------------------


     EDDAV:  cpu time    4.5447: real time    4.6187
       DOS:  cpu time    0.0011: real time    0.0012
    CHARGE:  cpu time    0.2478: real time    0.2483
    MIXING:  cpu time    0.0010: real time    0.0011
    --------------------------------------------
      LOOP:  cpu time    4.7946: real time    4.8693

 eigenvalue-minimisations  :  6608
 total energy-change (2. order) :-0.3577894E-03  (-0.3577883E-03)
 number of electron      31.9999999 magnetization 
 augmentation part        5.6088342 magnetization 

 Broyden mixing:
  rms(total) = 0.99165E+00    rms(broyden)= 0.99004E+00
  rms(prec ) = 0.16643E+01
  weight for this iteration     100.00

 Free energy of the ion-electron system (eV)
  ---------------------------------------------------
  alpha Z        PSCENC =        47.66581736
  Ewald energy   TEWEN  =     -1525.21551231
  -Hartree energ DENC   =      -946.56994984
  -exchange      EXHF   =         0.00000000
  -V(xc)+E(xc)   XCENC  =       158.19332182
  PAW double counting   =      2165.36735197    -2185.80918074
  entropy T*S    EENTRO =        -0.00000000
  eigenvalues    EBANDS =      -436.71464779
  atomic energy  EATOM  =      2688.40856919
  Solvation  Ediel_sol  =         0.00000000
  ---------------------------------------------------
  free energy    TOTEN  =       -34.67423035 eV

  energy without entropy =      -34.67423035  energy(sigma->0) =      -34.67423035


--------------------------------------------------------------------------------------------------------




--------------------------------------- Iteration      1(   6)  ---------------------------------------


    POTLOK:  cpu time    0.0336: real time    0.0336
    SETDIJ:  cpu time    0.0265: real time    0.0265
     EDDAV:  cpu time    3.7445: real time    3.7476
       DOS:  cpu time    0.0011: real time    0.0012
    CHARGE:  cpu time    0.2918: real time    0.2920
    MIXING:  cpu time    0.0023: real time    0.0023
    --------------------------------------------
      LOOP:  cpu time    4.0997: real time    4.1031

 eigenvalue-minimisations  :  5984
 total energy-change (2. order) : 0.1947801E+01  (-0.5966836E+00)
 number of electron      31.9999999 magnetization 
 augmentation part        5.2432553 magnetization 

 Broyden mixing:
  rms(total) = 0.40199E+00    rms(broyden)= 0.40163E+00
  rms(prec ) = 0.52464E+00
  weight for this iteration     100.00

 eigenvalues of (default mixing * dielectric matrix)
  average eigenvalue GAMMA=   1.0032
  1.0032

 Free energy of the ion-electron system (eV)
  ---------------------------------------------------
  alpha Z        PSCENC =        47.66581736
  Ewald energy   TEWEN  =     -1525.21551231
  -Hartree energ DENC   =      -998.21386355
  -exchange      EXHF   =         0.00000000
  -V(xc)+E(xc)   XCENC  =       161.41572443
  PAW double counting   =      2387.22500607    -2409.48391015
  entropy T*S    EENTRO =        -0.00000000
  eigenvalues    EBANDS =      -384.52826036
  atomic energy  EATOM  =      2688.40856919
  Solvation  Ediel_sol  =         0.00000000
  ---------------------------------------------------
  free energy    TOTEN  =       -32.72642933 eV

  energy without entropy =      -32.72642933  energy(sigma->0) =      -32.72642933


--------------------------------------------------------------------------------------------------------




--------------------------------------- Iteration      1(   7)  ---------------------------------------


    POTLOK:  cpu time    0.0290: real time    0.0291
    SETDIJ:  cpu time    0.0232: real time    0.0234
     EDDAV:  cpu time    3.7303: real time    3.7348
       DOS:  cpu time    0.0010: real time    0.0010
    CHARGE:  cpu time    0.3115: real time    0.3118
    MIXING:  cpu time    0.0015: real time    0.0015
    --------------------------------------------
      LOOP:  cpu time    4.0964: real time    4.1016

 eigenvalue-minimisations  :  5936
 total energy-change (2. order) :-0.4271238E-02  (-0.1177241E-01)
 number of electron      31.9999999 magnetization 
 augmentation part        5.2289789 magnetization 

 Broyden mixing:
  rms(total) = 0.23870E+00    rms(broyden)= 0.23867E+00
  rms(prec ) = 0.31126E+00
  weight for this iteration     100.00

 eigenvalues of (default mixing * dielectric matrix)
  average eigenvalue GAMMA=   1.7473
  1.0445  2.4502

 Free energy of the ion-electron system (eV)
  ---------------------------------------------------
  alpha Z        PSCENC =        47.66581736
  Ewald energy   TEWEN  =     -1525.21551231
  -Hartree energ DENC   =     -1003.31064063
  -exchange      EXHF   =         0.00000000
  -V(xc)+E(xc)   XCENC  =       161.75345877
  PAW double counting   =      2501.33488372    -2523.24029260
  entropy T*S    EENTRO =        -0.00000000
  eigenvalues    EBANDS =      -380.12698406
  atomic energy  EATOM  =      2688.40856919
  Solvation  Ediel_sol  =         0.00000000
  ---------------------------------------------------
  free energy    TOTEN  =       -32.73070056 eV

  energy without entropy =      -32.73070056  energy(sigma->0) =      -32.73070056


--------------------------------------------------------------------------------------------------------




--------------------------------------- Iteration      1(   8)  ---------------------------------------


    POTLOK:  cpu time    0.0322: real time    0.0322
    SETDIJ:  cpu time    0.0239: real time    0.0241
     EDDAV:  cpu time    3.8415: real time    3.8480
       DOS:  cpu time    0.0010: real time    0.0010
    CHARGE:  cpu time    0.2775: real time    0.2776
    MIXING:  cpu time    0.0020: real time    0.0020
    --------------------------------------------
      LOOP:  cpu time    4.1780: real time    4.1849

 eigenvalue-minimisations  :  5784
 total energy-change (2. order) :-0.2446966E-01  (-0.3758631E-02)
 number of electron      31.9999999 magnetization 
 augmentation part        5.2329798 magnetization 

 Broyden mixing:
  rms(total) = 0.18725E-01    rms(broyden)= 0.18715E-01
  rms(prec ) = 0.27254E-01
  weight for this iteration     100.00

 eigenvalues of (default mixing * dielectric matrix)
  average eigenvalue GAMMA=   1.5676
  2.4606  1.0884  1.1539

 Free energy of the ion-electron system (eV)
  ---------------------------------------------------
  alpha Z        PSCENC =        47.66581736
  Ewald energy   TEWEN  =     -1525.21551231
  -Hartree energ DENC   =     -1008.37894731
  -exchange      EXHF   =         0.00000000
  -V(xc)+E(xc)   XCENC  =       162.15193115
  PAW double counting   =      2662.33458066    -2683.66047974
  entropy T*S    EENTRO =        -0.00000000
  eigenvalues    EBANDS =      -376.06112921
  atomic energy  EATOM  =      2688.40856919
  Solvation  Ediel_sol  =         0.00000000
  ---------------------------------------------------
  free energy    TOTEN  =       -32.75517022 eV

  energy without entropy =      -32.75517022  energy(sigma->0) =      -32.75517022


--------------------------------------------------------------------------------------------------------




--------------------------------------- Iteration      1(   9)  ---------------------------------------


    POTLOK:  cpu time    0.0317: real time    0.0317
    SETDIJ:  cpu time    0.0242: real time    0.0242
     EDDAV:  cpu time    4.0577: real time    4.0603
       DOS:  cpu time    0.0012: real time    0.0012
    CHARGE:  cpu time    0.2421: real time    0.2422
    MIXING:  cpu time    0.0009: real time    0.0009
    --------------------------------------------
      LOOP:  cpu time    4.3578: real time    4.3606

 eigenvalue-minimisations  :  6856
 total energy-change (2. order) :-0.6130384E-03  (-0.2161010E-03)
 number of electron      31.9999999 magnetization 
 augmentation part        5.2295986 magnetization 

 Broyden mixing:
  rms(total) = 0.10779E-01    rms(broyden)= 0.10775E-01
  rms(prec ) = 0.14757E-01
  weight for this iteration     100.00

 eigenvalues of (default mixing * dielectric matrix)
  average eigenvalue GAMMA=   1.8381
  1.0209  1.0209  2.6552  2.6552

 Free energy of the ion-electron system (eV)
  ---------------------------------------------------
  alpha Z        PSCENC =        47.66581736
  Ewald energy   TEWEN  =     -1525.21551231
  -Hartree energ DENC   =     -1008.94389240
  -exchange      EXHF   =         0.00000000
  -V(xc)+E(xc)   XCENC  =       162.18607885
  PAW double counting   =      2657.92706758    -2679.28451119
  entropy T*S    EENTRO =        -0.00000000
  eigenvalues    EBANDS =      -375.49940033
  atomic energy  EATOM  =      2688.40856919
  Solvation  Ediel_sol  =         0.00000000
  ---------------------------------------------------
  free energy    TOTEN  =       -32.75578326 eV

  energy without entropy =      -32.75578326  energy(sigma->0) =      -32.75578326


--------------------------------------------------------------------------------------------------------




--------------------------------------- Iteration      1(  10)  ---------------------------------------


    POTLOK:  cpu time    0.0285: real time    0.0286
    SETDIJ:  cpu time    0.0234: real time    0.0234
     EDDAV:  cpu time    3.5929: real time    3.5963
       DOS:  cpu time    0.0010: real time    0.0010
    CHARGE:  cpu time    0.2580: real time    0.2581
    MIXING:  cpu time    0.0023: real time    0.0023
    --------------------------------------------
      LOOP:  cpu time    3.9060: real time    3.9098

 eigenvalue-minimisations  :  5776
 total energy-change (2. order) :-0.3718275E-03  (-0.3870658E-04)
 number of electron      31.9999999 magnetization 
 augmentation part        5.2305604 magnetization 

 Broyden mixing:
  rms(total) = 0.24207E-02    rms(broyden)= 0.24192E-02
  rms(prec ) = 0.31147E-02
  weight for this iteration     100.00

 eigenvalues of (default mixing * dielectric matrix)
  average eigenvalue GAMMA=   1.6088
  2.6828  2.4211  1.0025  1.0025  0.9352

 Free energy of the ion-electron system (eV)
  ---------------------------------------------------
  alpha Z        PSCENC =        47.66581736
  Ewald energy   TEWEN  =     -1525.21551231
  -Hartree energ DENC   =     -1008.88875861
  -exchange      EXHF   =         0.00000000
  -V(xc)+E(xc)   XCENC  =       162.18155483
  PAW double counting   =      2651.60856908    -2672.97346014
  entropy T*S    EENTRO =        -0.00000000
  eigenvalues    EBANDS =      -375.54293448
  atomic energy  EATOM  =      2688.40856919
  Solvation  Ediel_sol  =         0.00000000
  ---------------------------------------------------
  free energy    TOTEN  =       -32.75615509 eV

  energy without entropy =      -32.75615509  energy(sigma->0) =      -32.75615509


--------------------------------------------------------------------------------------------------------




--------------------------------------- Iteration      1(  11)  ---------------------------------------


    POTLOK:  cpu time    0.0323: real time    0.0325
    SETDIJ:  cpu time    0.0241: real time    0.0242
     EDDAV:  cpu time    3.8878: real time    3.8904
       DOS:  cpu time    0.0008: real time    0.0008
    CHARGE:  cpu time    0.2318: real time    0.2319
    MIXING:  cpu time    0.0022: real time    0.0022
    --------------------------------------------
      LOOP:  cpu time    4.1790: real time    4.1821

 eigenvalue-minimisations  :  6472
 total energy-change (2. order) : 0.5634625E-05  (-0.2180558E-05)
 number of electron      31.9999999 magnetization 
 augmentation part        5.2304123 magnetization 

 Broyden mixing:
  rms(total) = 0.78371E-03    rms(broyden)= 0.78097E-03
  rms(prec ) = 0.10503E-02
  weight for this iteration     100.00

 eigenvalues of (default mixing * dielectric matrix)
  average eigenvalue GAMMA=   1.7289
  2.6874  2.5437  1.9417  1.0301  1.0301  1.1405

 Free energy of the ion-electron system (eV)
  ---------------------------------------------------
  alpha Z        PSCENC =        47.66581736
  Ewald energy   TEWEN  =     -1525.21551231
  -Hartree energ DENC   =     -1008.92728660
  -exchange      EXHF   =         0.00000000
  -V(xc)+E(xc)   XCENC  =       162.18485605
  PAW double counting   =      2653.04897125    -2674.41228798
  entropy T*S    EENTRO =        -0.00000000
  eigenvalues    EBANDS =      -375.50927641
  atomic energy  EATOM  =      2688.40856919
  Solvation  Ediel_sol  =         0.00000000
  ---------------------------------------------------
  free energy    TOTEN  =       -32.75614945 eV

  energy without entropy =      -32.75614945  energy(sigma->0) =      -32.75614945


--------------------------------------------------------------------------------------------------------




--------------------------------------- Iteration      1(  12)  ---------------------------------------


    POTLOK:  cpu time    0.0277: real time    0.0279
    SETDIJ:  cpu time    0.0230: real time    0.0231
     EDDAV:  cpu time    3.6365: real time    3.6390
       DOS:  cpu time    0.0010: real time    0.0010
    CHARGE:  cpu time    0.3022: real time    0.3025
    MIXING:  cpu time    0.0012: real time    0.0012
    --------------------------------------------
      LOOP:  cpu time    3.9916: real time    3.9947

 eigenvalue-minimisations  :  5776
 total energy-change (2. order) :-0.1266605E-05  (-0.4786022E-06)
 number of electron      31.9999999 magnetization 
 augmentation part        5.2302611 magnetization 

 Broyden mixing:
  rms(total) = 0.23508E-03    rms(broyden)= 0.22596E-03
  rms(prec ) = 0.33294E-03
  weight for this iteration     100.00

 eigenvalues of (default mixing * dielectric matrix)
  average eigenvalue GAMMA=   1.6190
  2.7823  2.4726  1.8952  0.9233  1.0131  1.0131  1.2335

 Free energy of the ion-electron system (eV)
  ---------------------------------------------------
  alpha Z        PSCENC =        47.66581736
  Ewald energy   TEWEN  =     -1525.21551231
  -Hartree energ DENC   =     -1008.93919076
  -exchange      EXHF   =         0.00000000
  -V(xc)+E(xc)   XCENC  =       162.18569613
  PAW double counting   =      2652.71412406    -2674.07995501
  entropy T*S    EENTRO =        -0.00000000
  eigenvalues    EBANDS =      -375.49569937
  atomic energy  EATOM  =      2688.40856919
  Solvation  Ediel_sol  =         0.00000000
  ---------------------------------------------------
  free energy    TOTEN  =       -32.75615072 eV

  energy without entropy =      -32.75615072  energy(sigma->0) =      -32.75615072


--------------------------------------------------------------------------------------------------------




--------------------------------------- Iteration      1(  13)  ---------------------------------------


    POTLOK:  cpu time    0.0324: real time    0.0326
    SETDIJ:  cpu time    0.0241: real time    0.0242
     EDDAV:  cpu time    2.4819: real time    2.4846
       DOS:  cpu time    0.0008: real time    0.0008
    --------------------------------------------
      LOOP:  cpu time    2.5393: real time    2.5423

 eigenvalue-minimisations  :  3192
 total energy-change (2. order) :-0.7399194E-08  (-0.4896649E-07)
 number of electron      31.9999999 magnetization 
 augmentation part        5.2302611 magnetization 

 Free energy of the ion-electron system (eV)
  ---------------------------------------------------
  alpha Z        PSCENC =        47.66581736
  Ewald energy   TEWEN  =     -1525.21551231
  -Hartree energ DENC   =     -1008.93250587
  -exchange      EXHF   =         0.00000000
  -V(xc)+E(xc)   XCENC  =       162.18530948
  PAW double counting   =      2652.72990306    -2674.09519760
  entropy T*S    EENTRO =        -0.00000000
  eigenvalues    EBANDS =      -375.50253403
  atomic energy  EATOM  =      2688.40856919
  Solvation  Ediel_sol  =         0.00000000
  ---------------------------------------------------
  free energy    TOTEN  =       -32.75615073 eV

  energy without entropy =      -32.75615073  energy(sigma->0) =      -32.75615073


--------------------------------------------------------------------------------------------------------




 average (electrostatic) potential at core
  the test charge radii are     0.5201  0.7167
  (the norm of the test charge is              1.0000)
       1 -41.4906       2 -41.4906       3 -41.4906       4 -41.4906       5 -81.5236
       6 -81.5236       7 -81.5236       8 -81.5236
 
 
 
 E-fermi :  -4.4717     XC(G=0):  -8.0808     alpha+bet : -4.9862


 k-point     1 :       0.0000    0.0000    0.0000
  band No.  band energies     occupation 
      1     -26.4765      2.00000
      2     -26.2657      2.00000
      3     -25.6675      2.00000
      4     -25.6110      2.00000
      5     -10.7884      2.00000
      6     -10.6958      2.00000
      7      -7.9990      2.00000
      8      -7.9722      2.00000
      9      -6.9190      2.00000
     10      -5.8914      2.00000
     11      -5.6715      2.00000
     12      -5.4739      2.00000
     13      -5.3756      2.00000
     14      -5.2963      2.00000
     15      -4.9889      2.00000
     16      -4.9599      2.00000
     17       2.0807      0.00000
     18       5.1140      0.00000
     19       7.9178      0.00000
     20       8.7066      0.00000
     21       8.7736      0.00000
     22      10.2635      0.00000
     23      11.7105      0.00000
     24      12.6894      0.00000

 k-point     2 :       0.0909    0.0000    0.0000
  band No.  band energies     occupation 
      1     -26.4531      2.00000
      2     -26.2456      2.00000
      3     -25.6758      2.00000
      4     -25.6171      2.00000
      5     -10.7344      2.00000
      6     -10.6417      2.00000
      7      -8.0512      2.00000
      8      -8.0280      2.00000
      9      -6.8783      2.00000
     10      -5.9648      2.00000
     11      -5.7365      2.00000
     12      -5.4877      2.00000
     13      -5.3653      2.00000
     14      -5.2894      2.00000
     15      -5.0978      2.00000
     16      -5.0937      2.00000
     17       2.3006      0.00000
     18       5.2862      0.00000
     19       7.9881      0.00000
     20       8.7431      0.00000
     21       8.7458      0.00000
     22      10.3694      0.00000
     23      11.8144      0.00000
     24      12.7739      0.00000

 k-point     3 :       0.1818    0.0000    0.0000
  band No.  band energies     occupation 
      1     -26.3870      2.00000
      2     -26.1894      2.00000
      3     -25.7023      2.00000
      4     -25.6363      2.00000
      5     -10.5761      2.00000
      6     -10.4845      2.00000
      7      -8.2053      2.00000
      8      -8.1936      2.00000
      9      -6.7606      2.00000
     10      -6.1523      2.00000
     11      -5.9031      2.00000
     12      -5.5321      2.00000
     13      -5.4453      2.00000
     14      -5.3652      2.00000
     15      -5.3373      2.00000
     16      -5.2710      2.00000
     17       2.8978      0.00000
     18       5.7552      0.00000
     19       8.1515      0.00000
     20       8.5978      0.00000
     21       8.8596      0.00000
     22      10.6610      0.00000
     23      12.1079      0.00000
     24      13.0285      0.00000

 k-point     4 :       0.2727    0.0000    0.0000
  band No.  band energies     occupation 
      1     -26.2868      2.00000
      2     -26.1049      2.00000
      3     -25.7508      2.00000
      4     -25.6720      2.00000
      5     -10.3237      2.00000
      6     -10.2348      2.00000
      7      -8.4599      2.00000
      8      -8.4524      2.00000
      9      -6.5801      2.00000
     10      -6.3750      2.00000
     11      -6.1021      2.00000
     12      -5.8664      2.00000
     13      -5.7050      2.00000
     14      -5.6147      2.00000
     15      -5.2992      2.00000
     16      -5.2480      2.00000
     17       3.7466      0.00000
     18       6.4049      0.00000
     19       8.2329      0.00000
     20       8.2998      0.00000
     21       9.0793      0.00000
     22      11.0295      0.00000
     23      12.3965      0.00000
     24      12.8948      0.00000

 k-point     5 :       0.3636    0.0000    0.0000
  band No.  band energies     occupation 
      1     -26.1658      2.00000
      2     -26.0036      2.00000
      3     -25.8240      2.00000
      4     -25.7274      2.00000
      5      -9.9940      2.00000
      6      -9.9112      2.00000
      7      -8.8070      2.00000
      8      -8.7758      2.00000
      9      -6.5461      2.00000
     10      -6.3605      2.00000
     11      -6.2568      2.00000
     12      -6.2424      2.00000
     13      -6.0151      2.00000
     14      -5.7427      2.00000
     15      -5.2614      2.00000
     16      -5.2292      2.00000
     17       4.7325      0.00000
     18       7.0984      0.00000
     19       7.6082      0.00000
     20       8.3185      0.00000
     21       9.4385      0.00000
     22      11.3616      0.00000
     23      11.7227      0.00000
     24      12.4723      0.00000

 k-point     6 :       0.4545    0.0000    0.0000
  band No.  band energies     occupation 
      1     -26.0390      2.00000
      2     -25.9218      2.00000
      3     -25.8993      2.00000
      4     -25.8047      2.00000
      5      -9.6104      2.00000
      6      -9.5389      2.00000
      7      -9.2030      2.00000
      8      -9.1490      2.00000
      9      -6.5988      2.00000
     10      -6.4980      2.00000
     11      -6.3084      2.00000
     12      -6.2274      2.00000
     13      -6.1303      2.00000
     14      -5.9176      2.00000
     15      -5.2338      2.00000
     16      -5.2229      2.00000
     17       5.7648      0.00000
     18       6.7560      0.00000
     19       7.7065      0.00000
     20       8.1289      0.00000
     21       9.9812      0.00000
     22      10.7459      0.00000
     23      11.6703      0.00000
     24      12.0324      0.00000

 k-point     7 :       0.0000    0.1250    0.0000
  band No.  band energies     occupation 
      1     -26.4489      2.00000
      2     -26.2417      2.00000
      3     -25.7042      2.00000
      4     -25.6345      2.00000
      5     -10.7004      2.00000
      6     -10.6047      2.00000
      7      -8.1364      2.00000
      8      -8.0948      2.00000
      9      -6.8801      2.00000
     10      -5.8608      2.00000
     11      -5.6448      2.00000
     12      -5.6142      2.00000
     13      -5.2906      2.00000
     14      -5.2879      2.00000
     15      -5.0337      2.00000
     16      -4.9811      2.00000
     17       2.2964      0.00000
     18       5.3202      0.00000
     19       7.6548      0.00000
     20       8.7355      0.00000
     21       8.7754      0.00000
     22      10.3393      0.00000
     23      11.0697      0.00000
     24      13.1555      0.00000

 k-point     8 :       0.0909    0.1250    0.0000
  band No.  band energies     occupation 
      1     -26.4267      2.00000
      2     -26.2227      2.00000
      3     -25.7110      2.00000
      4     -25.6397      2.00000
      5     -10.6524      2.00000
      6     -10.5561      2.00000
      7      -8.1912      2.00000
      8      -8.1481      2.00000
      9      -6.8401      2.00000
     10      -5.9307      2.00000
     11      -5.7074      2.00000
     12      -5.6146      2.00000
     13      -5.2914      2.00000
     14      -5.2818      2.00000
     15      -5.1333      2.00000
     16      -5.0975      2.00000
     17       2.5024      0.00000
     18       5.4787      0.00000
     19       7.7348      0.00000
     20       8.7477      0.00000
     21       8.7721      0.00000
     22      10.4134      0.00000
     23      11.1501      0.00000
     24      13.1382      0.00000

 k-point     9 :       0.1818    0.1250    0.0000
  band No.  band energies     occupation 
      1     -26.3632      2.00000
      2     -26.1690      2.00000
      3     -25.7323      2.00000
      4     -25.6565      2.00000
      5     -10.5118      2.00000
      6     -10.4136      2.00000
      7      -8.3532      2.00000
      8      -8.3034      2.00000
      9      -6.7251      2.00000
     10      -6.1084      2.00000
     11      -5.8672      2.00000
     12      -5.6249      2.00000
     13      -5.4248      2.00000
     14      -5.3615      2.00000
     15      -5.2906      2.00000
     16      -5.2643      2.00000
     17       3.0664      0.00000
     18       5.9096      0.00000
     19       7.9183      0.00000
     20       8.6212      0.00000
     21       8.8888      0.00000
     22      10.6031      0.00000
     23      11.3803      0.00000
     24      13.0187      0.00000

 k-point    10 :       0.2727    0.1250    0.0000
  band No.  band energies     occupation 
      1     -26.2675      2.00000
      2     -26.0884      2.00000
      3     -25.7728      2.00000
      4     -25.6880      2.00000
      5     -10.2891      2.00000
      6     -10.1878      2.00000
      7      -8.6109      2.00000
      8      -8.5462      2.00000
      9      -6.5498      2.00000
     10      -6.3164      2.00000
     11      -6.0559      2.00000
     12      -5.8037      2.00000
     13      -5.6715      2.00000
     14      -5.6685      2.00000
     15      -5.2805      2.00000
     16      -5.2448      2.00000
     17       3.8745      0.00000
     18       6.5062      0.00000
     19       8.0003      0.00000
     20       8.3904      0.00000
     21       9.1079      0.00000
     22      10.8204      0.00000
     23      11.6769      0.00000
     24      12.6775      0.00000

 k-point    11 :       0.3636    0.1250    0.0000
  band No.  band energies     occupation 
      1     -26.1526      2.00000
      2     -25.9927      2.00000
      3     -25.8370      2.00000
      4     -25.7377      2.00000
      5      -9.9995      2.00000
      6      -9.8957      2.00000
      7      -8.9378      2.00000
      8      -8.8552      2.00000
      9      -6.4700      2.00000
     10      -6.3392      2.00000
     11      -6.1989      2.00000
     12      -6.1502      2.00000
     13      -5.9573      2.00000
     14      -5.7657      2.00000
     15      -5.2597      2.00000
     16      -5.2296      2.00000
     17       4.8194      0.00000
     18       7.1441      0.00000
     19       7.5568      0.00000
     20       8.2959      0.00000
     21       9.4638      0.00000
     22      11.0310      0.00000
     23      11.5205      0.00000
     24      12.1738      0.00000

 k-point    12 :       0.4545    0.1250    0.0000
  band No.  band energies     occupation 
      1     -26.0339      2.00000
      2     -25.9254      2.00000
      3     -25.8955      2.00000
      4     -25.8077      2.00000
      5      -9.6620      2.00000
      6      -9.5588      2.00000
      7      -9.2993      2.00000
      8      -9.2027      2.00000
      9      -6.5070      2.00000
     10      -6.3999      2.00000
     11      -6.2412      2.00000
     12      -6.1590      2.00000
     13      -6.1162      2.00000
     14      -5.9193      2.00000
     15      -5.2380      2.00000
     16      -5.2264      2.00000
     17       5.8112      0.00000
     18       6.7608      0.00000
     19       7.7080      0.00000
     20       8.1075      0.00000
     21       9.9948      0.00000
     22      10.7220      0.00000
     23      11.3011      0.00000
     24      11.6840      0.00000

 k-point    13 :       0.0000    0.2500    0.0000
  band No.  band energies     occupation 
      1     -26.3696      2.00000
      2     -26.1727      2.00000
      3     -25.8032      2.00000
      4     -25.7052      2.00000
      5     -10.4446      2.00000
      6     -10.3428      2.00000
      7      -8.5031      2.00000
      8      -8.4353      2.00000
      9      -6.7644      2.00000
     10      -5.8384      2.00000
     11      -5.7725      2.00000
     12      -5.5682      2.00000
     13      -5.2650      2.00000
     14      -5.2229      2.00000
     15      -5.1455      2.00000
     16      -5.0551      2.00000
     17       2.8982      0.00000
     18       5.8921      0.00000
     19       6.9320      0.00000
     20       8.6747      0.00000
     21       8.8283      0.00000
     22      10.2954      0.00000
     23      10.6666      0.00000
     24      13.0608      0.00000

 k-point    14 :       0.0909    0.2500    0.0000
  band No.  band energies     occupation 
      1     -26.3501      2.00000
      2     -26.1562      2.00000
      3     -25.8056      2.00000
      4     -25.7073      2.00000
      5     -10.4130      2.00000
      6     -10.3085      2.00000
      7      -8.5561      2.00000
      8      -8.4821      2.00000
      9      -6.7271      2.00000
     10      -5.8360      2.00000
     11      -5.8271      2.00000
     12      -5.6248      2.00000
     13      -5.2618      2.00000
     14      -5.2266      2.00000
     15      -5.2176      2.00000
     16      -5.1425      2.00000
     17       3.0724      0.00000
     18       6.0154      0.00000
     19       7.0257      0.00000
     20       8.6599      0.00000
     21       8.8656      0.00000
     22      10.3588      0.00000
     23      10.6662      0.00000
     24      12.9733      0.00000

 k-point    15 :       0.1818    0.2500    0.0000
  band No.  band energies     occupation 
      1     -26.2947      2.00000
      2     -26.1103      2.00000
      3     -25.8140      2.00000
      4     -25.7159      2.00000
      5     -10.3214      2.00000
      6     -10.2084      2.00000
      7      -8.7086      2.00000
      8      -8.6171      2.00000
      9      -6.6207      2.00000
     10      -5.9870      2.00000
     11      -5.8098      2.00000
     12      -5.7671      2.00000
     13      -5.4163      2.00000
     14      -5.3635      2.00000
     15      -5.2477      2.00000
     16      -5.2371      2.00000
     17       3.5557      0.00000
     18       6.3490      0.00000
     19       7.2542      0.00000
     20       8.5852      0.00000
     21       8.9836      0.00000
     22      10.5339      0.00000
     23      10.6359      0.00000
     24      12.6651      0.00000

 k-point    16 :       0.2727    0.2500    0.0000
  band No.  band energies     occupation 
      1     -26.2122      2.00000
      2     -26.0418      2.00000
      3     -25.8346      2.00000
      4     -25.7343      2.00000
      5     -10.1772      2.00000
      6     -10.0508      2.00000
      7      -8.9402      2.00000
      8      -8.8241      2.00000
      9      -6.4610      2.00000
     10      -6.1594      2.00000
     11      -5.9339      2.00000
     12      -5.7989      2.00000
     13      -5.6900      2.00000
     14      -5.6177      2.00000
     15      -5.2497      2.00000
     16      -5.2365      2.00000
     17       4.2586      0.00000
     18       6.8054      0.00000
     19       7.4524      0.00000
     20       8.4201      0.00000
     21       9.2022      0.00000
     22      10.5015      0.00000
     23      10.8225      0.00000
     24      12.1292      0.00000

 k-point    17 :       0.3636    0.2500    0.0000
  band No.  band energies     occupation 
      1     -26.1154      2.00000
      2     -25.9623      2.00000
      3     -25.8738      2.00000
      4     -25.7672      2.00000
      5      -9.9885      2.00000
      6      -9.8471      2.00000
      7      -9.2162      2.00000
      8      -9.0770      2.00000
      9      -6.2757      2.00000
     10      -6.2738      2.00000
     11      -6.0535      2.00000
     12      -5.9632      2.00000
     13      -5.8447      2.00000
     14      -5.8313      2.00000
     15      -5.2549      2.00000
     16      -5.2311      2.00000
     17       5.0877      0.00000
     18       7.2886      0.00000
     19       7.3224      0.00000
     20       8.2430      0.00000
     21       9.5481      0.00000
     22      10.4283      0.00000
     23      10.9898      0.00000
     24      11.5120      0.00000

 k-point    18 :       0.4545    0.2500    0.0000
  band No.  band energies     occupation 
      1     -26.0189      2.00000
      2     -25.9360      2.00000
      3     -25.8843      2.00000
      4     -25.8176      2.00000
      5      -9.7606      2.00000
      6      -9.6086      2.00000
      7      -9.4988      2.00000
      8      -9.3466      2.00000
      9      -6.2869      2.00000
     10      -6.1851      2.00000
     11      -6.0833      2.00000
     12      -6.0759      2.00000
     13      -6.0079      2.00000
     14      -5.9263      2.00000
     15      -5.2473      2.00000
     16      -5.2357      2.00000
     17       5.9538      0.00000
     18       6.7529      0.00000
     19       7.7227      0.00000
     20       8.0484      0.00000
     21      10.0424      0.00000
     22      10.5727      0.00000
     23      10.6409      0.00000
     24      10.9628      0.00000

 k-point    19 :       0.0000    0.3750    0.0000
  band No.  band energies     occupation 
      1     -26.2477      2.00000
      2     -26.0677      2.00000
      3     -25.9428      2.00000
      4     -25.8138      2.00000
      5     -10.0464      2.00000
      6      -9.9401      2.00000
      7      -9.0061      2.00000
      8      -8.9150      2.00000
      9      -6.5811      2.00000
     10      -6.0923      2.00000
     11      -5.6373      2.00000
     12      -5.4521      2.00000
     13      -5.3000      2.00000
     14      -5.2347      2.00000
     15      -5.1992      2.00000
     16      -5.1729      2.00000
     17       3.7822      0.00000
     18       5.9287      0.00000
     19       6.7056      0.00000
     20       8.2886      0.00000
     21       9.0034      0.00000
     22       9.7149      0.00000
     23      11.2460      0.00000
     24      12.6881      0.00000

 k-point    20 :       0.0909    0.3750    0.0000
  band No.  band energies     occupation 
      1     -26.2325      2.00000
      2     -26.0552      2.00000
      3     -25.9392      2.00000
      4     -25.8115      2.00000
      5     -10.0383      2.00000
      6      -9.9270      2.00000
      7      -9.0459      2.00000
      8      -8.9474      2.00000
      9      -6.5487      2.00000
     10      -6.0745      2.00000
     11      -5.6885      2.00000
     12      -5.5031      2.00000
     13      -5.3532      2.00000
     14      -5.2395      2.00000
     15      -5.2286      2.00000
     16      -5.2024      2.00000
     17       3.9237      0.00000
     18       6.0323      0.00000
     19       6.7864      0.00000
     20       8.2982      0.00000
     21       9.0429      0.00000
     22       9.7663      0.00000
     23      11.1638      0.00000
     24      12.5335      0.00000

 k-point    21 :       0.1818    0.3750    0.0000
  band No.  band energies     occupation 
      1     -26.1898      2.00000
      2     -26.0208      2.00000
      3     -25.9307      2.00000
      4     -25.8068      2.00000
      5     -10.0151      2.00000
      6      -9.8889      2.00000
      7      -9.1595      2.00000
      8      -9.0403      2.00000
      9      -6.4571      2.00000
     10      -6.0281      2.00000
     11      -5.8143      2.00000
     12      -5.6311      2.00000
     13      -5.4893      2.00000
     14      -5.3987      2.00000
     15      -5.2281      2.00000
     16      -5.2127      2.00000
     17       4.3170      0.00000
     18       6.3027      0.00000
     19       6.9973      0.00000
     20       8.2977      0.00000
     21       9.1658      0.00000
     22       9.9188      0.00000
     23      10.9010      0.00000
     24      12.0888      0.00000

 k-point    22 :       0.2727    0.3750    0.0000
  band No.  band energies     occupation 
      1     -26.1282      2.00000
      2     -25.9715      2.00000
      3     -25.9245      2.00000
      4     -25.8047      2.00000
      5      -9.9771      2.00000
      6      -9.8288      2.00000
      7      -9.3272      2.00000
      8      -9.1800      2.00000
      9      -6.3232      2.00000
     10      -5.9818      2.00000
     11      -5.9424      2.00000
     12      -5.7781      2.00000
     13      -5.6598      2.00000
     14      -5.6019      2.00000
     15      -5.2298      2.00000
     16      -5.2277      2.00000
     17       4.8872      0.00000
     18       6.6266      0.00000
     19       7.2672      0.00000
     20       8.2372      0.00000
     21       9.3859      0.00000
     22      10.1616      0.00000
     23      10.4911      0.00000
     24      11.4602      0.00000

 k-point    23 :       0.3636    0.3750    0.0000
  band No.  band energies     occupation 
      1     -26.0597      2.00000
      2     -25.9293      2.00000
      3     -25.9171      2.00000
      4     -25.8115      2.00000
      5      -9.9182      2.00000
      6      -9.7470      2.00000
      7      -9.5162      2.00000
      8      -9.3432      2.00000
      9      -6.1740      2.00000
     10      -6.0482      2.00000
     11      -5.9336      2.00000
     12      -5.8836      2.00000
     13      -5.8275      2.00000
     14      -5.7804      2.00000
     15      -5.2478      2.00000
     16      -5.2345      2.00000
     17       5.5449      0.00000
     18       6.8175      0.00000
     19       7.5339      0.00000
     20       8.1130      0.00000
     21       9.7164      0.00000
     22      10.1135      0.00000
     23      10.4324      0.00000
     24      10.8148      0.00000

 k-point    24 :       0.4545    0.3750    0.0000
  band No.  band energies     occupation 
      1     -25.9979      2.00000
      2     -25.9527      2.00000
      3     -25.8683      2.00000
      4     -25.8321      2.00000
      5      -9.8261      2.00000
      6      -9.6905      2.00000
      7      -9.6396      2.00000
      8      -9.5030      2.00000
      9      -6.0592      2.00000
     10      -6.0514      2.00000
     11      -5.9585      2.00000
     12      -5.9519      2.00000
     13      -5.9192      2.00000
     14      -5.8905      2.00000
     15      -5.2549      2.00000
     16      -5.2469      2.00000
     17       6.1872      0.00000
     18       6.6700      0.00000
     19       7.7678      0.00000
     20       7.9587      0.00000
     21      10.0179      0.00000
     22      10.1369      0.00000
     23      10.2928      0.00000
     24      10.4834      0.00000

 k-point    25 :       0.0000    0.5000    0.0000
  band No.  band energies     occupation 
      1     -26.0988      2.00000
      2     -26.0988      2.00000
      3     -25.9419      2.00000
      4     -25.9419      2.00000
      5      -9.5471      2.00000
      6      -9.5471      2.00000
      7      -9.4433      2.00000
      8      -9.4433      2.00000
      9      -6.3489      2.00000
     10      -6.3489      2.00000
     11      -5.4723      2.00000
     12      -5.4723      2.00000
     13      -5.3132      2.00000
     14      -5.3132      2.00000
     15      -5.2081      2.00000
     16      -5.2081      2.00000
     17       4.8317      0.00000
     18       4.8317      0.00000
     19       7.5776      0.00000
     20       7.5776      0.00000
     21       9.2887      0.00000
     22       9.2887      0.00000
     23      12.0017      0.00000
     24      12.0017      0.00000

 k-point    26 :       0.0909    0.5000    0.0000
  band No.  band energies     occupation 
      1     -26.0891      2.00000
      2     -26.0891      2.00000
      3     -25.9342      2.00000
      4     -25.9342      2.00000
      5      -9.5647      2.00000
      6      -9.5647      2.00000
      7      -9.4541      2.00000
      8      -9.4541      2.00000
      9      -6.3231      2.00000
     10      -6.3231      2.00000
     11      -5.5187      2.00000
     12      -5.5187      2.00000
     13      -5.3644      2.00000
     14      -5.3644      2.00000
     15      -5.2089      2.00000
     16      -5.2089      2.00000
     17       4.9495      0.00000
     18       4.9495      0.00000
     19       7.6193      0.00000
     20       7.6193      0.00000
     21       9.3326      0.00000
     22       9.3326      0.00000
     23      11.8551      0.00000
     24      11.8551      0.00000

 k-point    27 :       0.1818    0.5000    0.0000
  band No.  band energies     occupation 
      1     -26.0626      2.00000
      2     -26.0626      2.00000
      3     -25.9142      2.00000
      4     -25.9142      2.00000
      5      -9.6151      2.00000
      6      -9.6151      2.00000
      7      -9.4851      2.00000
      8      -9.4851      2.00000
      9      -6.2519      2.00000
     10      -6.2519      2.00000
     11      -5.6341      2.00000
     12      -5.6341      2.00000
     13      -5.4947      2.00000
     14      -5.4947      2.00000
     15      -5.2131      2.00000
     16      -5.2131      2.00000
     17       5.2705      0.00000
     18       5.2705      0.00000
     19       7.7139      0.00000
     20       7.7139      0.00000
     21       9.4663      0.00000
     22       9.4663      0.00000
     23      11.4395      0.00000
     24      11.4395      0.00000

 k-point    28 :       0.2727    0.5000    0.0000
  band No.  band energies     occupation 
      1     -26.0273      2.00000
      2     -26.0273      2.00000
      3     -25.8881      2.00000
      4     -25.8881      2.00000
      5      -9.6879      2.00000
      6      -9.6879      2.00000
      7      -9.5308      2.00000
      8      -9.5308      2.00000
      9      -6.1533      2.00000
     10      -6.1533      2.00000
     11      -5.7651      2.00000
     12      -5.7651      2.00000
     13      -5.6518      2.00000
     14      -5.6518      2.00000
     15      -5.2237      2.00000
     16      -5.2237      2.00000
     17       5.7121      0.00000
     18       5.7121      0.00000
     19       7.7998      0.00000
     20       7.7998      0.00000
     21       9.6933      0.00000
     22       9.6933      0.00000
     23      10.8592      0.00000
     24      10.8592      0.00000

 k-point    29 :       0.3636    0.5000    0.0000
  band No.  band energies     occupation 
      1     -25.9945      2.00000
      2     -25.9945      2.00000
      3     -25.8640      2.00000
      4     -25.8640      2.00000
      5      -9.7612      2.00000
      6      -9.7612      2.00000
      7      -9.5782      2.00000
      8      -9.5782      2.00000
      9      -6.0571      2.00000
     10      -6.0571      2.00000
     11      -5.8626      2.00000
     12      -5.8626      2.00000
     13      -5.7859      2.00000
     14      -5.7859      2.00000
     15      -5.2404      2.00000
     16      -5.2404      2.00000
     17       6.1597      0.00000
     18       6.1597      0.00000
     19       7.8432      0.00000
     20       7.8432      0.00000
     21      10.0008      0.00000
     22      10.0008      0.00000
     23      10.2903      0.00000
     24      10.2903      0.00000

 k-point    30 :       0.4545    0.5000    0.0000
  band No.  band energies     occupation 
      1     -25.9744      2.00000
      2     -25.9744      2.00000
      3     -25.8502      2.00000
      4     -25.8502      2.00000
      5      -9.8074      2.00000
      6      -9.8074      2.00000
      7      -9.6088      2.00000
      8      -9.6088      2.00000
      9      -6.0023      2.00000
     10      -6.0023      2.00000
     11      -5.8996      2.00000
     12      -5.8996      2.00000
     13      -5.8662      2.00000
     14      -5.8662      2.00000
     15      -5.2548      2.00000
     16      -5.2548      2.00000
     17       6.4612      0.00000
     18       6.4612      0.00000
     19       7.8534      0.00000
     20       7.8534      0.00000
     21       9.9186      0.00000
     22       9.9186      0.00000
     23      10.2961      0.00000
     24      10.2961      0.00000

 k-point    31 :       0.0000    0.0000    0.1667
  band No.  band energies     occupation 
      1     -26.4627      2.00000
      2     -26.2802      2.00000
      3     -25.6635      2.00000
      4     -25.6144      2.00000
      5     -10.7854      2.00000
      6     -10.7050      2.00000
      7      -7.9969      2.00000
      8      -7.9735      2.00000
      9      -6.8272      2.00000
     10      -5.8770      2.00000
     11      -5.6865      2.00000
     12      -5.4586      2.00000
     13      -5.4286      2.00000
     14      -5.3734      2.00000
     15      -4.9869      2.00000
     16      -4.9618      2.00000
     17       2.2720      0.00000
     18       4.8524      0.00000
     19       7.9584      0.00000
     20       8.7188      0.00000
     21       8.9976      0.00000
     22      10.2540      0.00000
     23      11.4748      0.00000
     24      12.7437      0.00000

 k-point    32 :       0.0909   -0.0000    0.1667
  band No.  band energies     occupation 
      1     -26.4397      2.00000
      2     -26.2604      2.00000
      3     -25.6720      2.00000
      4     -25.6209      2.00000
      5     -10.7315      2.00000
      6     -10.6514      2.00000
      7      -8.0494      2.00000
      8      -8.0292      2.00000
      9      -6.7891      2.00000
     10      -5.9511      2.00000
     11      -5.7542      2.00000
     12      -5.4690      2.00000
     13      -5.4303      2.00000
     14      -5.3638      2.00000
     15      -5.0918      2.00000
     16      -5.0838      2.00000
     17       2.4851      0.00000
     18       5.0236      0.00000
     19       8.0286      0.00000
     20       8.7074      0.00000
     21       9.0348      0.00000
     22      10.3592      0.00000
     23      11.5771      0.00000
     24      12.7558      0.00000

 k-point    33 :       0.1818    0.0000    0.1667
  band No.  band energies     occupation 
      1     -26.3741      2.00000
      2     -26.2032      2.00000
      3     -25.6979      2.00000
      4     -25.6406      2.00000
      5     -10.5731      2.00000
      6     -10.4936      2.00000
      7      -8.2042      2.00000
      8      -8.1942      2.00000
      9      -6.6800      2.00000
     10      -6.1395      2.00000
     11      -5.9258      2.00000
     12      -5.5298      2.00000
     13      -5.5058      2.00000
     14      -5.3622      2.00000
     15      -5.3389      2.00000
     16      -5.2955      2.00000
     17       3.0659      0.00000
     18       5.4906      0.00000
     19       8.1910      0.00000
     20       8.6000      0.00000
     21       9.1506      0.00000
     22      10.6676      0.00000
     23      11.8775      0.00000
     24      12.7441      0.00000

 k-point    34 :       0.2727    0.0000    0.1667
  band No.  band energies     occupation 
      1     -26.2748      2.00000
      2     -26.1173      2.00000
      3     -25.7454      2.00000
      4     -25.6773      2.00000
      5     -10.3205      2.00000
      6     -10.2434      2.00000
      7      -8.4598      2.00000
      8      -8.4529      2.00000
      9      -6.5171      2.00000
     10      -6.3629      2.00000
     11      -6.1302      2.00000
     12      -5.8899      2.00000
     13      -5.6959      2.00000
     14      -5.5775      2.00000
     15      -5.3112      2.00000
     16      -5.3076      2.00000
     17       3.8941      0.00000
     18       6.1447      0.00000
     19       8.2753      0.00000
     20       8.3260      0.00000
     21       9.3563      0.00000
     22      11.0742      0.00000
     23      12.2286      0.00000
     24      12.5965      0.00000

 k-point    35 :       0.3636    0.0000    0.1667
  band No.  band energies     occupation 
      1     -26.1550      2.00000
      2     -26.0145      2.00000
      3     -25.8175      2.00000
      4     -25.7339      2.00000
      5      -9.9908      2.00000
      6      -9.9188      2.00000
      7      -8.8058      2.00000
      8      -8.7782      2.00000
      9      -6.5352      2.00000
     10      -6.3427      2.00000
     11      -6.2914      2.00000
     12      -6.2486      2.00000
     13      -5.9746      2.00000
     14      -5.6903      2.00000
     15      -5.2867      2.00000
     16      -5.2800      2.00000
     17       4.8596      0.00000
     18       6.8652      0.00000
     19       7.6795      0.00000
     20       8.3083      0.00000
     21       9.6674      0.00000
     22      11.4030      0.00000
     23      11.6318      0.00000
     24      12.2841      0.00000

 k-point    36 :       0.4545    0.0000    0.1667
  band No.  band energies     occupation 
      1     -26.0300      2.00000
      2     -25.9139      2.00000
      3     -25.9087      2.00000
      4     -25.8124      2.00000
      5      -9.6076      2.00000
      6      -9.5452      2.00000
      7      -9.2007      2.00000
      8      -9.1535      2.00000
      9      -6.5907      2.00000
     10      -6.4950      2.00000
     11      -6.3540      2.00000
     12      -6.3110      2.00000
     13      -6.0031      2.00000
     14      -5.8425      2.00000
     15      -5.2678      2.00000
     16      -5.2651      2.00000
     17       5.8730      0.00000
     18       6.8469      0.00000
     19       7.5391      0.00000
     20       8.0491      0.00000
     21      10.1125      0.00000
     22      10.7533      0.00000
     23      11.6499      0.00000
     24      11.9348      0.00000

 k-point    37 :       0.0000    0.1250    0.1667
  band No.  band energies     occupation 
      1     -26.4354      2.00000
      2     -26.2559      2.00000
      3     -25.6996      2.00000
      4     -25.6391      2.00000
      5     -10.6973      2.00000
      6     -10.6145      2.00000
      7      -8.1348      2.00000
      8      -8.0980      2.00000
      9      -6.7873      2.00000
     10      -5.8466      2.00000
     11      -5.6596      2.00000
     12      -5.5844      2.00000
     13      -5.4151      2.00000
     14      -5.3040      2.00000
     15      -5.0301      2.00000
     16      -4.9846      2.00000
     17       2.4832      0.00000
     18       5.0527      0.00000
     19       7.7112      0.00000
     20       8.7022      0.00000
     21       9.0304      0.00000
     22      10.2899      0.00000
     23      11.0092      0.00000
     24      12.7471      0.00000

 k-point    38 :       0.0909    0.1250    0.1667
  band No.  band energies     occupation 
      1     -26.4134      2.00000
      2     -26.2368      2.00000
      3     -25.7061      2.00000
      4     -25.6444      2.00000
      5     -10.6492      2.00000
      6     -10.5659      2.00000
      7      -8.1895      2.00000
      8      -8.1515      2.00000
      9      -6.7500      2.00000
     10      -5.9176      2.00000
     11      -5.7254      2.00000
     12      -5.5821      2.00000
     13      -5.4165      2.00000
     14      -5.3036      2.00000
     15      -5.1259      2.00000
     16      -5.0908      2.00000
     17       2.6830      0.00000
     18       5.2106      0.00000
     19       7.7919      0.00000
     20       8.6940      0.00000
     21       9.0666      0.00000
     22      10.3678      0.00000
     23      11.0676      0.00000
     24      12.7397      0.00000

 k-point    39 :       0.1818    0.1250    0.1667
  band No.  band energies     occupation 
      1     -26.3504      2.00000
      2     -26.1824      2.00000
      3     -25.7273      2.00000
      4     -25.6615      2.00000
      5     -10.5084      2.00000
      6     -10.4233      2.00000
      7      -8.3510      2.00000
      8      -8.3073      2.00000
      9      -6.6434      2.00000
     10      -6.0966      2.00000
     11      -5.8900      2.00000
     12      -5.5887      2.00000
     13      -5.5037      2.00000
     14      -5.3619      2.00000
     15      -5.3017      2.00000
     16      -5.2883      2.00000
     17       3.2314      0.00000
     18       5.6421      0.00000
     19       7.9760      0.00000
     20       8.6095      0.00000
     21       9.1790      0.00000
     22      10.5823      0.00000
     23      11.2397      0.00000
     24      12.6666      0.00000

 k-point    40 :       0.2727    0.1250    0.1667
  band No.  band energies     occupation 
      1     -26.2557      2.00000
      2     -26.1008      2.00000
      3     -25.7671      2.00000
      4     -25.6938      2.00000
      5     -10.2851      2.00000
      6     -10.1974      2.00000
      7      -8.6077      2.00000
      8      -8.5512      2.00000
      9      -6.4845      2.00000
     10      -6.3054      2.00000
     11      -6.0838      2.00000
     12      -5.8274      2.00000
     13      -5.6636      2.00000
     14      -5.6260      2.00000
     15      -5.3062      2.00000
     16      -5.2938      2.00000
     17       4.0199      0.00000
     18       6.2478      0.00000
     19       8.0603      0.00000
     20       8.4046      0.00000
     21       9.3774      0.00000
     22      10.8232      0.00000
     23      11.4952      0.00000
     24      12.4255      0.00000

 k-point    41 :       0.3636    0.1250    0.1667
  band No.  band energies     occupation 
      1     -26.1421      2.00000
      2     -26.0038      2.00000
      3     -25.8302      2.00000
      4     -25.7445      2.00000
      5      -9.9949      2.00000
      6      -9.9049      2.00000
      7      -8.9337      2.00000
      8      -8.8616      2.00000
      9      -6.4604      2.00000
     10      -6.3114      2.00000
     11      -6.2330      2.00000
     12      -6.1581      2.00000
     13      -5.9253      2.00000
     14      -5.7110      2.00000
     15      -5.2853      2.00000
     16      -5.2798      2.00000
     17       4.9445      0.00000
     18       6.9180      0.00000
     19       7.6322      0.00000
     20       8.2870      0.00000
     21       9.6758      0.00000
     22      10.9817      0.00000
     23      11.4340      0.00000
     24      12.0274      0.00000

 k-point    42 :       0.4545    0.1250    0.1667
  band No.  band energies     occupation 
      1     -26.0247      2.00000
      2     -25.9175      2.00000
      3     -25.9048      2.00000
      4     -25.8157      2.00000
      5      -9.6571      2.00000
      6      -9.5675      2.00000
      7      -9.2944      2.00000
      8      -9.2103      2.00000
      9      -6.5004      2.00000
     10      -6.3984      2.00000
     11      -6.2866      2.00000
     12      -6.2481      2.00000
     13      -5.9823      2.00000
     14      -5.8427      2.00000
     15      -5.2700      2.00000
     16      -5.2688      2.00000
     17       5.9181      0.00000
     18       6.8515      0.00000
     19       7.5493      0.00000
     20       8.0338      0.00000
     21      10.0977      0.00000
     22      10.6651      0.00000
     23      11.3147      0.00000
     24      11.6180      0.00000

 k-point    43 :       0.0000    0.2500    0.1667
  band No.  band energies     occupation 
      1     -26.3568      2.00000
      2     -26.1861      2.00000
      3     -25.7969      2.00000
      4     -25.7116      2.00000
      5     -10.4414      2.00000
      6     -10.3534      2.00000
      7      -8.5016      2.00000
      8      -8.4426      2.00000
      9      -6.6722      2.00000
     10      -5.7905      2.00000
     11      -5.7591      2.00000
     12      -5.5822      2.00000
     13      -5.3791      2.00000
     14      -5.2574      2.00000
     15      -5.1395      2.00000
     16      -5.0612      2.00000
     17       3.0734      0.00000
     18       5.6083      0.00000
     19       7.0187      0.00000
     20       8.5309      0.00000
     21       9.1321      0.00000
     22      10.2319      0.00000
     23      10.7164      0.00000
     24      12.6954      0.00000

 k-point    44 :       0.0909    0.2500    0.1667
  band No.  band energies     occupation 
      1     -26.3374      2.00000
      2     -26.1696      2.00000
      3     -25.7989      2.00000
      4     -25.7141      2.00000
      5     -10.4095      2.00000
      6     -10.3191      2.00000
      7      -8.5539      2.00000
      8      -8.4897      2.00000
      9      -6.6375      2.00000
     10      -5.8294      2.00000
     11      -5.7743      2.00000
     12      -5.6393      2.00000
     13      -5.3814      2.00000
     14      -5.2588      2.00000
     15      -5.2104      2.00000
     16      -5.1391      2.00000
     17       3.2426      0.00000
     18       5.7334      0.00000
     19       7.1123      0.00000
     20       8.5415      0.00000
     21       9.1655      0.00000
     22      10.2774      0.00000
     23      10.7000      0.00000
     24      12.6320      0.00000

 k-point    45 :       0.1818    0.2500    0.1667
  band No.  band energies     occupation 
      1     -26.2824      2.00000
      2     -26.1226      2.00000
      3     -25.8074      2.00000
      4     -25.7225      2.00000
      5     -10.3171      2.00000
      6     -10.2193      2.00000
      7      -8.7050      2.00000
      8      -8.6256      2.00000
      9      -6.5390      2.00000
     10      -5.9802      2.00000
     11      -5.8024      2.00000
     12      -5.7417      2.00000
     13      -5.4595      2.00000
     14      -5.3835      2.00000
     15      -5.2795      2.00000
     16      -5.2646      2.00000
     17       3.7123      0.00000
     18       6.0750      0.00000
     19       7.3403      0.00000
     20       8.5228      0.00000
     21       9.2678      0.00000
     22      10.4217      0.00000
     23      10.6259      0.00000
     24      12.4001      0.00000

 k-point    46 :       0.2727    0.2500    0.1667
  band No.  band energies     occupation 
      1     -26.2008      2.00000
      2     -26.0533      2.00000
      3     -25.8279      2.00000
      4     -25.7412      2.00000
      5     -10.1717      2.00000
      6     -10.0622      2.00000
      7      -8.9348      2.00000
      8      -8.8339      2.00000
      9      -6.3935      2.00000
     10      -6.1528      2.00000
     11      -5.9630      2.00000
     12      -5.7412      2.00000
     13      -5.7103      2.00000
     14      -5.6139      2.00000
     15      -5.2937      2.00000
     16      -5.2737      2.00000
     17       4.3972      0.00000
     18       6.5538      0.00000
     19       7.5371      0.00000
     20       8.4017      0.00000
     21       9.4453      0.00000
     22      10.4647      0.00000
     23      10.6680      0.00000
     24      11.9653      0.00000

 k-point    47 :       0.3636    0.2500    0.1667
  band No.  band energies     occupation 
      1     -26.1052      2.00000
      2     -25.9729      2.00000
      3     -25.8665      2.00000
      4     -25.7744      2.00000
      5      -9.9816      2.00000
      6      -9.8590      2.00000
      7      -9.2092      2.00000
      8      -9.0882      2.00000
      9      -6.2705      2.00000
     10      -6.2327      2.00000
     11      -6.0876      2.00000
     12      -5.9730      2.00000
     13      -5.8250      2.00000
     14      -5.7681      2.00000
     15      -5.2818      2.00000
     16      -5.2791      2.00000
     17       5.2072      0.00000
     18       7.0837      0.00000
     19       7.4080      0.00000
     20       8.2267      0.00000
     21       9.7080      0.00000
     22      10.3613      0.00000
     23      10.8282      0.00000
     24      11.4298      0.00000

 k-point    48 :       0.4545    0.2500    0.1667
  band No.  band energies     occupation 
      1     -26.0103      2.00000
      2     -25.9280      2.00000
      3     -25.8937      2.00000
      4     -25.8256      2.00000
      5      -9.7528      2.00000
      6      -9.6209      2.00000
      7      -9.4909      2.00000
      8      -9.3588      2.00000
      9      -6.2849      2.00000
     10      -6.1885      2.00000
     11      -6.1301      2.00000
     12      -6.1168      2.00000
     13      -5.9190      2.00000
     14      -5.8437      2.00000
     15      -5.2773      2.00000
     16      -5.2757      2.00000
     17       6.0562      0.00000
     18       6.8437      0.00000
     19       7.5879      0.00000
     20       7.9864      0.00000
     21      10.0599      0.00000
     22      10.3645      0.00000
     23      10.7182      0.00000
     24      10.9468      0.00000

 k-point    49 :       0.0000    0.3750    0.1667
  band No.  band energies     occupation 
      1     -26.2361      2.00000
      2     -26.0801      2.00000
      3     -25.9343      2.00000
      4     -25.8226      2.00000
      5     -10.0430      2.00000
      6      -9.9513      2.00000
      7      -9.0038      2.00000
      8      -8.9252      2.00000
      9      -6.4940      2.00000
     10      -6.0281      2.00000
     11      -5.6252      2.00000
     12      -5.4648      2.00000
     13      -5.3313      2.00000
     14      -5.2915      2.00000
     15      -5.2551      2.00000
     16      -5.1815      2.00000
     17       3.9410      0.00000
     18       6.0435      0.00000
     19       6.3996      0.00000
     20       8.0333      0.00000
     21       9.3105      0.00000
     22       9.8715      0.00000
     23      11.1916      0.00000
     24      12.4250      0.00000

 k-point    50 :       0.0909    0.3750    0.1667
  band No.  band energies     occupation 
      1     -26.2210      2.00000
      2     -26.0676      2.00000
      3     -25.9308      2.00000
      4     -25.8203      2.00000
      5     -10.0345      2.00000
      6      -9.9383      2.00000
      7      -9.0429      2.00000
      8      -8.9579      2.00000
      9      -6.4640      2.00000
     10      -6.0132      2.00000
     11      -5.6751      2.00000
     12      -5.5179      2.00000
     13      -5.3511      2.00000
     14      -5.3325      2.00000
     15      -5.2543      2.00000
     16      -5.2306      2.00000
     17       4.0783      0.00000
     18       6.1453      0.00000
     19       6.4872      0.00000
     20       8.0681      0.00000
     21       9.3391      0.00000
     22       9.8934      0.00000
     23      11.1074      0.00000
     24      12.2991      0.00000

 k-point    51 :       0.1818    0.3750    0.1667
  band No.  band energies     occupation 
      1     -26.1787      2.00000
      2     -26.0325      2.00000
      3     -25.9225      2.00000
      4     -25.8151      2.00000
      5     -10.0101      2.00000
      6      -9.9009      2.00000
      7      -9.1548      2.00000
      8      -9.0517      2.00000
      9      -6.3798      2.00000
     10      -5.9790      2.00000
     11      -5.7939      2.00000
     12      -5.6479      2.00000
     13      -5.4829      2.00000
     14      -5.4345      2.00000
     15      -5.2807      2.00000
     16      -5.2568      2.00000
     17       4.4605      0.00000
     18       6.4112      0.00000
     19       6.7215      0.00000
     20       8.1329      0.00000
     21       9.4251      0.00000
     22       9.9649      0.00000
     23      10.8475      0.00000
     24      11.9233      0.00000

 k-point    52 :       0.2727    0.3750    0.1667
  band No.  band energies     occupation 
      1     -26.1178      2.00000
      2     -25.9822      2.00000
      3     -25.9162      2.00000
      4     -25.8129      2.00000
      5      -9.9703      2.00000
      6      -9.8419      2.00000
      7      -9.3204      2.00000
      8      -9.1928      2.00000
      9      -6.2587      2.00000
     10      -5.9880      2.00000
     11      -5.8820      2.00000
     12      -5.7872      2.00000
     13      -5.6554      2.00000
     14      -5.6183      2.00000
     15      -5.2804      2.00000
     16      -5.2660      2.00000
     17       5.0155      0.00000
     18       6.7280      0.00000
     19       7.0366      0.00000
     20       8.1451      0.00000
     21       9.5712      0.00000
     22      10.0887      0.00000
     23      10.4652      0.00000
     24      11.3667      0.00000

 k-point    53 :       0.3636    0.3750    0.1667
  band No.  band energies     occupation 
      1     -26.0502      2.00000
      2     -25.9268      2.00000
      3     -25.9212      2.00000
      4     -25.8195      2.00000
      5      -9.9096      2.00000
      6      -9.7613      2.00000
      7      -9.5074      2.00000
      8      -9.3574      2.00000
      9      -6.1308      2.00000
     10      -6.0582      2.00000
     11      -5.9371      2.00000
     12      -5.8308      2.00000
     13      -5.8307      2.00000
     14      -5.7725      2.00000
     15      -5.2784      2.00000
     16      -5.2782      2.00000
     17       5.6560      0.00000
     18       6.9118      0.00000
     19       7.3672      0.00000
     20       8.0616      0.00000
     21       9.7822      0.00000
     22      10.0278      0.00000
     23      10.3360      0.00000
     24      10.7800      0.00000

 k-point    54 :       0.4545    0.3750    0.1667
  band No.  band energies     occupation 
      1     -25.9894      2.00000
      2     -25.9448      2.00000
      3     -25.8772      2.00000
      4     -25.8404      2.00000
      5      -9.8163      2.00000
      6      -9.6807      2.00000
      7      -9.6547      2.00000
      8      -9.5181      2.00000
      9      -6.0710      2.00000
     10      -6.0517      2.00000
     11      -5.9814      2.00000
     12      -5.9590      2.00000
     13      -5.8480      2.00000
     14      -5.8399      2.00000
     15      -5.2844      2.00000
     16      -5.2818      2.00000
     17       6.2841      0.00000
     18       6.7610      0.00000
     19       7.6663      0.00000
     20       7.9016      0.00000
     21       9.9387      0.00000
     22       9.9980      0.00000
     23      10.3508      0.00000
     24      10.3677      0.00000

 k-point    55 :       0.0000    0.5000    0.1667
  band No.  band energies     occupation 
      1     -26.0885      2.00000
      2     -26.0885      2.00000
      3     -25.9525      2.00000
      4     -25.9525      2.00000
      5      -9.5440      2.00000
      6      -9.5440      2.00000
      7      -9.4544      2.00000
      8      -9.4544      2.00000
      9      -6.2714      2.00000
     10      -6.2714      2.00000
     11      -5.4618      2.00000
     12      -5.4618      2.00000
     13      -5.3240      2.00000
     14      -5.3240      2.00000
     15      -5.2849      2.00000
     16      -5.2849      2.00000
     17       4.9704      0.00000
     18       4.9704      0.00000
     19       7.2662      0.00000
     20       7.2662      0.00000
     21       9.5637      0.00000
     22       9.5637      0.00000
     23      11.8593      0.00000
     24      11.8593      0.00000

 k-point    56 :       0.0909    0.5000    0.1667
  band No.  band energies     occupation 
      1     -26.0788      2.00000
      2     -26.0788      2.00000
      3     -25.9449      2.00000
      4     -25.9449      2.00000
      5      -9.5611      2.00000
      6      -9.5611      2.00000
      7      -9.4656      2.00000
      8      -9.4656      2.00000
      9      -6.2480      2.00000
     10      -6.2480      2.00000
     11      -5.5078      2.00000
     12      -5.5078      2.00000
     13      -5.3829      2.00000
     14      -5.3829      2.00000
     15      -5.2754      2.00000
     16      -5.2754      2.00000
     17       5.0850      0.00000
     18       5.0850      0.00000
     19       7.3234      0.00000
     20       7.3234      0.00000
     21       9.5861      0.00000
     22       9.5861      0.00000
     23      11.7258      0.00000
     24      11.7258      0.00000

 k-point    57 :       0.1818    0.5000    0.1667
  band No.  band energies     occupation 
      1     -26.0529      2.00000
      2     -26.0529      2.00000
      3     -25.9245      2.00000
      4     -25.9245      2.00000
      5      -9.6100      2.00000
      6      -9.6100      2.00000
      7      -9.4976      2.00000
      8      -9.4976      2.00000
      9      -6.1842      2.00000
     10      -6.1842      2.00000
     11      -5.6214      2.00000
     12      -5.6214      2.00000
     13      -5.5158      2.00000
     14      -5.5158      2.00000
     15      -5.2696      2.00000
     16      -5.2696      2.00000
     17       5.3975      0.00000
     18       5.3975      0.00000
     19       7.4644      0.00000
     20       7.4644      0.00000
     21       9.6536      0.00000
     22       9.6536      0.00000
     23      11.3448      0.00000
     24      11.3448      0.00000

 k-point    58 :       0.2727    0.5000    0.1667
  band No.  band energies     occupation 
      1     -26.0181      2.00000
      2     -26.0181      2.00000
      3     -25.8977      2.00000
      4     -25.8977      2.00000
      5      -9.6806      2.00000
      6      -9.6806      2.00000
      7      -9.5446      2.00000
      8      -9.5446      2.00000
      9      -6.0996      2.00000
     10      -6.0996      2.00000
     11      -5.7475      2.00000
     12      -5.7475      2.00000
     13      -5.6714      2.00000
     14      -5.6714      2.00000
     15      -5.2702      2.00000
     16      -5.2702      2.00000
     17       5.8272      0.00000
     18       5.8272      0.00000
     19       7.6204      0.00000
     20       7.6204      0.00000
     21       9.7709      0.00000
     22       9.7709      0.00000
     23      10.8088      0.00000
     24      10.8088      0.00000

 k-point    59 :       0.3636    0.5000    0.1667
  band No.  band energies     occupation 
      1     -25.9857      2.00000
      2     -25.9857      2.00000
      3     -25.8730      2.00000
      4     -25.8730      2.00000
      5      -9.7518      2.00000
      6      -9.7518      2.00000
      7      -9.5933      2.00000
      8      -9.5933      2.00000
      9      -6.0296      2.00000
     10      -6.0296      2.00000
     11      -5.8336      2.00000
     12      -5.8336      2.00000
     13      -5.7983      2.00000
     14      -5.7983      2.00000
     15      -5.2774      2.00000
     16      -5.2774      2.00000
     17       6.2617      0.00000
     18       6.2617      0.00000
     19       7.7323      0.00000
     20       7.7323      0.00000
     21       9.9178      0.00000
     22       9.9178      0.00000
     23      10.3042      0.00000
     24      10.3042      0.00000

 k-point    60 :       0.4545    0.5000    0.1667
  band No.  band energies     occupation 
      1     -25.9662      2.00000
      2     -25.9662      2.00000
      3     -25.8584      2.00000
      4     -25.8584      2.00000
      5      -9.7970      2.00000
      6      -9.7970      2.00000
      7      -9.6247      2.00000
      8      -9.6247      2.00000
      9      -6.0067      2.00000
     10      -6.0067      2.00000
     11      -5.8864      2.00000
     12      -5.8864      2.00000
     13      -5.8361      2.00000
     14      -5.8361      2.00000
     15      -5.2855      2.00000
     16      -5.2855      2.00000
     17       6.5541      0.00000
     18       6.5541      0.00000
     19       7.7824      0.00000
     20       7.7824      0.00000
     21       9.8392      0.00000
     22       9.8392      0.00000
     23      10.2079      0.00000
     24      10.2079      0.00000

 k-point    61 :       0.0000   -0.0000    0.3333
  band No.  band energies     occupation 
      1     -26.4248      2.00000
      2     -26.3194      2.00000
      3     -25.6532      2.00000
      4     -25.6251      2.00000
      5     -10.7752      2.00000
      6     -10.7288      2.00000
      7      -7.9912      2.00000
      8      -7.9774      2.00000
      9      -6.5667      2.00000
     10      -5.8374      2.00000
     11      -5.7667      2.00000
     12      -5.7275      2.00000
     13      -5.4231      2.00000
     14      -5.3739      2.00000
     15      -4.9815      2.00000
     16      -4.9670      2.00000
     17       2.7852      0.00000
     18       4.2311      0.00000
     19       8.0840      0.00000
     20       8.5404      0.00000
     21       9.7284      0.00000
     22      10.3296      0.00000
     23      11.0108      0.00000
     24      11.7847      0.00000

 k-point    62 :       0.0909    0.0000    0.3333
  band No.  band energies     occupation 
      1     -26.4024      2.00000
      2     -26.2988      2.00000
      3     -25.6611      2.00000
      4     -25.6317      2.00000
      5     -10.7211      2.00000
      6     -10.6748      2.00000
      7      -8.0444      2.00000
      8      -8.0325      2.00000
      9      -6.5368      2.00000
     10      -5.9126      2.00000
     11      -5.7996      2.00000
     12      -5.7634      2.00000
     13      -5.4267      2.00000
     14      -5.3666      2.00000
     15      -5.0868      2.00000
     16      -5.0773      2.00000
     17       2.9833      0.00000
     18       4.4046      0.00000
     19       8.1541      0.00000
     20       8.5699      0.00000
     21       9.7632      0.00000
     22      10.4273      0.00000
     23      11.1087      0.00000
     24      11.8044      0.00000

 k-point    63 :       0.1818   -0.0000    0.3333
  band No.  band energies     occupation 
      1     -26.3387      2.00000
      2     -26.2401      2.00000
      3     -25.6860      2.00000
      4     -25.6528      2.00000
      5     -10.5624      2.00000
      6     -10.5166      2.00000
      7      -8.2017      2.00000
      8      -8.1960      2.00000
      9      -6.4543      2.00000
     10      -6.1021      2.00000
     11      -5.9805      2.00000
     12      -5.7873      2.00000
     13      -5.4462      2.00000
     14      -5.3537      2.00000
     15      -5.3515      2.00000
     16      -5.3223      2.00000
     17       3.5257      0.00000
     18       4.8803      0.00000
     19       8.3026      0.00000
     20       8.5671      0.00000
     21       9.8639      0.00000
     22      10.7422      0.00000
     23      11.4132      0.00000
     24      11.8370      0.00000

 k-point    64 :       0.2727   -0.0000    0.3333
  band No.  band energies     occupation 
      1     -26.2421      2.00000
      2     -26.1512      2.00000
      3     -25.7309      2.00000
      4     -25.6918      2.00000
      5     -10.3096      2.00000
      6     -10.2649      2.00000
      7      -8.4588      2.00000
      8      -8.4544      2.00000
      9      -6.3490      2.00000
     10      -6.3262      2.00000
     11      -6.1950      2.00000
     12      -5.9728      2.00000
     13      -5.6635      2.00000
     14      -5.4923      2.00000
     15      -5.4578      2.00000
     16      -5.3394      2.00000
     17       4.3047      0.00000
     18       5.5589      0.00000
     19       8.3650      0.00000
     20       8.3842      0.00000
     21      10.0203      0.00000
     22      11.2183      0.00000
     23      11.8198      0.00000
     24      11.8657      0.00000

 k-point    65 :       0.3636    0.0000    0.3333
  band No.  band energies     occupation 
      1     -26.1260      2.00000
      2     -26.0448      2.00000
      3     -25.8000      2.00000
      4     -25.7517      2.00000
      5      -9.9802      2.00000
      6      -9.9383      2.00000
      7      -8.8015      2.00000
      8      -8.7849      2.00000
      9      -6.5009      2.00000
     10      -6.3658      2.00000
     11      -6.3105      2.00000
     12      -6.2643      2.00000
     13      -5.8465      2.00000
     14      -5.5708      2.00000
     15      -5.4422      2.00000
     16      -5.3394      2.00000
     17       5.2173      0.00000
     18       6.3376      0.00000
     19       7.8671      0.00000
     20       8.2475      0.00000
     21      10.2206      0.00000
     22      11.4919      0.00000
     23      11.5047      0.00000
     24      11.7132      0.00000

 k-point    66 :       0.4545   -0.0000    0.3333
  band No.  band energies     occupation 
      1     -26.0048      2.00000
      2     -25.9350      2.00000
      3     -25.8929      2.00000
      4     -25.8340      2.00000
      5      -9.5979      2.00000
      6      -9.5615      2.00000
      7      -9.1933      2.00000
      8      -9.1654      2.00000
      9      -6.5631      2.00000
     10      -6.4820      2.00000
     11      -6.4372      2.00000
     12      -6.3945      2.00000
     13      -5.8015      2.00000
     14      -5.6808      2.00000
     15      -5.3960      2.00000
     16      -5.3581      2.00000
     17       6.1787      0.00000
     18       7.1003      0.00000
     19       7.1247      0.00000
     20       7.8085      0.00000
     21      10.4764      0.00000
     22      10.8679      0.00000
     23      11.5034      0.00000
     24      11.5744      0.00000

 k-point    67 :       0.0000    0.1250    0.3333
  band No.  band energies     occupation 
      1     -26.3981      2.00000
      2     -26.2945      2.00000
      3     -25.6869      2.00000
      4     -25.6517      2.00000
      5     -10.6866      2.00000
      6     -10.6390      2.00000
      7      -8.1288      2.00000
      8      -8.1069      2.00000
      9      -6.5270      2.00000
     10      -5.8077      2.00000
     11      -5.7420      2.00000
     12      -5.6998      2.00000
     13      -5.5088      2.00000
     14      -5.3467      2.00000
     15      -5.0205      2.00000
     16      -4.9942      2.00000
     17       2.9873      0.00000
     18       4.4252      0.00000
     19       7.8820      0.00000
     20       8.4715      0.00000
     21       9.7622      0.00000
     22      10.3034      0.00000
     23      10.7854      0.00000
     24      11.8023      0.00000

 k-point    68 :       0.0909    0.1250    0.3333
  band No.  band energies     occupation 
      1     -26.3767      2.00000
      2     -26.2749      2.00000
      3     -25.6930      2.00000
      4     -25.6574      2.00000
      5     -10.6382      2.00000
      6     -10.5902      2.00000
      7      -8.1832      2.00000
      8      -8.1607      2.00000
      9      -6.4976      2.00000
     10      -5.8804      2.00000
     11      -5.7699      2.00000
     12      -5.7380      2.00000
     13      -5.5039      2.00000
     14      -5.3439      2.00000
     15      -5.1150      2.00000
     16      -5.0920      2.00000
     17       3.1729      0.00000
     18       4.5864      0.00000
     19       7.9618      0.00000
     20       8.5080      0.00000
     21       9.7936      0.00000
     22      10.3694      0.00000
     23      10.8305      0.00000
     24      11.8103      0.00000

 k-point    69 :       0.1818    0.1250    0.3333
  band No.  band energies     occupation 
      1     -26.3155      2.00000
      2     -26.2187      2.00000
      3     -25.7132      2.00000
      4     -25.6754      2.00000
      5     -10.4966      2.00000
      6     -10.4475      2.00000
      7      -8.3436      2.00000
      8      -8.3178      2.00000
      9      -6.4163      2.00000
     10      -6.0612      2.00000
     11      -5.9435      2.00000
     12      -5.7552      2.00000
     13      -5.5039      2.00000
     14      -5.3528      2.00000
     15      -5.3400      2.00000
     16      -5.3154      2.00000
     17       3.6847      0.00000
     18       5.0303      0.00000
     19       8.1366      0.00000
     20       8.5337      0.00000
     21       9.8835      0.00000
     22      10.5762      0.00000
     23      10.9591      0.00000
     24      11.8068      0.00000

 k-point    70 :       0.2727    0.1250    0.3333
  band No.  band energies     occupation 
      1     -26.2234      2.00000
      2     -26.1339      2.00000
      3     -25.7517      2.00000
      4     -25.7093      2.00000
      5     -10.2720      2.00000
      6     -10.2214      2.00000
      7      -8.5977      2.00000
      8      -8.5646      2.00000
      9      -6.3099      2.00000
     10      -6.2713      2.00000
     11      -6.1466      2.00000
     12      -5.9137      2.00000
     13      -5.6349      2.00000
     14      -5.5275      2.00000
     15      -5.4468      2.00000
     16      -5.3387      2.00000
     17       4.4249      0.00000
     18       5.6667      0.00000
     19       8.2090      0.00000
     20       8.4168      0.00000
     21      10.0201      0.00000
     22      10.8344      0.00000
     23      11.1524      0.00000
     24      11.7283      0.00000

 k-point    71 :       0.3636    0.1250    0.3333
  band No.  band energies     occupation 
      1     -26.1134      2.00000
      2     -26.0334      2.00000
      3     -25.8124      2.00000
      4     -25.7628      2.00000
      5      -9.9806      2.00000
      6      -9.9284      2.00000
      7      -8.9208      2.00000
      8      -8.8787      2.00000
      9      -6.4296      2.00000
     10      -6.3042      2.00000
     11      -6.2559      2.00000
     12      -6.1792      2.00000
     13      -5.8164      2.00000
     14      -5.5869      2.00000
     15      -5.4359      2.00000
     16      -5.3435      2.00000
     17       5.2972      0.00000
     18       6.4016      0.00000
     19       7.8305      0.00000
     20       8.2275      0.00000
     21      10.1899      0.00000
     22      10.9037      0.00000
     23      11.2090      0.00000
     24      11.5473      0.00000

 k-point    72 :       0.4545    0.1250    0.3333
  band No.  band energies     occupation 
      1     -25.9998      2.00000
      2     -25.9305      2.00000
      3     -25.8964      2.00000
      4     -25.8375      2.00000
      5      -9.6421      2.00000
      6      -9.5899      2.00000
      7      -9.2797      2.00000
      8      -9.2308      2.00000
      9      -6.4772      2.00000
     10      -6.3900      2.00000
     11      -6.3649      2.00000
     12      -6.3205      2.00000
     13      -5.7886      2.00000
     14      -5.6817      2.00000
     15      -5.3947      2.00000
     16      -5.3611      2.00000
     17       6.2199      0.00000
     18       7.1046      0.00000
     19       7.1498      0.00000
     20       7.8044      0.00000
     21      10.3978      0.00000
     22      10.6753      0.00000
     23      11.1840      0.00000
     24      11.3311      0.00000

 k-point    73 :       0.0000    0.2500    0.3333
  band No.  band energies     occupation 
      1     -26.3213      2.00000
      2     -26.2229      2.00000
      3     -25.7791      2.00000
      4     -25.7297      2.00000
      5     -10.4299      2.00000
      6     -10.3793      2.00000
      7      -8.4946      2.00000
      8      -8.4603      2.00000
      9      -6.4174      2.00000
     10      -5.7223      2.00000
     11      -5.6768      2.00000
     12      -5.6645      2.00000
     13      -5.6201      2.00000
     14      -5.3566      2.00000
     15      -5.1230      2.00000
     16      -5.0778      2.00000
     17       3.5523      0.00000
     18       4.9649      0.00000
     19       7.2745      0.00000
     20       8.1436      0.00000
     21       9.8598      0.00000
     22      10.2692      0.00000
     23      10.6578      0.00000
     24      11.8193      0.00000

 k-point    74 :       0.0909    0.2500    0.3333
  band No.  band energies     occupation 
      1     -26.3025      2.00000
      2     -26.2057      2.00000
      3     -25.7812      2.00000
      4     -25.7322      2.00000
      5     -10.3973      2.00000
      6     -10.3453      2.00000
      7      -8.5458      2.00000
      8      -8.5084      2.00000
      9      -6.3900      2.00000
     10      -5.7932      2.00000
     11      -5.6922      2.00000
     12      -5.6727      2.00000
     13      -5.6392      2.00000
     14      -5.3520      2.00000
     15      -5.1937      2.00000
     16      -5.1501      2.00000
     17       3.7091      0.00000
     18       5.0966      0.00000
     19       7.3659      0.00000
     20       8.1987      0.00000
     21       9.8809      0.00000
     22      10.2785      0.00000
     23      10.6301      0.00000
     24      11.7931      0.00000

 k-point    75 :       0.1818    0.2500    0.3333
  band No.  band energies     occupation 
      1     -26.2492      2.00000
      2     -26.1571      2.00000
      3     -25.7895      2.00000
      4     -25.7405      2.00000
      5     -10.3029      2.00000
      6     -10.2465      2.00000
      7      -8.6932      2.00000
      8      -8.6472      2.00000
      9      -6.3145      2.00000
     10      -5.9514      2.00000
     11      -5.8439      2.00000
     12      -5.6830      2.00000
     13      -5.6225      2.00000
     14      -5.3732      2.00000
     15      -5.3468      2.00000
     16      -5.3170      2.00000
     17       4.1459      0.00000
     18       5.4615      0.00000
     19       7.5858      0.00000
     20       8.2998      0.00000
     21       9.9382      0.00000
     22      10.3189      0.00000
     23      10.5330      0.00000
     24      11.6875      0.00000

 k-point    76 :       0.2727    0.2500    0.3333
  band No.  band energies     occupation 
      1     -26.1701      2.00000
      2     -26.0849      2.00000
      3     -25.8094      2.00000
      4     -25.7595      2.00000
      5     -10.1544      2.00000
      6     -10.0912      2.00000
      7      -8.9180      2.00000
      8      -8.8595      2.00000
      9      -6.2129      2.00000
     10      -6.1273      2.00000
     11      -6.0197      2.00000
     12      -5.7976      2.00000
     13      -5.6135      2.00000
     14      -5.5899      2.00000
     15      -5.4232      2.00000
     16      -5.3478      2.00000
     17       4.7855      0.00000
     18       5.9882      0.00000
     19       7.7693      0.00000
     20       8.3035      0.00000
     21      10.0170      0.00000
     22      10.3607      0.00000
     23      10.4193      0.00000
     24      11.4560      0.00000

 k-point    77 :       0.3636    0.2500    0.3333
  band No.  band energies     occupation 
      1     -26.0778      2.00000
      2     -26.0012      2.00000
      3     -25.8472      2.00000
      4     -25.7940      2.00000
      5      -9.9609      2.00000
      6      -9.8900      2.00000
      7      -9.1880      2.00000
      8      -9.1177      2.00000
      9      -6.2500      2.00000
     10      -6.1499      2.00000
     11      -6.1408      2.00000
     12      -6.0043      2.00000
     13      -5.7481      2.00000
     14      -5.6311      2.00000
     15      -5.4193      2.00000
     16      -5.3548      2.00000
     17       5.5450      0.00000
     18       6.6011      0.00000
     19       7.6386      0.00000
     20       8.1397      0.00000
     21      10.1034      0.00000
     22      10.2463      0.00000
     23      10.5037      0.00000
     24      11.1195      0.00000

 k-point    78 :       0.4545    0.2500    0.3333
  band No.  band energies     occupation 
      1     -25.9861      2.00000
      2     -25.9185      2.00000
      3     -25.9067      2.00000
      4     -25.8474      2.00000
      5      -9.7296      2.00000
      6      -9.6531      2.00000
      7      -9.4673      2.00000
      8      -9.3906      2.00000
      9      -6.2734      2.00000
     10      -6.1943      2.00000
     11      -6.1904      2.00000
     12      -6.1557      2.00000
     13      -5.7537      2.00000
     14      -5.6847      2.00000
     15      -5.3909      2.00000
     16      -5.3681      2.00000
     17       6.3472      0.00000
     18       7.0973      0.00000
     19       7.2296      0.00000
     20       7.7809      0.00000
     21      10.1890      0.00000
     22      10.2365      0.00000
     23      10.5672      0.00000
     24      10.7800      0.00000

 k-point    79 :       0.0000    0.3750    0.3333
  band No.  band energies     occupation 
      1     -26.2035      2.00000
      2     -26.1135      2.00000
      3     -25.9109      2.00000
      4     -25.8465      2.00000
      5     -10.0312      2.00000
      6      -9.9785      2.00000
      7      -8.9945      2.00000
      8      -8.9495      2.00000
      9      -6.2558      2.00000
     10      -5.8563      2.00000
     11      -5.5917      2.00000
     12      -5.5883      2.00000
     13      -5.4991      2.00000
     14      -5.4105      2.00000
     15      -5.2685      2.00000
     16      -5.2050      2.00000
     17       4.3823      0.00000
     18       5.7431      0.00000
     19       6.3745      0.00000
     20       7.4796      0.00000
     21      10.0013      0.00000
     22      10.2138      0.00000
     23      10.9819      0.00000
     24      11.7303      0.00000

 k-point    80 :       0.0909    0.3750    0.3333
  band No.  band energies     occupation 
      1     -26.1889      2.00000
      2     -26.1002      2.00000
      3     -25.9074      2.00000
      4     -25.8439      2.00000
      5     -10.0215      2.00000
      6      -9.9662      2.00000
      7      -9.0321      2.00000
      8      -8.9832      2.00000
      9      -6.2327      2.00000
     10      -5.8514      2.00000
     11      -5.6368      2.00000
     12      -5.5877      2.00000
     13      -5.5603      2.00000
     14      -5.3962      2.00000
     15      -5.3198      2.00000
     16      -5.2542      2.00000
     17       4.5096      0.00000
     18       5.8436      0.00000
     19       6.4709      0.00000
     20       7.5464      0.00000
     21      10.0058      0.00000
     22      10.1931      0.00000
     23      10.9055      0.00000
     24      11.6584      0.00000

 k-point    81 :       0.1818    0.3750    0.3333
  band No.  band energies     occupation 
      1     -26.1481      2.00000
      2     -26.0637      2.00000
      3     -25.9000      2.00000
      4     -25.8382      2.00000
      5      -9.9939      2.00000
      6      -9.9311      2.00000
      7      -9.1396      2.00000
      8      -9.0802      2.00000
      9      -6.1699      2.00000
     10      -5.8682      2.00000
     11      -5.7328      2.00000
     12      -5.6794      2.00000
     13      -5.6094      2.00000
     14      -5.4492      2.00000
     15      -5.3806      2.00000
     16      -5.3585      2.00000
     17       4.8632      0.00000
     18       6.1189      0.00000
     19       6.7211      0.00000
     20       7.7062      0.00000
     21      10.0118      0.00000
     22      10.1332      0.00000
     23      10.6755      0.00000
     24      11.4285      0.00000

 k-point    82 :       0.2727    0.3750    0.3333
  band No.  band energies     occupation 
      1     -26.0894      2.00000
      2     -26.0111      2.00000
      3     -25.8945      2.00000
      4     -25.8348      2.00000
      5      -9.9494      2.00000
      6      -9.8753      2.00000
      7      -9.2994      2.00000
      8      -9.2257      2.00000
      9      -6.0884      2.00000
     10      -5.9649      2.00000
     11      -5.8651      2.00000
     12      -5.7167      2.00000
     13      -5.7038      2.00000
     14      -5.6001      2.00000
     15      -5.4078      2.00000
     16      -5.3718      2.00000
     17       5.3765      0.00000
     18       6.5086      0.00000
     19       7.0150      0.00000
     20       7.8548      0.00000
     21      10.0067      0.00000
     22      10.0459      0.00000
     23      10.3428      0.00000
     24      11.0480      0.00000

 k-point    83 :       0.3636    0.3750    0.3333
  band No.  band energies     occupation 
      1     -26.0248      2.00000
      2     -25.9533      2.00000
      3     -25.8999      2.00000
      4     -25.8411      2.00000
      5      -9.8839      2.00000
      6      -9.7982      2.00000
      7      -9.4813      2.00000
      8      -9.3944      2.00000
      9      -6.0534      2.00000
     10      -6.0315      2.00000
     11      -5.9763      2.00000
     12      -5.8690      2.00000
     13      -5.7041      2.00000
     14      -5.6863      2.00000
     15      -5.4002      2.00000
     16      -5.3704      2.00000
     17       5.9711      0.00000
     18       6.9468      0.00000
     19       7.1753      0.00000
     20       7.8727      0.00000
     21       9.9060      0.00000
     22       9.9848      0.00000
     23      10.1237      0.00000
     24      10.6051      0.00000

 k-point    84 :       0.4545    0.3750    0.3333
  band No.  band energies     occupation 
      1     -25.9659      2.00000
      2     -25.9230      2.00000
      3     -25.9013      2.00000
      4     -25.8627      2.00000
      5      -9.7874      2.00000
      6      -9.6939      2.00000
      7      -9.6516      2.00000
      8      -9.5574      2.00000
      9      -6.0751      2.00000
     10      -6.0422      2.00000
     11      -6.0204      2.00000
     12      -5.9854      2.00000
     13      -5.7146      2.00000
     14      -5.6897      2.00000
     15      -5.3849      2.00000
     16      -5.3749      2.00000
     17       6.5597      0.00000
     18       7.0168      0.00000
     19       7.3705      0.00000
     20       7.7041      0.00000
     21       9.8389      0.00000
     22       9.9317      0.00000
     23      10.1128      0.00000
     24      10.2475      0.00000

 k-point    85 :       0.0000    0.5000    0.3333
  band No.  band energies     occupation 
      1     -26.0600      2.00000
      2     -26.0600      2.00000
      3     -25.9817      2.00000
      4     -25.9817      2.00000
      5      -9.5328      2.00000
      6      -9.5328      2.00000
      7      -9.4816      2.00000
      8      -9.4816      2.00000
      9      -6.0615      2.00000
     10      -6.0615      2.00000
     11      -5.4937      2.00000
     12      -5.4937      2.00000
     13      -5.4330      2.00000
     14      -5.4330      2.00000
     15      -5.3534      2.00000
     16      -5.3534      2.00000
     17       5.3627      0.00000
     18       5.3627      0.00000
     19       6.6269      0.00000
     20       6.6269      0.00000
     21      10.1369      0.00000
     22      10.1369      0.00000
     23      11.4281      0.00000
     24      11.4281      0.00000

 k-point    86 :       0.0909    0.5000    0.3333
  band No.  band energies     occupation 
      1     -26.0508      2.00000
      2     -26.0508      2.00000
      3     -25.9734      2.00000
      4     -25.9734      2.00000
      5      -9.5485      2.00000
      6      -9.5485      2.00000
      7      -9.4936      2.00000
      8      -9.4936      2.00000
      9      -6.0450      2.00000
     10      -6.0450      2.00000
     11      -5.5098      2.00000
     12      -5.5098      2.00000
     13      -5.4757      2.00000
     14      -5.4757      2.00000
     15      -5.3815      2.00000
     16      -5.3815      2.00000
     17       5.4691      0.00000
     18       5.4691      0.00000
     19       6.7052      0.00000
     20       6.7052      0.00000
     21      10.1227      0.00000
     22      10.1227      0.00000
     23      11.3313      0.00000
     24      11.3313      0.00000

 k-point    87 :       0.1818    0.5000    0.3333
  band No.  band energies     occupation 
      1     -26.0259      2.00000
      2     -26.0259      2.00000
      3     -25.9519      2.00000
      4     -25.9519      2.00000
      5      -9.5932      2.00000
      6      -9.5932      2.00000
      7      -9.5286      2.00000
      8      -9.5286      2.00000
      9      -6.0040      2.00000
     10      -6.0040      2.00000
     11      -5.6003      2.00000
     12      -5.6003      2.00000
     13      -5.5761      2.00000
     14      -5.5761      2.00000
     15      -5.4051      2.00000
     16      -5.4051      2.00000
     17       5.7584      0.00000
     18       5.7584      0.00000
     19       6.9108      0.00000
     20       6.9108      0.00000
     21      10.0750      0.00000
     22      10.0750      0.00000
     23      11.0454      0.00000
     24      11.0454      0.00000

 k-point    88 :       0.2727    0.5000    0.3333
  band No.  band energies     occupation 
      1     -25.9928      2.00000
      2     -25.9928      2.00000
      3     -25.9233      2.00000
      4     -25.9233      2.00000
      5      -9.6583      2.00000
      6      -9.6583      2.00000
      7      -9.5798      2.00000
      8      -9.5798      2.00000
      9      -5.9669      2.00000
     10      -5.9669      2.00000
     11      -5.7363      2.00000
     12      -5.7363      2.00000
     13      -5.6786      2.00000
     14      -5.6786      2.00000
     15      -5.3970      2.00000
     16      -5.3970      2.00000
     17       6.1540      0.00000
     18       6.1540      0.00000
     19       7.1739      0.00000
     20       7.1739      0.00000
     21       9.9935      0.00000
     22       9.9935      0.00000
     23      10.6219      0.00000
     24      10.6219      0.00000

 k-point    89 :       0.3636    0.5000    0.3333
  band No.  band energies     occupation 
      1     -25.9622      2.00000
      2     -25.9622      2.00000
      3     -25.8971      2.00000
      4     -25.8971      2.00000
      5      -9.7242      2.00000
      6      -9.7242      2.00000
      7      -9.6325      2.00000
      8      -9.6325      2.00000
      9      -5.9734      2.00000
     10      -5.9734      2.00000
     11      -5.8568      2.00000
     12      -5.8568      2.00000
     13      -5.7097      2.00000
     14      -5.7097      2.00000
     15      -5.3853      2.00000
     16      -5.3853      2.00000
     17       6.5512      0.00000
     18       6.5512      0.00000
     19       7.4116      0.00000
     20       7.4116      0.00000
     21       9.8864      0.00000
     22       9.8864      0.00000
     23      10.2023      0.00000
     24      10.2023      0.00000

 k-point    90 :       0.4545    0.5000    0.3333
  band No.  band energies     occupation 
      1     -25.9437      2.00000
      2     -25.9437      2.00000
      3     -25.8814      2.00000
      4     -25.8814      2.00000
      5      -9.7661      2.00000
      6      -9.7661      2.00000
      7      -9.6664      2.00000
      8      -9.6664      2.00000
      9      -5.9973      2.00000
     10      -5.9973      2.00000
     11      -5.9255      2.00000
     12      -5.9255      2.00000
     13      -5.6964      2.00000
     14      -5.6964      2.00000
     15      -5.3793      2.00000
     16      -5.3793      2.00000
     17       6.8167      0.00000
     18       6.8167      0.00000
     19       7.5512      0.00000
     20       7.5512      0.00000
     21       9.7466      0.00000
     22       9.7466      0.00000
     23       9.9971      0.00000
     24       9.9971      0.00000

 k-point    91 :       0.0000    0.0000    0.5000
  band No.  band energies     occupation 
      1     -26.3724      2.00000
      2     -26.3724      2.00000
      3     -25.6390      2.00000
      4     -25.6390      2.00000
      5     -10.7552      2.00000
      6     -10.7552      2.00000
      7      -7.9839      2.00000
      8      -7.9839      2.00000
      9      -6.1854      2.00000
     10      -6.1854      2.00000
     11      -5.7828      2.00000
     12      -5.7828      2.00000
     13      -5.3898      2.00000
     14      -5.3898      2.00000
     15      -4.9742      2.00000
     16      -4.9742      2.00000
     17       3.4867      0.00000
     18       3.4867      0.00000
     19       8.2946      0.00000
     20       8.2946      0.00000
     21      10.5922      0.00000
     22      10.5922      0.00000
     23      10.7041      0.00000
     24      10.7041      0.00000

 k-point    92 :       0.0909    0.0000    0.5000
  band No.  band energies     occupation 
      1     -26.3510      2.00000
      2     -26.3510      2.00000
      3     -25.6461      2.00000
      4     -25.6461      2.00000
      5     -10.7011      2.00000
      6     -10.7011      2.00000
      7      -8.0381      2.00000
      8      -8.0381      2.00000
      9      -6.1682      2.00000
     10      -6.1682      2.00000
     11      -5.8576      2.00000
     12      -5.8576      2.00000
     13      -5.3870      2.00000
     14      -5.3870      2.00000
     15      -5.0806      2.00000
     16      -5.0806      2.00000
     17       3.6697      0.00000
     18       3.6697      0.00000
     19       8.3543      0.00000
     20       8.3543      0.00000
     21      10.6855      0.00000
     22      10.6855      0.00000
     23      10.7319      0.00000
     24      10.7319      0.00000

 k-point    93 :       0.1818    0.0000    0.5000
  band No.  band energies     occupation 
      1     -26.2897      2.00000
      2     -26.2897      2.00000
      3     -25.6693      2.00000
      4     -25.6693      2.00000
      5     -10.5424      2.00000
      6     -10.5424      2.00000
      7      -8.1986      2.00000
      8      -8.1986      2.00000
      9      -6.1307      2.00000
     10      -6.1307      2.00000
     11      -6.0452      2.00000
     12      -6.0452      2.00000
     13      -5.3876      2.00000
     14      -5.3876      2.00000
     15      -5.3403      2.00000
     16      -5.3403      2.00000
     17       4.1727      0.00000
     18       4.1727      0.00000
     19       8.4534      0.00000
     20       8.4534      0.00000
     21      10.8027      0.00000
     22      10.8027      0.00000
     23      10.9906      0.00000
     24      10.9906      0.00000

 k-point    94 :       0.2727    0.0000    0.5000
  band No.  band energies     occupation 
      1     -26.1968      2.00000
      2     -26.1968      2.00000
      3     -25.7117      2.00000
      4     -25.7117      2.00000
      5     -10.2900      2.00000
      6     -10.2900      2.00000
      7      -8.4565      2.00000
      8      -8.4565      2.00000
      9      -6.2669      2.00000
     10      -6.2669      2.00000
     11      -6.1382      2.00000
     12      -6.1382      2.00000
     13      -5.5905      2.00000
     14      -5.5905      2.00000
     15      -5.4032      2.00000
     16      -5.4032      2.00000
     17       4.8963      0.00000
     18       4.8963      0.00000
     19       8.4141      0.00000
     20       8.4141      0.00000
     21      10.8839      0.00000
     22      10.8839      0.00000
     23      11.4881      0.00000
     24      11.4881      0.00000

 k-point    95 :       0.3636    0.0000    0.5000
  band No.  band energies     occupation 
      1     -26.0855      2.00000
      2     -26.0855      2.00000
      3     -25.7763      2.00000
      4     -25.7763      2.00000
      5      -9.9614      2.00000
      6      -9.9614      2.00000
      7      -8.7936      2.00000
      8      -8.7936      2.00000
      9      -6.4421      2.00000
     10      -6.4421      2.00000
     11      -6.2848      2.00000
     12      -6.2848      2.00000
     13      -5.6497      2.00000
     14      -5.6497      2.00000
     15      -5.4414      2.00000
     16      -5.4414      2.00000
     17       5.7420      0.00000
     18       5.7420      0.00000
     19       8.0897      0.00000
     20       8.0897      0.00000
     21      10.9459      0.00000
     22      10.9459      0.00000
     23      11.5043      0.00000
     24      11.5043      0.00000

 k-point    96 :       0.4545    0.0000    0.5000
  band No.  band energies     occupation 
      1     -25.9699      2.00000
      2     -25.9699      2.00000
      3     -25.8636      2.00000
      4     -25.8636      2.00000
      5      -9.5814      2.00000
      6      -9.5814      2.00000
      7      -9.1803      2.00000
      8      -9.1803      2.00000
      9      -6.5115      2.00000
     10      -6.5115      2.00000
     11      -6.4506      2.00000
     12      -6.4506      2.00000
     13      -5.5857      2.00000
     14      -5.5857      2.00000
     15      -5.5049      2.00000
     16      -5.5049      2.00000
     17       6.6271      0.00000
     18       6.6271      0.00000
     19       7.4555      0.00000
     20       7.4555      0.00000
     21      11.0100      0.00000
     22      11.0100      0.00000
     23      11.1674      0.00000
     24      11.1674      0.00000

 k-point    97 :       0.0000    0.1250    0.5000
  band No.  band energies     occupation 
      1     -26.3465      2.00000
      2     -26.3465      2.00000
      3     -25.6693      2.00000
      4     -25.6693      2.00000
      5     -10.6662      2.00000
      6     -10.6662      2.00000
      7      -8.1185      2.00000
      8      -8.1185      2.00000
      9      -6.1506      2.00000
     10      -6.1506      2.00000
     11      -5.7541      2.00000
     12      -5.7541      2.00000
     13      -5.4195      2.00000
     14      -5.4195      2.00000
     15      -5.0073      2.00000
     16      -5.0073      2.00000
     17       3.6817      0.00000
     18       3.6817      0.00000
     19       8.1564      0.00000
     20       8.1564      0.00000
     21      10.4964      0.00000
     22      10.4964      0.00000
     23      10.7326      0.00000
     24      10.7326      0.00000

 k-point    98 :       0.0909    0.1250    0.5000
  band No.  band energies     occupation 
      1     -26.3260      2.00000
      2     -26.3260      2.00000
      3     -25.6751      2.00000
      4     -25.6751      2.00000
      5     -10.6175      2.00000
      6     -10.6175      2.00000
      7      -8.1726      2.00000
      8      -8.1726      2.00000
      9      -6.1334      2.00000
     10      -6.1334      2.00000
     11      -5.8266      2.00000
     12      -5.8266      2.00000
     13      -5.4147      2.00000
     14      -5.4147      2.00000
     15      -5.1023      2.00000
     16      -5.1023      2.00000
     17       3.8528      0.00000
     18       3.8528      0.00000
     19       8.2248      0.00000
     20       8.2248      0.00000
     21      10.5469      0.00000
     22      10.5469      0.00000
     23      10.7538      0.00000
     24      10.7538      0.00000

 k-point    99 :       0.1818    0.1250    0.5000
  band No.  band energies     occupation 
      1     -26.2673      2.00000
      2     -26.2673      2.00000
      3     -25.6944      2.00000
      4     -25.6944      2.00000
      5     -10.4752      2.00000
      6     -10.4752      2.00000
      7      -8.3314      2.00000
      8      -8.3314      2.00000
      9      -6.0940      2.00000
     10      -6.0940      2.00000
     11      -6.0063      2.00000
     12      -6.0063      2.00000
     13      -5.4109      2.00000
     14      -5.4109      2.00000
     15      -5.3363      2.00000
     16      -5.3363      2.00000
     17       4.3254      0.00000
     18       4.3254      0.00000
     19       8.3534      0.00000
     20       8.3534      0.00000
     21      10.7030      0.00000
     22      10.7030      0.00000
     23      10.8035      0.00000
     24      10.8035      0.00000

 k-point   100 :       0.2727    0.1250    0.5000
  band No.  band energies     occupation 
      1     -26.1790      2.00000
      2     -26.1790      2.00000
      3     -25.7306      2.00000
      4     -25.7306      2.00000
      5     -10.2495      2.00000
      6     -10.2495      2.00000
      7      -8.5820      2.00000
      8      -8.5820      2.00000
      9      -6.2153      2.00000
     10      -6.2153      2.00000
     11      -6.0890      2.00000
     12      -6.0890      2.00000
     13      -5.5695      2.00000
     14      -5.5695      2.00000
     15      -5.4206      2.00000
     16      -5.4206      2.00000
     17       5.0098      0.00000
     18       5.0098      0.00000
     19       8.3567      0.00000
     20       8.3567      0.00000
     21      10.8480      0.00000
     22      10.8480      0.00000
     23      10.9129      0.00000
     24      10.9129      0.00000

 k-point   101 :       0.3636    0.1250    0.5000
  band No.  band energies     occupation 
      1     -26.0736      2.00000
      2     -26.0736      2.00000
      3     -25.7876      2.00000
      4     -25.7876      2.00000
      5      -9.9568      2.00000
      6      -9.9568      2.00000
      7      -8.9008      2.00000
      8      -8.9008      2.00000
      9      -6.3756      2.00000
     10      -6.3756      2.00000
     11      -6.2108      2.00000
     12      -6.2108      2.00000
     13      -5.6348      2.00000
     14      -5.6348      2.00000
     15      -5.4515      2.00000
     16      -5.4515      2.00000
     17       5.8149      0.00000
     18       5.8149      0.00000
     19       8.0653      0.00000
     20       8.0653      0.00000
     21      10.8587      0.00000
     22      10.8587      0.00000
     23      10.9700      0.00000
     24      10.9700      0.00000

 k-point   102 :       0.4545    0.1250    0.5000
  band No.  band energies     occupation 
      1     -25.9655      2.00000
      2     -25.9655      2.00000
      3     -25.8671      2.00000
      4     -25.8671      2.00000
      5      -9.6178      2.00000
      6      -9.6178      2.00000
      7      -9.2567      2.00000
      8      -9.2567      2.00000
      9      -6.4320      2.00000
     10      -6.4320      2.00000
     11      -6.3663      2.00000
     12      -6.3663      2.00000
     13      -5.5795      2.00000
     14      -5.5795      2.00000
     15      -5.5069      2.00000
     16      -5.5069      2.00000
     17       6.6617      0.00000
     18       6.6617      0.00000
     19       7.4580      0.00000
     20       7.4580      0.00000
     21      10.8525      0.00000
     22      10.8525      0.00000
     23      10.8884      0.00000
     24      10.8884      0.00000

 k-point   103 :       0.0000    0.2500    0.5000
  band No.  band energies     occupation 
      1     -26.2722      2.00000
      2     -26.2722      2.00000
      3     -25.7545      2.00000
      4     -25.7545      2.00000
      5     -10.4081      2.00000
      6     -10.4081      2.00000
      7      -8.4800      2.00000
      8      -8.4800      2.00000
      9      -6.0576      2.00000
     10      -6.0576      2.00000
     11      -5.6715      2.00000
     12      -5.6715      2.00000
     13      -5.5038      2.00000
     14      -5.5038      2.00000
     15      -5.1004      2.00000
     16      -5.1004      2.00000
     17       4.2258      0.00000
     18       4.2258      0.00000
     19       7.6741      0.00000
     20       7.6741      0.00000
     21      10.4573      0.00000
     22      10.4573      0.00000
     23      10.8004      0.00000
     24      10.8004      0.00000

 k-point   104 :       0.0909    0.2500    0.5000
  band No.  band energies     occupation 
      1     -26.2544      2.00000
      2     -26.2544      2.00000
      3     -25.7566      2.00000
      4     -25.7566      2.00000
      5     -10.3748      2.00000
      6     -10.3748      2.00000
      7      -8.5295      2.00000
      8      -8.5295      2.00000
      9      -6.0413      2.00000
     10      -6.0413      2.00000
     11      -5.7405      2.00000
     12      -5.7405      2.00000
     13      -5.4915      2.00000
     14      -5.4915      2.00000
     15      -5.1713      2.00000
     16      -5.1713      2.00000
     17       4.3690      0.00000
     18       4.3690      0.00000
     19       7.7555      0.00000
     20       7.7555      0.00000
     21      10.4410      0.00000
     22      10.4410      0.00000
     23      10.8019      0.00000
     24      10.8019      0.00000

 k-point   105 :       0.1818    0.2500    0.5000
  band No.  band energies     occupation 
      1     -26.2034      2.00000
      2     -26.2034      2.00000
      3     -25.7651      2.00000
      4     -25.7651      2.00000
      5     -10.2780      2.00000
      6     -10.2780      2.00000
      7      -8.6725      2.00000
      8      -8.6725      2.00000
      9      -6.0025      2.00000
     10      -6.0025      2.00000
     11      -5.9011      2.00000
     12      -5.9011      2.00000
     13      -5.4752      2.00000
     14      -5.4752      2.00000
     15      -5.3478      2.00000
     16      -5.3478      2.00000
     17       4.7676      0.00000
     18       4.7676      0.00000
     19       7.9418      0.00000
     20       7.9418      0.00000
     21      10.3880      0.00000
     22      10.3880      0.00000
     23      10.7910      0.00000
     24      10.7910      0.00000

 k-point   106 :       0.2727    0.2500    0.5000
  band No.  band energies     occupation 
      1     -26.1278      2.00000
      2     -26.1278      2.00000
      3     -25.7846      2.00000
      4     -25.7846      2.00000
      5     -10.1257      2.00000
      6     -10.1257      2.00000
      7      -8.8909      2.00000
      8      -8.8909      2.00000
      9      -6.0799      2.00000
     10      -6.0799      2.00000
     11      -5.9830      2.00000
     12      -5.9830      2.00000
     13      -5.5319      2.00000
     14      -5.5319      2.00000
     15      -5.4687      2.00000
     16      -5.4687      2.00000
     17       5.3503      0.00000
     18       5.3503      0.00000
     19       8.0689      0.00000
     20       8.0689      0.00000
     21      10.3080      0.00000
     22      10.3080      0.00000
     23      10.7351      0.00000
     24      10.7351      0.00000

 k-point   107 :       0.3636    0.2500    0.5000
  band No.  band energies     occupation 
      1     -26.0397      2.00000
      2     -26.0397      2.00000
      3     -25.8208      2.00000
      4     -25.8208      2.00000
      5      -9.9280      2.00000
      6      -9.9280      2.00000
      7      -9.1549      2.00000
      8      -9.1549      2.00000
      9      -6.2085      2.00000
     10      -6.2085      2.00000
     11      -6.0584      2.00000
     12      -6.0584      2.00000
     13      -5.5979      2.00000
     14      -5.5979      2.00000
     15      -5.4795      2.00000
     16      -5.4795      2.00000
     17       6.0417      0.00000
     18       6.0417      0.00000
     19       7.9261      0.00000
     20       7.9261      0.00000
     21      10.2686      0.00000
     22      10.2686      0.00000
     23      10.6175      0.00000
     24      10.6175      0.00000

 k-point   108 :       0.4545    0.2500    0.5000
  band No.  band energies     occupation 
      1     -25.9525      2.00000
      2     -25.9525      2.00000
      3     -25.8772      2.00000
      4     -25.8772      2.00000
      5      -9.6936      2.00000
      6      -9.6936      2.00000
      7      -9.4310      2.00000
      8      -9.4310      2.00000
      9      -6.2438      2.00000
     10      -6.2438      2.00000
     11      -6.1804      2.00000
     12      -6.1804      2.00000
     13      -5.5626      2.00000
     14      -5.5626      2.00000
     15      -5.5126      2.00000
     16      -5.5126      2.00000
     17       6.7710      0.00000
     18       6.7710      0.00000
     19       7.4478      0.00000
     20       7.4478      0.00000
     21      10.3312      0.00000
     22      10.3312      0.00000
     23      10.4657      0.00000
     24      10.4657      0.00000

 k-point   109 :       0.0000    0.3750    0.5000
  band No.  band energies     occupation 
      1     -26.1588      2.00000
      2     -26.1588      2.00000
      3     -25.8787      2.00000
      4     -25.8787      2.00000
      5     -10.0087      2.00000
      6     -10.0087      2.00000
      7      -8.9756      2.00000
      8      -8.9756      2.00000
      9      -5.9267      2.00000
     10      -5.9267      2.00000
     11      -5.6294      2.00000
     12      -5.6294      2.00000
     13      -5.5457      2.00000
     14      -5.5457      2.00000
     15      -5.2368      2.00000
     16      -5.2368      2.00000
     17       5.0205      0.00000
     18       5.0205      0.00000
     19       6.8796      0.00000
     20       6.8796      0.00000
     21      10.6187      0.00000
     22      10.6187      0.00000
     23      10.8520      0.00000
     24      10.8520      0.00000

 k-point   110 :       0.0909    0.3750    0.5000
  band No.  band energies     occupation 
      1     -26.1447      2.00000
      2     -26.1447      2.00000
      3     -25.8756      2.00000
      4     -25.8756      2.00000
      5      -9.9976      2.00000
      6      -9.9976      2.00000
      7      -9.0112      2.00000
      8      -9.0112      2.00000
      9      -5.9140      2.00000
     10      -5.9140      2.00000
     11      -5.6597      2.00000
     12      -5.6597      2.00000
     13      -5.5588      2.00000
     14      -5.5588      2.00000
     15      -5.2873      2.00000
     16      -5.2873      2.00000
     17       5.1346      0.00000
     18       5.1346      0.00000
     19       6.9655      0.00000
     20       6.9655      0.00000
     21      10.5657      0.00000
     22      10.5657      0.00000
     23      10.8240      0.00000
     24      10.8240      0.00000

 k-point   111 :       0.1818    0.3750    0.5000
  band No.  band energies     occupation 
      1     -26.1061      2.00000
      2     -26.1061      2.00000
      3     -25.8690      2.00000
      4     -25.8690      2.00000
      5      -9.9659      2.00000
      6      -9.9659      2.00000
      7      -9.1131      2.00000
      8      -9.1131      2.00000
      9      -5.8856      2.00000
     10      -5.8856      2.00000
     11      -5.7745      2.00000
     12      -5.7745      2.00000
     13      -5.5519      2.00000
     14      -5.5519      2.00000
     15      -5.4101      2.00000
     16      -5.4101      2.00000
     17       5.4507      0.00000
     18       5.4507      0.00000
     19       7.1846      0.00000
     20       7.1846      0.00000
     21      10.4047      0.00000
     22      10.4047      0.00000
     23      10.7269      0.00000
     24      10.7269      0.00000

 k-point   112 :       0.2727    0.3750    0.5000
  band No.  band energies     occupation 
      1     -26.0505      2.00000
      2     -26.0505      2.00000
      3     -25.8647      2.00000
      4     -25.8647      2.00000
      5      -9.9154      2.00000
      6      -9.9154      2.00000
      7      -9.2655      2.00000
      8      -9.2655      2.00000
      9      -5.9174      2.00000
     10      -5.9174      2.00000
     11      -5.8778      2.00000
     12      -5.8778      2.00000
     13      -5.5310      2.00000
     14      -5.5310      2.00000
     15      -5.5288      2.00000
     16      -5.5288      2.00000
     17       5.9071      0.00000
     18       5.9071      0.00000
     19       7.4289      0.00000
     20       7.4289      0.00000
     21      10.1599      0.00000
     22      10.1599      0.00000
     23      10.5431      0.00000
     24      10.5431      0.00000

 k-point   113 :       0.3636    0.3750    0.5000
  band No.  band energies     occupation 
      1     -25.9892      2.00000
      2     -25.9892      2.00000
      3     -25.8705      2.00000
      4     -25.8705      2.00000
      5      -9.8439      2.00000
      6      -9.8439      2.00000
      7      -9.4406      2.00000
      8      -9.4406      2.00000
      9      -6.0223      2.00000
     10      -6.0223      2.00000
     11      -5.9369      2.00000
     12      -5.9369      2.00000
     13      -5.5636      2.00000
     14      -5.5636      2.00000
     15      -5.5165      2.00000
     16      -5.5165      2.00000
     17       6.4342      0.00000
     18       6.4342      0.00000
     19       7.5387      0.00000
     20       7.5387      0.00000
     21       9.9391      0.00000
     22       9.9391      0.00000
     23      10.2940      0.00000
     24      10.2940      0.00000

 k-point   114 :       0.4545    0.3750    0.5000
  band No.  band energies     occupation 
      1     -25.9338      2.00000
      2     -25.9338      2.00000
      3     -25.8929      2.00000
      4     -25.8929      2.00000
      5      -9.7433      2.00000
      6      -9.7433      2.00000
      7      -9.6071      2.00000
      8      -9.6071      2.00000
      9      -6.0561      2.00000
     10      -6.0561      2.00000
     11      -6.0184      2.00000
     12      -6.0184      2.00000
     13      -5.5418      2.00000
     14      -5.5418      2.00000
     15      -5.5197      2.00000
     16      -5.5197      2.00000
     17       6.9574      0.00000
     18       6.9574      0.00000
     19       7.3717      0.00000
     20       7.3717      0.00000
     21       9.8957      0.00000
     22       9.8957      0.00000
     23      10.0469      0.00000
     24      10.0469      0.00000

 k-point   115 :       0.0000    0.5000    0.5000
  band No.  band energies     occupation 
      1     -26.0208      2.00000
      2     -26.0208      2.00000
      3     -26.0208      2.00000
      4     -26.0208      2.00000
      5      -9.5111      2.00000
      6      -9.5111      2.00000
      7      -9.5111      2.00000
      8      -9.5111      2.00000
      9      -5.7773      2.00000
     10      -5.7773      2.00000
     11      -5.7773      2.00000
     12      -5.7773      2.00000
     13      -5.3934      2.00000
     14      -5.3934      2.00000
     15      -5.3934      2.00000
     16      -5.3934      2.00000
     17       5.9461      0.00000
     18       5.9461      0.00000
     19       5.9461      0.00000
     20       5.9461      0.00000
     21      10.7997      0.00000
     22      10.7997      0.00000
     23      10.7997      0.00000
     24      10.7997      0.00000

 k-point   116 :       0.0909    0.5000    0.5000
  band No.  band energies     occupation 
      1     -26.0123      2.00000
      2     -26.0123      2.00000
      3     -26.0123      2.00000
      4     -26.0123      2.00000
      5      -9.5249      2.00000
      6      -9.5249      2.00000
      7      -9.5249      2.00000
      8      -9.5249      2.00000
      9      -5.7722      2.00000
     10      -5.7722      2.00000
     11      -5.7722      2.00000
     12      -5.7722      2.00000
     13      -5.4334      2.00000
     14      -5.4334      2.00000
     15      -5.4334      2.00000
     16      -5.4334      2.00000
     17       6.0404      0.00000
     18       6.0404      0.00000
     19       6.0404      0.00000
     20       6.0404      0.00000
     21      10.7459      0.00000
     22      10.7459      0.00000
     23      10.7459      0.00000
     24      10.7459      0.00000

 k-point   117 :       0.1818    0.5000    0.5000
  band No.  band energies     occupation 
      1     -25.9890      2.00000
      2     -25.9890      2.00000
      3     -25.9890      2.00000
      4     -25.9890      2.00000
      5      -9.5644      2.00000
      6      -9.5644      2.00000
      7      -9.5644      2.00000
      8      -9.5644      2.00000
      9      -5.7741      2.00000
     10      -5.7741      2.00000
     11      -5.7741      2.00000
     12      -5.7741      2.00000
     13      -5.5172      2.00000
     14      -5.5172      2.00000
     15      -5.5172      2.00000
     16      -5.5172      2.00000
     17       6.2944      0.00000
     18       6.2944      0.00000
     19       6.2944      0.00000
     20       6.2944      0.00000
     21      10.5795      0.00000
     22      10.5795      0.00000
     23      10.5795      0.00000
     24      10.5795      0.00000

 k-point   118 :       0.2727    0.5000    0.5000
  band No.  band energies     occupation 
      1     -25.9582      2.00000
      2     -25.9582      2.00000
      3     -25.9582      2.00000
      4     -25.9582      2.00000
      5      -9.6222      2.00000
      6      -9.6222      2.00000
      7      -9.6222      2.00000
      8      -9.6222      2.00000
      9      -5.8289      2.00000
     10      -5.8289      2.00000
     11      -5.8289      2.00000
     12      -5.8289      2.00000
     13      -5.5580      2.00000
     14      -5.5580      2.00000
     15      -5.5580      2.00000
     16      -5.5580      2.00000
     17       6.6358      0.00000
     18       6.6358      0.00000
     19       6.6358      0.00000
     20       6.6358      0.00000
     21      10.3120      0.00000
     22      10.3120      0.00000
     23      10.3120      0.00000
     24      10.3120      0.00000

 k-point   119 :       0.3636    0.5000    0.5000
  band No.  band energies     occupation 
      1     -25.9298      2.00000
      2     -25.9298      2.00000
      3     -25.9298      2.00000
      4     -25.9298      2.00000
      5      -9.6812      2.00000
      6      -9.6812      2.00000
      7      -9.6812      2.00000
      8      -9.6812      2.00000
      9      -5.9143      2.00000
     10      -5.9143      2.00000
     11      -5.9143      2.00000
     12      -5.9143      2.00000
     13      -5.5449      2.00000
     14      -5.5449      2.00000
     15      -5.5449      2.00000
     16      -5.5449      2.00000
     17       6.9705      0.00000
     18       6.9705      0.00000
     19       6.9705      0.00000
     20       6.9705      0.00000
     21      10.0123      0.00000
     22      10.0123      0.00000
     23      10.0123      0.00000
     24      10.0123      0.00000

 k-point   120 :       0.4545    0.5000    0.5000
  band No.  band energies     occupation 
      1     -25.9128      2.00000
      2     -25.9128      2.00000
      3     -25.9128      2.00000
      4     -25.9128      2.00000
      5      -9.7190      2.00000
      6      -9.7190      2.00000
      7      -9.7190      2.00000
      8      -9.7190      2.00000
      9      -5.9679      2.00000
     10      -5.9679      2.00000
     11      -5.9679      2.00000
     12      -5.9679      2.00000
     13      -5.5274      2.00000
     14      -5.5274      2.00000
     15      -5.5274      2.00000
     16      -5.5274      2.00000
     17       7.1881      0.00000
     18       7.1881      0.00000
     19       7.1881      0.00000
     20       7.1881      0.00000
     21       9.8040      0.00000
     22       9.8040      0.00000
     23       9.8040      0.00000
     24       9.8040      0.00000


--------------------------------------------------------------------------------------------------------


 soft charge-density along one line, spin component           1
         0         1         2         3         4         5         6         7         8         9
 total charge-density along one line
 
 pseudopotential strength for first ion, spin component:           1
 -2.345  -4.041   0.003  -0.000  -0.000
 -4.041  -6.880   0.010  -0.000  -0.000
  0.003   0.010  -0.323  -0.000   0.000
 -0.000  -0.000  -0.000  -0.332   0.000
 -0.000  -0.000   0.000   0.000  -0.332
 total augmentation occupancy for first ion, spin component:           1
  3.707  -0.899  -0.755   0.025  -0.000
 -0.899   0.278   0.167  -0.006   0.000
 -0.755   0.167   0.173  -0.004   0.000
  0.025  -0.006  -0.004   0.035   0.000
 -0.000   0.000   0.000   0.000   0.035


------------------------ aborting loop because EDIFF is reached ----------------------------------------


    CHARGE:  cpu time    0.2375: real time    0.2376
    FORLOC:  cpu time    0.0020: real time    0.0020
    FORNL :  cpu time    0.4396: real time    0.4406
    STRESS:  cpu time    1.4491: real time    1.4537
    FORCOR:  cpu time    0.0312: real time    0.0313
    FORHAR:  cpu time    0.0084: real time    0.0085
    MIXING:  cpu time    0.0010: real time    0.0010
    OFIELD:  cpu time    0.0000: real time    0.0000

  FORCE on cell =-STRESS in cart. coord.  units (eV):
  Direction    XX          YY          ZZ          XY          YZ          ZX
  --------------------------------------------------------------------------------------
  Alpha Z    47.66582    47.66582    47.66582
  Ewald    -573.34704  -168.66756  -783.20206    -0.00000     0.00000     0.00000
  Hartree   348.31238   441.37155   219.24649    -0.00000    -0.00000    -0.00000
  E(xc)    -172.82924  -171.00977  -173.25757     0.00000     0.00000    -0.00000
  Local    -270.54831  -657.17661    61.97363    -0.00000    -0.00000     0.00000
  n-local  -168.59502  -175.35071  -168.81055     0.20951     0.01117     0.02973
  augment    76.16591    63.65285    76.97670     0.00000     0.00000    -0.00000
  Kinetic   713.18767   619.50178   719.85668    -1.52389    -0.05526    -0.15082
  Fock        0.00000     0.00000     0.00000     0.00000     0.00000     0.00000
  -------------------------------------------------------------------------------------
  Total       0.01219    -0.01264     0.44913     0.00000    -0.00000     0.00000
  in kB       0.26413    -0.27406     9.73494     0.00000    -0.00000     0.00000
  external pressure =        3.24 kB  Pullay stress =        0.00 kB


 VOLUME and BASIS-vectors are now :
 -----------------------------------------------------------------------------
  energy-cutoff  :      520.00
  volume of cell :       73.92
      direct lattice vectors                 reciprocal lattice vectors
     3.023101875  0.000000000  0.000000000     0.330786074 -0.000000000  0.000000000
     0.000000000  4.477166669  0.000000000     0.000000000  0.223355545  0.000000000
     0.000000000  0.000000000  5.461297259    -0.000000000 -0.000000000  0.183106678

  length of vectors
     3.023101875  4.477166669  5.461297259     0.330786074  0.223355545  0.183106678


 FORCES acting on ions
    electron-ion (+dipol)            ewald-force                    non-local-force                 convergence-correction
 -----------------------------------------------------------------------------------------------
   0.149E-13 -.760E+02 0.312E+01   0.263E-13 0.844E+02 -.339E+01   -.132E-14 -.841E+01 0.279E+00   0.123E-14 -.198E-04 0.156E-05
   0.178E-13 0.760E+02 0.312E+01   -.255E-13 -.844E+02 -.339E+01   0.132E-14 0.841E+01 0.279E+00   0.103E-14 0.198E-04 0.156E-05
   0.179E-16 -.760E+02 0.312E+01   0.264E-13 0.844E+02 -.339E+01   -.132E-14 -.841E+01 0.279E+00   -.672E-15 -.198E-04 0.156E-05
   0.637E-14 0.760E+02 0.312E+01   -.253E-13 -.844E+02 -.339E+01   0.132E-14 0.841E+01 0.279E+00   -.341E-15 0.198E-04 0.156E-05
   0.307E-12 0.404E+02 -.158E+01   -.175E-13 -.873E+02 0.339E+01   0.734E-14 0.470E+02 -.182E+01   -.168E-14 -.119E-02 0.413E-04
   0.191E-12 -.404E+02 -.158E+01   0.131E-13 0.873E+02 0.339E+01   -.734E-14 -.470E+02 -.182E+01   0.418E-13 0.119E-02 0.413E-04
   0.527E-13 0.404E+02 -.158E+01   -.120E-13 -.873E+02 0.339E+01   0.734E-14 0.470E+02 -.182E+01   -.206E-13 -.119E-02 0.413E-04
   -.706E-13 -.404E+02 -.158E+01   0.186E-13 0.873E+02 0.339E+01   -.734E-14 -.470E+02 -.182E+01   0.250E-13 0.119E-02 0.413E-04
 -----------------------------------------------------------------------------------------------
   0.519E-12 -.158E-09 0.616E+01   0.406E-14 0.142E-13 0.000E+00   0.346E-17 0.000E+00 -.616E+01   0.458E-13 -.667E-11 0.172E-03
 
 
 POSITION                                       TOTAL-FORCE (eV/Angst)
 -----------------------------------------------------------------------------------
      1.51155      0.29356      2.27229        -0.000000     -0.009578      0.009500
      1.51155      4.18360      5.00294         0.000000      0.009578      0.009500
      0.00000      2.53215      2.27229        -0.000000     -0.009578      0.009500
      0.00000      1.94502      5.00294         0.000000      0.009578      0.009500
      1.51155      3.81500      2.30427         0.000000      0.016461     -0.009500
      1.51155      0.66217      5.03492        -0.000000     -0.016461     -0.009500
      0.00000      1.57642      2.30427         0.000000      0.016461     -0.009500
      0.00000      2.90075      5.03492        -0.000000     -0.016461     -0.009500
 -----------------------------------------------------------------------------------
    total drift:                                0.000000     -0.000000      0.000043


--------------------------------------------------------------------------------------------------------



  FREE ENERGIE OF THE ION-ELECTRON SYSTEM (eV)
  ---------------------------------------------------
  free  energy   TOTEN  =       -32.75615073 eV

  energy  without entropy=      -32.75615073  energy(sigma->0) =      -32.75615073
 


--------------------------------------------------------------------------------------------------------


    POTLOK:  cpu time    0.0591: real time    0.0601


--------------------------------------------------------------------------------------------------------


 writing wavefunctions
     LOOP+:  cpu time   55.2340: real time   55.3671
    4ORBIT:  cpu time    0.0000: real time    0.0000

 total amount of memory used by VASP MPI-rank0   101414. kBytes
=======================================================================

   base      :      30000. kBytes
   nonl-proj :      31161. kBytes
   fftplans  :      10854. kBytes
   grid      :       5598. kBytes
   one-center:         24. kBytes
   wavefun   :      23777. kBytes
 
  
  
 General timing and accounting informations for this job:
 ========================================================
  
                  Total CPU time used (sec):       57.736
                            User time (sec):       55.303
                          System time (sec):        2.433
                         Elapsed time (sec):       57.882
  
                   Maximum memory used (kb):      166756.
                   Average memory used (kb):           0.
  
                          Minor page faults:        98222
                          Major page faults:            0
                 Voluntary context switches:          127
