  PAW_PBE H 15Jun2001                    
   1.00000000000000     
 parameters from PSCTR are:
   VRHFIN =H: ultrasoft test
   LEXCH  = PE
   EATOM  =    12.4884 eV,    0.9179 Ry

   TITEL  = PAW_PBE H 15Jun2001
   LULTRA =        F    use ultrasoft PP ?
   IUNSCR =        0    unscreen: 0-lin 1-nonlin 2-no
   RPACOR =    0.000    partial core radius
   POMASS =    1.000; ZVAL   =    1.000    mass and valenz
   RCORE  =    1.100    outmost cutoff radius
   RWIGS  =    0.700; RWIGS  =    0.370    wigner-seitz radius (au A)
   ENMAX  =  250.000; ENMIN  =  200.000 eV
   RCLOC  =    0.701    cutoff for local pot
   LCOR   =        T    correct aug charges
   LPAW   =        T    paw PP
   EAUG   =  400.000
   RMAX   =    1.123    core radius for proj-oper
   RAUG   =    1.200    factor for augmentation sphere
   RDEP   =    1.112    radius for radial grids
   RDEPT  =    0.926    core radius for aug-charge
 
   Atomic configuration
    2 entries
     n  l   j            E        occ.
     1  0  0.50        -6.4927   1.0000
     2  1  0.50        -3.4015   0.0000
   Description
     l       E           TYP  RCUT    TYP  RCUT
     0     -6.4927494     23  1.100
     0      6.8029130     23  1.100
     1     -4.0817478     23  1.100
   Error from kinetic energy argument (eV)
   NDATA  =      100
   STEP   =   20.000   1.050
  5.77      5.50      5.37      5.11      4.99      4.75      4.52      4.40
  4.19      3.98      3.88      3.68      3.49      3.31      3.14      2.98
  2.83      2.68      2.54      2.35      2.22      2.11      1.94      1.84
  1.74      1.61      1.48      1.40      1.29      1.19      1.09      1.01
 0.925     0.851     0.782     0.719     0.642     0.590     0.526     0.482
 0.430     0.382     0.339     0.301     0.267     0.236     0.209     0.178
 0.157     0.133     0.113     0.988E-01 0.832E-01 0.697E-01 0.562E-01 0.467E-01
 0.386E-01 0.305E-01 0.239E-01 0.186E-01 0.143E-01 0.109E-01 0.820E-02 0.580E-02
 0.425E-02 0.291E-02 0.195E-02 0.130E-02 0.808E-03 0.544E-03 0.368E-03 0.278E-03
 0.239E-03 0.227E-03 0.225E-03 0.224E-03 0.218E-03 0.204E-03 0.181E-03 0.156E-03
 0.127E-03 0.983E-04 0.735E-04 0.520E-04 0.369E-04 0.274E-04 0.225E-04 0.204E-04
 0.201E-04 0.200E-04 0.193E-04 0.178E-04 0.151E-04 0.121E-04 0.914E-05 0.676E-05
 0.512E-05 0.437E-05 0.412E-05 0.410E-05
END of PSCTR-controll parameters
 local part
   170.075338972103     
  0.24361675E+01  0.24358438E+01  0.24348697E+01  0.24332467E+01  0.24309759E+01
  0.24280585E+01  0.24244962E+01  0.24202910E+01  0.24154452E+01  0.24099615E+01
  0.24038429E+01  0.23970925E+01  0.23897140E+01  0.23817112E+01  0.23730884E+01
  0.23638500E+01  0.23540009E+01  0.23435463E+01  0.23324918E+01  0.23208434E+01
  0.23086076E+01  0.22957912E+01  0.22824016E+01  0.22684466E+01  0.22539345E+01
  0.22388742E+01  0.22232749E+01  0.22071466E+01  0.21904995E+01  0.21733446E+01
  0.21556932E+01  0.21375571E+01  0.21189488E+01  0.20998810E+01  0.20803670E+01
  0.20604206E+01  0.20400561E+01  0.20192881E+01  0.19981317E+01  0.19766025E+01
  0.19547164E+01  0.19324900E+01  0.19099398E+01  0.18870833E+01  0.18639378E+01
  0.18405213E+01  0.18168520E+01  0.17929483E+01  0.17688290E+01  0.17445131E+01
  0.17200197E+01  0.16953681E+01  0.16705779E+01  0.16456684E+01  0.16206593E+01
  0.15955702E+01  0.15704206E+01  0.15452301E+01  0.15200181E+01  0.14948040E+01
  0.14696067E+01  0.14444455E+01  0.14193389E+01  0.13943054E+01  0.13693634E+01
  0.13445305E+01  0.13198243E+01  0.12952620E+01  0.12708602E+01  0.12466351E+01
  0.12226024E+01  0.11987774E+01  0.11751747E+01  0.11518084E+01  0.11286919E+01
  0.11058381E+01  0.10832593E+01  0.10609670E+01  0.10389722E+01  0.10172850E+01
  0.99591506E+00  0.97487120E+00  0.95416158E+00  0.93379367E+00  0.91377423E+00
  0.89410930E+00  0.87480424E+00  0.85586371E+00  0.83729166E+00  0.81909138E+00
  0.80126545E+00  0.78381581E+00  0.76674374E+00  0.75004987E+00  0.73373423E+00
  0.71779623E+00  0.70223469E+00  0.68704790E+00  0.67223359E+00  0.65778899E+00
  0.64371083E+00  0.62999539E+00  0.61663851E+00  0.60363564E+00  0.59098183E+00
  0.57867178E+00  0.56669988E+00  0.55506021E+00  0.54374657E+00  0.53275254E+00
  0.52207146E+00  0.51169647E+00  0.50162059E+00  0.49183665E+00  0.48233738E+00
  0.47311545E+00  0.46416343E+00  0.45547387E+00  0.44703928E+00  0.43885221E+00
  0.43090520E+00  0.42319086E+00  0.41570186E+00  0.40843093E+00  0.40137093E+00
  0.39451480E+00  0.38785563E+00  0.38138662E+00  0.37510113E+00  0.36899267E+00
  0.36305492E+00  0.35728172E+00  0.35166708E+00  0.34620521E+00  0.34089048E+00
  0.33571746E+00  0.33068091E+00  0.32577576E+00  0.32099717E+00  0.31634046E+00
  0.31180113E+00  0.30737491E+00  0.30305766E+00  0.29884547E+00  0.29473457E+00
  0.29072138E+00  0.28680248E+00  0.28297461E+00  0.27923465E+00  0.27557964E+00
  0.27200675E+00  0.26851329E+00  0.26509669E+00  0.26175448E+00  0.25848433E+00
  0.25528399E+00  0.25215132E+00  0.24908428E+00  0.24608088E+00  0.24313924E+00
  0.24025756E+00  0.23743407E+00  0.23466710E+00  0.23195502E+00  0.22929625E+00
  0.22668928E+00  0.22413261E+00  0.22162480E+00  0.21916444E+00  0.21675016E+00
  0.21438060E+00  0.21205445E+00  0.20977041E+00  0.20752719E+00  0.20532354E+00
  0.20315824E+00  0.20103005E+00  0.19893780E+00  0.19688029E+00  0.19485638E+00
  0.19286493E+00  0.19090482E+00  0.18897497E+00  0.18707430E+00  0.18520178E+00
  0.18335637E+00  0.18153710E+00  0.17974299E+00  0.17797310E+00  0.17622652E+00
  0.17450237E+00  0.17279980E+00  0.17111800E+00  0.16945618E+00  0.16781359E+00
  0.16618952E+00  0.16458329E+00  0.16299427E+00  0.16142185E+00  0.15986548E+00
  0.15832464E+00  0.15679885E+00  0.15528768E+00  0.15379074E+00  0.15230767E+00
  0.15083817E+00  0.14938195E+00  0.14793880E+00  0.14650851E+00  0.14509094E+00
  0.14368594E+00  0.14229345E+00  0.14091340E+00  0.13954576E+00  0.13819055E+00
  0.13684780E+00  0.13551756E+00  0.13419992E+00  0.13289498E+00  0.13160287E+00
  0.13032374E+00  0.12905775E+00  0.12780507E+00  0.12656590E+00  0.12534042E+00
  0.12412885E+00  0.12293139E+00  0.12174826E+00  0.12057967E+00  0.11942583E+00
  0.11828694E+00  0.11716320E+00  0.11605479E+00  0.11496190E+00  0.11388469E+00
  0.11282332E+00  0.11177791E+00  0.11074859E+00  0.10973545E+00  0.10873859E+00
  0.10775806E+00  0.10679390E+00  0.10584613E+00  0.10491475E+00  0.10399974E+00
  0.10310104E+00  0.10221858E+00  0.10135227E+00  0.10050197E+00  0.99667555E-01
  0.98848839E-01  0.98045629E-01  0.97257704E-01  0.96484823E-01  0.95726718E-01
  0.94983104E-01  0.94253671E-01  0.93538094E-01  0.92836028E-01  0.92147111E-01
  0.91470966E-01  0.90807204E-01  0.90155420E-01  0.89515201E-01  0.88886123E-01
  0.88267755E-01  0.87659657E-01  0.87061387E-01  0.86472496E-01  0.85892535E-01
  0.85321052E-01  0.84757597E-01  0.84201723E-01  0.83652985E-01  0.83110946E-01
  0.82575173E-01  0.82045245E-01  0.81520750E-01  0.81001287E-01  0.80486470E-01
  0.79975928E-01  0.79469303E-01  0.78966256E-01  0.78466466E-01  0.77969631E-01
  0.77475467E-01  0.76983711E-01  0.76494120E-01  0.76006474E-01  0.75520571E-01
  0.75036232E-01  0.74553301E-01  0.74071641E-01  0.73591139E-01  0.73111703E-01
  0.72633262E-01  0.72155768E-01  0.71679192E-01  0.71203528E-01  0.70728790E-01
  0.70255010E-01  0.69782241E-01  0.69310552E-01  0.68840032E-01  0.68370783E-01
  0.67902925E-01  0.67436589E-01  0.66971920E-01  0.66509072E-01  0.66048211E-01
  0.65589511E-01  0.65133151E-01  0.64679316E-01  0.64228197E-01  0.63779986E-01
  0.63334877E-01  0.62893064E-01  0.62454743E-01  0.62020103E-01  0.61589333E-01
  0.61162617E-01  0.60740132E-01  0.60322051E-01  0.59908537E-01  0.59499744E-01
  0.59095815E-01  0.58696886E-01  0.58303075E-01  0.57914494E-01  0.57531235E-01
  0.57153381E-01  0.56780996E-01  0.56414134E-01  0.56052829E-01  0.55697104E-01
  0.55346962E-01  0.55002395E-01  0.54663378E-01  0.54329872E-01  0.54001822E-01
  0.53679163E-01  0.53361812E-01  0.53049677E-01  0.52742651E-01  0.52440616E-01
  0.52143444E-01  0.51850995E-01  0.51563123E-01  0.51279668E-01  0.51000467E-01
  0.50725348E-01  0.50454134E-01  0.50186641E-01  0.49922684E-01  0.49662075E-01
  0.49404623E-01  0.49150137E-01  0.48898429E-01  0.48649311E-01  0.48402597E-01
  0.48158108E-01  0.47915668E-01  0.47675106E-01  0.47436260E-01  0.47198973E-01
  0.46963097E-01  0.46728493E-01  0.46495030E-01  0.46262587E-01  0.46031053E-01
  0.45800326E-01  0.45570316E-01  0.45340942E-01  0.45112135E-01  0.44883837E-01
  0.44655999E-01  0.44428587E-01  0.44201573E-01  0.43974943E-01  0.43748692E-01
  0.43522826E-01  0.43297360E-01  0.43072319E-01  0.42847735E-01  0.42623650E-01
  0.42400112E-01  0.42177175E-01  0.41954901E-01  0.41733354E-01  0.41512605E-01
  0.41292727E-01  0.41073795E-01  0.40855886E-01  0.40639080E-01  0.40423455E-01
  0.40209090E-01  0.39996062E-01  0.39784448E-01  0.39574321E-01  0.39365753E-01
  0.39158811E-01  0.38953560E-01  0.38750058E-01  0.38548361E-01  0.38348518E-01
  0.38150573E-01  0.37954562E-01  0.37760516E-01  0.37568461E-01  0.37378413E-01
  0.37190382E-01  0.37004372E-01  0.36820380E-01  0.36638396E-01  0.36458402E-01
  0.36280375E-01  0.36104287E-01  0.35930102E-01  0.35757781E-01  0.35587280E-01
  0.35418549E-01  0.35251536E-01  0.35086184E-01  0.34922435E-01  0.34760227E-01
  0.34599497E-01  0.34440179E-01  0.34282209E-01  0.34125520E-01  0.33970045E-01
  0.33815720E-01  0.33662478E-01  0.33510257E-01  0.33358995E-01  0.33208634E-01
  0.33059119E-01  0.32910397E-01  0.32762419E-01  0.32615143E-01  0.32468527E-01
  0.32322539E-01  0.32177147E-01  0.32032328E-01  0.31888062E-01  0.31744334E-01
  0.31601137E-01  0.31458466E-01  0.31316321E-01  0.31174710E-01  0.31033641E-01
  0.30893129E-01  0.30753194E-01  0.30613857E-01  0.30475145E-01  0.30337085E-01
  0.30199711E-01  0.30063056E-01  0.29927157E-01  0.29792053E-01  0.29657782E-01
  0.29524387E-01  0.29391908E-01  0.29260386E-01  0.29129862E-01  0.29000376E-01
  0.28871967E-01  0.28744670E-01  0.28618520E-01  0.28493549E-01  0.28369784E-01
  0.28247251E-01  0.28125971E-01  0.28005961E-01  0.27887233E-01  0.27769796E-01
  0.27653654E-01  0.27538806E-01  0.27425247E-01  0.27312967E-01  0.27201953E-01
  0.27092184E-01  0.26983638E-01  0.26876288E-01  0.26770101E-01  0.26665042E-01
  0.26561073E-01  0.26458148E-01  0.26356223E-01  0.26255247E-01  0.26155169E-01
  0.26055933E-01  0.25957483E-01  0.25859760E-01  0.25762705E-01  0.25666256E-01
  0.25570355E-01  0.25474940E-01  0.25379951E-01  0.25285330E-01  0.25191021E-01
  0.25096967E-01  0.25003117E-01  0.24909420E-01  0.24815831E-01  0.24722305E-01
  0.24628804E-01  0.24535291E-01  0.24441734E-01  0.24348107E-01  0.24254385E-01
  0.24160552E-01  0.24066592E-01  0.23972497E-01  0.23878263E-01  0.23783890E-01
  0.23689383E-01  0.23594754E-01  0.23500017E-01  0.23405193E-01  0.23310304E-01
  0.23215381E-01  0.23120455E-01  0.23025564E-01  0.22930746E-01  0.22836046E-01
  0.22741509E-01  0.22647184E-01  0.22553120E-01  0.22459369E-01  0.22365983E-01
  0.22273017E-01  0.22180524E-01  0.22088556E-01  0.21997168E-01  0.21906411E-01
  0.21816337E-01  0.21726993E-01  0.21638428E-01  0.21550687E-01  0.21463813E-01
  0.21377844E-01  0.21292817E-01  0.21208765E-01  0.21125718E-01  0.21043701E-01
  0.20962735E-01  0.20882837E-01  0.20804018E-01  0.20726288E-01  0.20649647E-01
  0.20574096E-01  0.20499626E-01  0.20426227E-01  0.20353883E-01  0.20282575E-01
  0.20212277E-01  0.20142961E-01  0.20074596E-01  0.20007145E-01  0.19940570E-01
  0.19874829E-01  0.19809879E-01  0.19745671E-01  0.19682157E-01  0.19619288E-01
  0.19557010E-01  0.19495272E-01  0.19434019E-01  0.19373197E-01  0.19312752E-01
  0.19252631E-01  0.19192779E-01  0.19133145E-01  0.19073678E-01  0.19014330E-01
  0.18955052E-01  0.18895801E-01  0.18836535E-01  0.18777215E-01  0.18717807E-01
  0.18658276E-01  0.18598597E-01  0.18538743E-01  0.18478695E-01  0.18418436E-01
  0.18357952E-01  0.18297236E-01  0.18236282E-01  0.18175090E-01  0.18113662E-01
  0.18052006E-01  0.17990131E-01  0.17928052E-01  0.17865786E-01  0.17803353E-01
  0.17740776E-01  0.17678083E-01  0.17615302E-01  0.17552465E-01  0.17489605E-01
  0.17426758E-01  0.17363961E-01  0.17301252E-01  0.17238671E-01  0.17176257E-01
  0.17114051E-01  0.17052093E-01  0.16990421E-01  0.16929075E-01  0.16868092E-01
  0.16807509E-01  0.16747361E-01  0.16687679E-01  0.16628495E-01  0.16569837E-01
  0.16511731E-01  0.16454200E-01  0.16397265E-01  0.16340944E-01  0.16285251E-01
  0.16230198E-01  0.16175795E-01  0.16122045E-01  0.16068953E-01  0.16016516E-01
  0.15964731E-01  0.15913591E-01  0.15863086E-01  0.15813203E-01  0.15763925E-01
  0.15715233E-01  0.15667108E-01  0.15619524E-01  0.15572456E-01  0.15525877E-01
  0.15479757E-01  0.15434066E-01  0.15388772E-01  0.15343843E-01  0.15299247E-01
  0.15254950E-01  0.15210918E-01  0.15167120E-01  0.15123523E-01  0.15080096E-01
  0.15036808E-01  0.14993629E-01  0.14950531E-01  0.14907489E-01  0.14864477E-01
  0.14821471E-01  0.14778452E-01  0.14735401E-01  0.14692301E-01  0.14649137E-01
  0.14605900E-01  0.14562579E-01  0.14519170E-01  0.14475668E-01  0.14432074E-01
  0.14388389E-01  0.14344618E-01  0.14300768E-01  0.14256849E-01  0.14212873E-01
  0.14168854E-01  0.14124809E-01  0.14080754E-01  0.14036711E-01  0.13992698E-01
  0.13948738E-01  0.13904855E-01  0.13861071E-01  0.13817411E-01  0.13773899E-01
  0.13730559E-01  0.13687417E-01  0.13644497E-01  0.13601821E-01  0.13559414E-01
  0.13517297E-01  0.13475492E-01  0.13434017E-01  0.13392892E-01  0.13352133E-01
  0.13311754E-01  0.13271768E-01  0.13232186E-01  0.13193015E-01  0.13154262E-01
  0.13115931E-01  0.13078021E-01  0.13040533E-01  0.13003461E-01  0.12966801E-01
  0.12930543E-01  0.12894678E-01  0.12859191E-01  0.12824070E-01  0.12789297E-01
  0.12754855E-01  0.12720724E-01  0.12686882E-01  0.12653308E-01  0.12619978E-01
  0.12586868E-01  0.12553954E-01  0.12521209E-01  0.12488609E-01  0.12456127E-01
  0.12423738E-01  0.12391416E-01  0.12359137E-01  0.12326878E-01  0.12294614E-01
  0.12262325E-01  0.12229990E-01  0.12197591E-01  0.12165110E-01  0.12132533E-01
  0.12099848E-01  0.12067043E-01  0.12034110E-01  0.12001043E-01  0.11967838E-01
  0.11934493E-01  0.11901011E-01  0.11867393E-01  0.11833645E-01  0.11799774E-01
  0.11765791E-01  0.11731706E-01  0.11697535E-01  0.11663292E-01  0.11628994E-01
  0.11594661E-01  0.11560313E-01  0.11525972E-01  0.11491660E-01  0.11457402E-01
  0.11423222E-01  0.11389145E-01  0.11355197E-01  0.11321403E-01  0.11287788E-01
  0.11254378E-01  0.11221197E-01  0.11188268E-01  0.11155613E-01  0.11123255E-01
  0.11091211E-01  0.11059502E-01  0.11028142E-01  0.10997147E-01  0.10966530E-01
  0.10936299E-01  0.10906465E-01  0.10877032E-01  0.10848006E-01  0.10819387E-01
  0.10791175E-01  0.10763367E-01  0.10735959E-01  0.10708941E-01  0.10682306E-01
  0.10656041E-01  0.10630132E-01  0.10604563E-01  0.10579317E-01  0.10554374E-01
  0.10529714E-01  0.10505313E-01  0.10481148E-01  0.10457195E-01  0.10433428E-01
  0.10409822E-01  0.10386350E-01  0.10362985E-01  0.10339702E-01  0.10316474E-01
  0.10293277E-01  0.10270085E-01  0.10246875E-01  0.10223624E-01  0.10200311E-01
  0.10176916E-01  0.10153420E-01  0.10129806E-01  0.10106059E-01  0.10082167E-01
  0.10058116E-01  0.10033900E-01  0.10009509E-01  0.99849389E-02  0.99601874E-02
  0.99352536E-02  0.99101391E-02  0.98848478E-02  0.98593856E-02  0.98337608E-02
  0.98079834E-02  0.97820656E-02  0.97560211E-02  0.97298656E-02  0.97036159E-02
  0.96772903E-02  0.96509083E-02  0.96244901E-02  0.95980569E-02  0.95716303E-02
  0.95452325E-02  0.95188855E-02  0.94926116E-02  0.94664330E-02  0.94403714E-02
  0.94144481E-02  0.93886836E-02  0.93630977E-02  0.93377094E-02  0.93125363E-02
  0.92875950E-02  0.92629004E-02  0.92384663E-02  0.92143045E-02  0.91904252E-02
  0.91668370E-02  0.91435462E-02  0.91205575E-02  0.90978735E-02  0.90754949E-02
  0.90534203E-02  0.90316465E-02  0.90101684E-02  0.89889792E-02  0.89680703E-02
  0.89474315E-02  0.89270514E-02  0.89069168E-02  0.88870137E-02  0.88673270E-02
  0.88478404E-02  0.88285371E-02  0.88093996E-02  0.87904098E-02  0.87715495E-02
  0.87528000E-02  0.87341429E-02  0.87155597E-02  0.86970321E-02  0.86785424E-02
  0.86600734E-02  0.86416084E-02  0.86231320E-02  0.86046294E-02  0.85860872E-02
  0.85674930E-02  0.85488358E-02  0.85301063E-02  0.85112964E-02  0.84923997E-02
  0.84734114E-02  0.84543282E-02  0.84351485E-02  0.84158722E-02  0.83965008E-02
  0.83770372E-02  0.83574859E-02  0.83378525E-02  0.83181439E-02  0.82983685E-02
  0.82785352E-02  0.82586544E-02  0.82387371E-02  0.82187952E-02  0.81988412E-02
  0.81788880E-02  0.81589493E-02  0.81390387E-02  0.81191702E-02  0.80993578E-02
  0.80796153E-02  0.80599563E-02  0.80403940E-02  0.80209411E-02  0.80016097E-02
  0.79824109E-02  0.79633552E-02  0.79444518E-02  0.79257089E-02  0.79071337E-02
  0.78887320E-02  0.78705084E-02  0.78524662E-02  0.78346073E-02  0.78169327E-02
  0.77994416E-02  0.77821323E-02  0.77650018E-02  0.77480461E-02  0.77312597E-02
  0.77146366E-02  0.76981692E-02  0.76818496E-02  0.76656686E-02  0.76496164E-02
  0.76336827E-02  0.76178563E-02  0.76021257E-02  0.75864791E-02  0.75709043E-02
  0.75553893E-02  0.75399216E-02  0.75244892E-02  0.75090803E-02  0.74936835E-02
  0.74782877E-02  0.74628829E-02  0.74474592E-02  0.74320081E-02  0.74165217E-02
  0.74009930E-02  0.73854163E-02  0.73697867E-02  0.73541005E-02  0.73383551E-02
  0.73225489E-02  0.73066816E-02  0.72907538E-02  0.72747672E-02  0.72587245E-02
  0.72426295E-02  0.72264869E-02  0.72103023E-02  0.71940821E-02  0.71778338E-02
  0.71615653E-02  0.71452853E-02  0.71290031E-02  0.71127286E-02  0.70964719E-02
  0.70802435E-02  0.70640541E-02  0.70479144E-02  0.70318352E-02  0.70158268E-02
  0.69998996E-02  0.69840634E-02  0.69683274E-02  0.69527005E-02  0.69371907E-02
  0.69218054E-02  0.69065510E-02  0.68914332E-02  0.68764567E-02  0.68616255E-02
  0.68469424E-02  0.68324093E-02  0.68180272E-02  0.68037962E-02  0.67897153E-02
  0.67757826E-02  0.67619954E-02  0.67483499E-02  0.67348415E-02  0.67214650E-02
  0.67082139E-02  0.66950815E-02  0.66820600E-02  0.66691414E-02  0.66563167E-02
  0.66435770E-02  0.66309126E-02  0.66183138E-02  0.66057709E-02  0.65932738E-02
  0.65808130E-02  0.65683787E-02  0.65559616E-02  0.65435530E-02  0.65311442E-02
  0.65187274E-02  0.65062953E-02  0.64938412E-02  0.64813592E-02  0.64688439E-02
  0.64562910E-02  0.64436966E-02  0.64310580E-02  0.64183730E-02  0.64056404E-02
  0.63928596E-02  0.63800311E-02  0.63671561E-02  0.63542365E-02  0.63412751E-02
  0.63282753E-02  0.63152413E-02  0.63021781E-02  0.62890910E-02  0.62759860E-02
 gradient corrections used for XC
           5
 atomic pseudo charge-density
  0.10000000E+01  0.99507271E+00  0.98052707E+00  0.95704568E+00  0.92568373E+00
  0.88776197E+00  0.84474519E+00  0.79812454E+00  0.74931839E+00  0.69959966E+00
  0.65005177E+00  0.60155049E+00  0.55476631E+00  0.51018082E+00  0.46811135E+00
  0.42873902E+00  0.39213662E+00  0.35829427E+00  0.32714173E+00  0.29856681E+00
  0.27243019E+00  0.24857680E+00  0.22684441E+00  0.20706984E+00  0.18909339E+00
  0.17276170E+00  0.15792970E+00  0.14446162E+00  0.13223147E+00  0.12112317E+00
  0.11103030E+00  0.10185573E+00  0.93511122E-01  0.85916370E-01  0.78998981E-01
  0.72693483E-01  0.66940835E-01  0.61687850E-01  0.56886663E-01  0.52494223E-01
  0.48471824E-01  0.44784673E-01  0.41401501E-01  0.38294197E-01  0.35437485E-01
  0.32808629E-01  0.30387170E-01  0.28154684E-01  0.26094570E-01  0.24191860E-01
  0.22433043E-01  0.20805918E-01  0.19299454E-01  0.17903669E-01  0.16609522E-01
  0.15408814E-01  0.14294104E-01  0.13258632E-01  0.12296247E-01  0.11401351E-01
  0.10568838E-01  0.97940489E-02  0.90727275E-02  0.84009799E-02  0.77752401E-02
  0.71922383E-02  0.66489732E-02  0.61426860E-02  0.56708380E-02  0.52310902E-02
  0.48212851E-02  0.44394298E-02  0.40836812E-02  0.37523329E-02  0.34438028E-02
  0.31566226E-02  0.28894274E-02  0.26409474E-02  0.24099994E-02  0.21954799E-02
  0.19963586E-02  0.18116719E-02  0.16405184E-02  0.14820533E-02  0.13354843E-02
  0.12000676E-02  0.10751045E-02  0.95993760E-03  0.85394820E-03  0.75655353E-03
  0.66720422E-03  0.58538210E-03  0.51059815E-03  0.44239061E-03  0.38032331E-03
  0.32398414E-03  0.27298355E-03  0.22695333E-03  0.18554536E-03  0.14843054E-03
  0.11529778E-03  0.85853022E-04  0.59818447E-04  0.36931616E-04  0.16944752E-04
 -0.37596258E-06 -0.15251030E-04 -0.27888246E-04 -0.38483271E-04 -0.47220171E-04
 -0.54271921E-04 -0.59800894E-04 -0.63959316E-04 -0.66889705E-04 -0.68725292E-04
 -0.69590421E-04 -0.69600935E-04 -0.68864550E-04 -0.67481212E-04 -0.65543450E-04
 -0.63136706E-04 -0.60339669E-04 -0.57224588E-04 -0.53857585E-04 -0.50298952E-04
 -0.46603449E-04 -0.42820588E-04 -0.38994910E-04 -0.35166258E-04 -0.31370042E-04
 -0.27637496E-04 -0.23995929E-04 -0.20468969E-04 -0.17076800E-04 -0.13836396E-04
 -0.10761738E-04 -0.78640368E-05 -0.51519400E-05 -0.26317346E-05 -0.30754321E-06
  0.18184879E-05  0.37460076E-05  0.54762863E-05  0.70120494E-05  0.83573183E-05
  0.95172586E-05  0.10498036E-04  0.11306680E-04  0.11950953E-04  0.12439230E-04
  0.12780382E-04  0.12983670E-04  0.13058643E-04  0.13015047E-04  0.12862735E-04
  0.12611591E-04  0.12271451E-04  0.11852046E-04  0.11362931E-04  0.10813439E-04
  0.10212627E-04  0.95692387E-05  0.88916613E-05  0.81878987E-05  0.74655424E-05
  0.67317501E-05  0.59932278E-05  0.52562170E-05  0.45264854E-05  0.38093217E-05
  0.31095337E-05  0.24314501E-05  0.17789246E-05  0.11553436E-05  0.56363617E-06
  0.62857840E-08 -0.51465502E-06 -0.99754876E-06 -0.14411553E-05 -0.18446129E-05
 -0.22074179E-05 -0.25294036E-05 -0.28107184E-05 -0.30518031E-05 -0.32533685E-05
 -0.34163715E-05 -0.35419928E-05 -0.36316130E-05 -0.36867901E-05 -0.37092371E-05
 -0.37007994E-05 -0.36634337E-05 -0.35991871E-05 -0.35101767E-05 -0.33985706E-05
 -0.32665695E-05 -0.31163891E-05 -0.29502438E-05 -0.27703314E-05 -0.25788184E-05
 -0.23778274E-05 -0.21694244E-05 -0.19556080E-05 -0.17382998E-05 -0.15193351E-05
 -0.13004558E-05 -0.10833033E-05 -0.86941326E-06 -0.66021104E-06 -0.45700811E-06
 -0.26099955E-06 -0.73262361E-07  0.10524527E-06  0.27368393E-06  0.43133217E-06
  0.57758491E-06  0.71195121E-06  0.83405141E-06  0.94361370E-06  0.10404702E-05
  0.11245524E-05  0.11958865E-05  0.12545883E-05  0.13008573E-05  0.13349715E-05
  0.13572809E-05  0.13682019E-05  0.13682106E-05  0.13578370E-05  0.13376583E-05
  0.13082928E-05  0.12703935E-05  0.12246421E-05  0.11717430E-05  0.11124172E-05
  0.10473968E-05  0.97741954E-06  0.90322336E-06  0.82554157E-06  0.74509805E-06
  0.66260285E-06  0.57874797E-06  0.49420362E-06  0.40961464E-06  0.32559736E-06
  0.24273670E-06  0.16158369E-06  0.82653234E-07  0.64222964E-08 -0.66671676E-07
 -0.13623195E-06 -0.20190340E-06 -0.26337311E-06 -0.32037069E-06 -0.37266826E-06
 -0.42008018E-06 -0.46246260E-06 -0.49971262E-06 -0.53176732E-06 -0.55860258E-06
 -0.58023163E-06 -0.59670348E-06 -0.60810117E-06 -0.61453985E-06 -0.61616476E-06
 -0.61314909E-06 -0.60569171E-06 -0.59401487E-06 -0.57836181E-06 -0.55899437E-06
 -0.53619045E-06 -0.51024163E-06 -0.48145066E-06 -0.45012905E-06 -0.41659460E-06
 -0.38116908E-06 -0.34417591E-06 -0.30593794E-06 -0.26677524E-06 -0.22700311E-06
 -0.18693007E-06 -0.14685601E-06 -0.10707051E-06 -0.67851159E-07 -0.29462157E-07
  0.78470792E-08  0.43843091E-07  0.78309435E-07  0.11104760E-06  0.14187775E-06
  0.17063939E-06  0.19719177E-06  0.22141426E-06  0.24320654E-06  0.26248861E-06
  0.27920072E-06  0.29330316E-06  0.30477589E-06  0.31361809E-06  0.31984759E-06
  0.32350017E-06  0.32462878E-06  0.32330264E-06  0.31960635E-06  0.31363875E-06
  0.30551194E-06  0.29535001E-06  0.28328790E-06  0.26947017E-06  0.25404964E-06
  0.23718618E-06  0.21904536E-06  0.19979715E-06  0.17961459E-06  0.15867254E-06
  0.13714637E-06  0.11521074E-06  0.93038375E-07  0.70798934E-07  0.48657882E-07
  0.26775443E-07  0.53056120E-08 -0.15604769E-07 -0.35816858E-07 -0.55200584E-07
 -0.73635344E-07 -0.91010610E-07 -0.10722645E-06 -0.12219399E-06 -0.13583572E-06
 -0.14808582E-06 -0.15889027E-06 -0.16820699E-06 -0.17600582E-06 -0.18226846E-06
 -0.18698826E-06 -0.19017006E-06 -0.19182979E-06 -0.19199416E-06 -0.19070014E-06
 -0.18799451E-06 -0.18393323E-06 -0.17858085E-06 -0.17200983E-06 -0.16429983E-06
 -0.15553695E-06 -0.14581297E-06 -0.13522454E-06 -0.12387237E-06 -0.11186039E-06
 -0.99294934E-07 -0.86283897E-07 -0.72935913E-07 -0.59359547E-07 -0.45662502E-07
 -0.31950844E-07 -0.18328268E-07 -0.48953878E-08  0.82509363E-08  0.21018222E-07
  0.33318948E-07  0.45071091E-07  0.56198605E-07  0.66631854E-07  0.76307979E-07
  0.85171220E-07  0.93173168E-07  0.10027296E-06  0.10643744E-06  0.11164119E-06
  0.11586660E-06  0.11910380E-06  0.12135058E-06  0.12261224E-06  0.12290138E-06
  0.12223765E-06  0.12064748E-06  0.11816369E-06  0.11482516E-06  0.11067637E-06
  0.10576697E-06  0.10015128E-06  0.93887835E-07  0.87038777E-07  0.79669378E-07
  0.71847455E-07  0.63642813E-07  0.55126678E-07  0.46371129E-07  0.37448538E-07
  0.28431017E-07  0.19389877E-07  0.10395110E-07  0.15148814E-08 -0.71849464E-08
 -0.15641266E-07 -0.23794146E-07 -0.31587224E-07 -0.38968060E-07 -0.45888456E-07
 -0.52304733E-07 -0.58177979E-07 -0.63474241E-07 -0.68164690E-07 -0.72225732E-07
 -0.75639090E-07 -0.78391829E-07 -0.80476351E-07 -0.81890351E-07 -0.82636719E-07
 -0.82723424E-07 -0.82163347E-07 -0.80974088E-07 -0.79177732E-07 -0.76800598E-07
 -0.73872950E-07 -0.70428689E-07 -0.66505018E-07 -0.62142096E-07 -0.57382670E-07
 -0.52271694E-07 -0.46855946E-07 -0.41183626E-07 -0.35303965E-07 -0.29266821E-07
 -0.23122287E-07 -0.16920298E-07 -0.10710252E-07 -0.45406409E-08  0.15413071E-08
  0.74899664E-08  0.13261634E-07  0.18814831E-07  0.24110576E-07  0.29112642E-07
  0.33787780E-07  0.38105922E-07  0.42040347E-07  0.45567830E-07  0.48668748E-07
  0.51327172E-07  0.53530909E-07  0.55271536E-07  0.56544387E-07  0.57348522E-07
  0.57686661E-07  0.57565098E-07  0.56993581E-07  0.55985174E-07  0.54556096E-07
  0.52725530E-07  0.50515426E-07  0.47950275E-07  0.45056873E-07  0.41864071E-07
  0.38402512E-07  0.34704359E-07  0.30803023E-07  0.26732870E-07  0.22528949E-07
  0.18226695E-07  0.13861657E-07  0.94692132E-08  0.50843006E-08  0.74115276E-09
 -0.35269544E-08 -0.76879439E-08 -0.11711165E-07 -0.15567606E-07 -0.19230089E-07
 -0.22673450E-07 -0.25874695E-07 -0.28813144E-07 -0.31470546E-07 -0.33831177E-07
 -0.35881921E-07 -0.37612319E-07 -0.39014609E-07 -0.40083731E-07 -0.40817324E-07
 -0.41215691E-07 -0.41281750E-07 -0.41020969E-07 -0.40441269E-07 -0.39552927E-07
 -0.38368449E-07 -0.36902433E-07 -0.35171421E-07 -0.33193733E-07 -0.30989292E-07
 -0.28579446E-07 -0.25986767E-07 -0.23234864E-07 -0.20348174E-07 -0.17351757E-07
 -0.14271095E-07 -0.11131882E-07 -0.79598190E-08 -0.47804186E-08 -0.16188047E-08
  0.15004740E-08  0.45536262E-08  0.75177900E-08  0.10371195E-07  0.13093314E-07
  0.15664999E-07  0.18068612E-07  0.20288130E-07  0.22309248E-07  0.24119459E-07
  0.25708119E-07  0.27066503E-07  0.28187838E-07  0.29067320E-07  0.29702123E-07
  0.30091388E-07  0.30236191E-07  0.30139509E-07  0.29806159E-07  0.29242734E-07
  0.28457522E-07  0.27460408E-07  0.26262778E-07  0.24877398E-07  0.23318296E-07
  0.21600630E-07  0.19740552E-07  0.17755064E-07  0.15661872E-07  0.13479236E-07
  0.11225820E-07  0.89205354E-08  0.65823942E-08  0.42303553E-08  0.18831785E-08
 -0.44071890E-09 -0.27234006E-08 -0.49475436E-08 -0.70965637E-08 -0.91547332E-08
 -0.11107290E-07 -0.12940538E-07 -0.14641935E-07 -0.16200176E-07 -0.17605258E-07
 -0.18848540E-07 -0.19922787E-07 -0.20822206E-07 -0.21542467E-07 -0.22080716E-07
 -0.22435570E-07 -0.22607110E-07 -0.22596853E-07 -0.22407720E-07 -0.22043990E-07
 -0.21511249E-07 -0.20816321E-07 -0.19967200E-07 -0.18972964E-07 -0.17843696E-07
 -0.16590383E-07 -0.15224817E-07 -0.13759494E-07 -0.12207503E-07 -0.10582416E-07
 -0.88981730E-08 -0.71689707E-08 -0.54091445E-08 -0.36330558E-08 -0.18549793E-08
 -0.88992486E-10  0.16511315E-08  0.33520271E-08  0.50008349E-08  0.65852952E-08
  0.80938344E-08  0.95156468E-08  0.10840767E-07  0.12060136E-07  0.13165660E-07
  0.14150260E-07  0.15007909E-07  0.15733671E-07  0.16323719E-07  0.16775349E-07
  0.17086989E-07  0.17258193E-07  0.17289629E-07  0.17183056E-07  0.16941299E-07
  0.16568210E-07  0.16068621E-07  0.15448296E-07  0.14713870E-07  0.13872788E-07
  0.12933230E-07  0.11904041E-07  0.10794653E-07  0.96149962E-08  0.83754217E-08
  0.70866094E-08  0.57594812E-08  0.44051112E-08  0.30346366E-08  0.16591692E-08
  0.28970778E-09 -0.10629465E-08 -0.23882728E-08 -0.36761101E-08 -0.49167316E-08
 -0.61009164E-08 -0.72200151E-08 -0.82660105E-08 -0.92315723E-08 -0.10110106E-07
 -0.10895795E-07 -0.11583636E-07 -0.12169469E-07 -0.12649998E-07 -0.13022805E-07
 -0.13286361E-07 -0.13440023E-07 -0.13484027E-07 -0.13419480E-07 -0.13248335E-07
 -0.12973367E-07 -0.12598141E-07 -0.12126971E-07 -0.11564879E-07 -0.10917548E-07
 -0.10191262E-07 -0.93928581E-08 -0.85296562E-08 -0.76094011E-08 -0.66401938E-08
 -0.56304228E-08 -0.45886939E-08 -0.35237599E-08 -0.24444483E-08 -0.13595910E-08
 -0.27795382E-09  0.79183266E-09  0.18413399E-08  0.28624062E-08  0.38471985E-08
  0.47882708E-08  0.56786190E-08  0.65117314E-08  0.72816349E-08  0.79829364E-08
  0.86108588E-08  0.91612717E-08  0.96307175E-08  0.10016430E-07  0.10316351E-07
  0.10529133E-07  0.10654147E-07  0.10691479E-07  0.10641916E-07  0.10506937E-07
  0.10288688E-07  0.99899618E-08  0.96141644E-08  0.91652824E-08  0.86478432E-08
  0.80668725E-08  0.74278480E-08  0.67366506E-08  0.59995114E-08  0.52229582E-08
  0.44137592E-08  0.35788654E-08  0.27253528E-08  0.18603638E-08  0.99104892E-09
  0.12450863E-09 -0.73226315E-09 -0.15724343E-08 -0.23893876E-08 -0.31767721E-08
 -0.39285512E-08 -0.46390481E-08 -0.53029871E-08 -0.59155323E-08 -0.64723211E-08
 -0.69694946E-08 -0.74037231E-08 -0.77722272E-08 -0.80727937E-08 -0.83037873E-08
 -0.84641576E-08 -0.85534411E-08 -0.85717582E-08 -0.85198059E-08 -0.83988454E-08
 -0.82106857E-08 -0.79576630E-08 -0.76426161E-08 -0.72688572E-08 -0.68401395E-08
 -0.63606227E-08 -0.58348336E-08 -0.52676259E-08 -0.46641369E-08 -0.40297417E-08
 -0.33700074E-08 -0.26906450E-08 -0.19974615E-08 -0.12963111E-08 -0.59304673E-09
  0.10652838E-09  0.79670732E-09  0.14719253E-08  0.21268039E-08  0.27561933E-08
  0.33552124E-08  0.39192858E-08  0.44441784E-08  0.49260262E-08  0.53613640E-08
  0.57471505E-08  0.60807880E-08  0.63601395E-08  0.65835407E-08  0.67498089E-08
  0.68582472E-08  0.69086456E-08  0.69012769E-08  0.68368888E-08  0.67166930E-08
  0.65423493E-08  0.63159472E-08  0.60399845E-08  0.57173408E-08  0.53512500E-08
  0.49452691E-08  0.45032452E-08  0.40292801E-08  0.35276940E-08  0.30029865E-08
  0.24597968E-08  0.19028641E-08  0.13369865E-08  0.76698121E-09  0.19764363E-09
 -0.36629233E-09 -0.92019325E-09 -0.14595636E-08 -0.19800814E-08 -0.24776323E-08
 -0.29483418E-08 -0.33886048E-08 -0.37951131E-08 -0.41648793E-08 -0.44952582E-08
 -0.47839647E-08 -0.50290893E-08 -0.52291097E-08 -0.53828999E-08 -0.54897341E-08
 -0.55492887E-08 -0.55616404E-08 -0.55272608E-08 -0.54470088E-08 -0.53221186E-08
 -0.51541850E-08 -0.49451457E-08 -0.46972614E-08 -0.44130926E-08 -0.40954758E-08
 -0.37474957E-08 -0.33724564E-08 -0.29738508E-08 -0.25553288E-08 -0.21206652E-08
 -0.16737262E-08 -0.12184358E-08 -0.75874167E-09 -0.29858078E-09  0.15815345E-09
  0.60764355E-09  0.10461794E-08  0.14701884E-08  0.18762650E-08  0.22611975E-08
  0.26219934E-08  0.29559019E-08  0.32604343E-08  0.35333822E-08  0.37728334E-08
  0.39771851E-08  0.41451534E-08  0.42757806E-08  0.43684391E-08  0.44228326E-08
  0.44389952E-08  0.44172871E-08  0.43583880E-08  0.42632864E-08  0.41332674E-08
  0.39698979E-08  0.37750103E-08  0.35506830E-08  0.32992204E-08  0.30231294E-08
  0.27250951E-08  0.24079556E-08  0.20746757E-08  0.17283203E-08  0.13720269E-08
  0.10089773E-08  0.64236926E-09  0.27538869E-09 -0.88817403E-10 -0.44716714E-09
 -0.79666932E-09 -0.11344482E-08 -0.14577675E-08 -0.17640519E-08 -0.20509075E-08
 -0.23161397E-08 -0.25577690E-08 -0.27740457E-08 -0.29634625E-08 -0.31247643E-08
 -0.32569564E-08 -0.33593088E-08 -0.34313590E-08 -0.34729125E-08 -0.34840409E-08
 -0.34650790E-08 -0.34166180E-08 -0.33394968E-08 -0.32347912E-08 -0.31038009E-08
 -0.29480357E-08 -0.27692003E-08 -0.25691764E-08 -0.23500045E-08 -0.21138630E-08
 -0.18630473E-08 -0.15999480E-08 -0.13270290E-08 -0.10468057E-08 -0.76182199E-09
 -0.47462716E-09 -0.18775306E-09  0.96308187E-10  0.37512531E-09  0.64634793E-09
  0.90772590E-09  0.11571279E-08  0.13925594E-08  0.16121782E-08  0.18143092E-08
  0.19974559E-08  0.21603108E-08  0.23017642E-08  0.24209115E-08  0.25170591E-08
  0.25897272E-08  0.26386511E-08  0.26637797E-08  0.26652723E-08  0.26434944E-08
  0.25990115E-08  0.25325821E-08  0.24451476E-08  0.23378207E-08  0.22118726E-08
  0.20687187E-08  0.19099044E-08  0.17370893E-08  0.15520315E-08  0.13565700E-08
  0.11526064E-08  0.94208642E-09  0.72698183E-09  0.50927260E-09  0.29092981E-09
  0.73898319E-10 -0.13992052E-09 -0.34868586E-09 -0.55063331E-09 -0.74408955E-09
 -0.92748528E-09 -0.10993671E-08 -0.12584086E-08 -0.14034205E-08 -0.15333600E-08
 -0.16473378E-08 -0.17446241E-08 -0.18246510E-08 -0.18870155E-08 -0.19314795E-08
 -0.19579702E-08 -0.19665787E-08 -0.19575564E-08 -0.19313105E-08 -0.18883962E-08
 -0.18295095E-08 -0.17554778E-08 -0.16672513E-08 -0.15658926E-08 -0.14525654E-08
 -0.13285220E-08 -0.11950894E-08 -0.10536555E-08 -0.90565537E-09 -0.75255756E-09
 -0.59585094E-09 -0.43703077E-09 -0.27758435E-09 -0.11897671E-09  0.37363169E-10
  0.19005491E-09  0.33777816E-09  0.47928315E-09  0.61340079E-09  0.73905256E-09
  0.85525968E-09  0.96115109E-09  0.10559696E-08  0.11390764E-08  0.12099541E-08
  0.12682090E-08  0.13135729E-08  0.13459040E-08  0.13651864E-08  0.13715280E-08
  0.13651565E-08  0.13464140E-08  0.13157514E-08  0.12737218E-08  0.12209744E-08
  0.11582468E-08  0.10863562E-08  0.10061901E-08  0.91869452E-09  0.82486429E-09
  0.72573186E-09  0.62235757E-09  0.51581957E-09  0.40720333E-09  0.29759065E-09
  0.18804839E-09  0.79617864E-10 -0.26694861E-10 -0.12992735E-09 -0.22916843E-09
 -0.32356550E-09 -0.41233183E-09 -0.49475360E-09 -0.57019611E-09 -0.63810863E-09
 -0.69802753E-09 -0.74957813E-09 -0.79247588E-09 -0.82652720E-09 -0.85163006E-09
 -0.86777396E-09 -0.87503857E-09 -0.87359079E-09 -0.86368046E-09 -0.84563529E-09
 -0.81985561E-09 -0.78680923E-09 -0.74702617E-09 -0.70109273E-09 -0.64964445E-09
 -0.59335802E-09 -0.53294258E-09 -0.46913126E-09 -0.40267319E-09 -0.33432629E-09
 -0.26485010E-09 -0.19499832E-09 -0.12551082E-09 -0.57105287E-10  0.95305931E-11
  0.73746064E-10  0.13493289E-09  0.19253002E-09  0.24602779E-09  0.29497228E-09
  0.33896962E-09  0.37768995E-09  0.41087033E-09  0.43831615E-09  0.45990107E-09
  0.47556609E-09  0.48531828E-09  0.48922963E-09  0.48743576E-09  0.48013408E-09
  0.46758068E-09  0.45008598E-09  0.42800915E-09  0.40175226E-09  0.37175461E-09
   34.2040403932785      T
 Non local Part
           0           2  0.594199078900351     
  -1.78821932145992       -2.97948220375297       -2.97948220375297     
  -4.86951231451956     
 Reciprocal Space Part
  0.18925024E+02  0.18753244E+02  0.18241190E+02  0.17398641E+02  0.16241658E+02
  0.14792226E+02  0.13077777E+02  0.11130586E+02  0.89870706E+01  0.66869981E+01
  0.42726328E+01  0.17878314E+01 -0.72288486E+00 -0.32152612E+01 -0.56462225E+01
 -0.79747469E+01 -0.10162679E+02 -0.12175468E+02 -0.13982809E+02 -0.15559178E+02
 -0.16884251E+02 -0.17943198E+02 -0.18726842E+02 -0.19231691E+02 -0.19459846E+02
 -0.19418769E+02 -0.19120958E+02 -0.18583499E+02 -0.17827533E+02 -0.16877652E+02
 -0.15761228E+02 -0.14507703E+02 -0.13147858E+02 -0.11713076E+02 -0.10234617E+02
 -0.87429281E+01 -0.72669933E+01 -0.58337520E+01 -0.44675860E+01 -0.31898917E+01
 -0.20187428E+01 -0.96864912E+00 -0.50413695E-01  0.72891258E+00  0.13659809E+01
  0.18610048E+01  0.22175383E+01  0.24421811E+01  0.25442210E+01  0.25352276E+01
  0.24286080E+01  0.22391400E+01  0.19824943E+01  0.16747613E+01  0.13319932E+01
  0.96977378E+00  0.60282627E+00  0.24466820E+00 -0.92679993E-01 -0.39892687E+00
 -0.66567918E+00 -0.88654687E+00 -0.10571842E+01 -0.11752696E+01 -0.12404272E+01
 -0.12540967E+01 -0.12193576E+01 -0.11407144E+01 -0.10238539E+01 -0.87537989E+00
 -0.70253781E+00 -0.51293552E+00 -0.31427052E+00 -0.11407096E+00  0.80542405E-01
  0.26306687E+00  0.42779621E+00  0.56996294E+00  0.68584203E+00  0.77281476E+00
  0.82939296E+00  0.85520488E+00  0.85094532E+00  0.81829337E+00  0.75980224E+00
  0.67876615E+00  0.57906982E+00  0.46502638E+00  0.34120952E+00  0.21228587E+00
  0.82852854E-01 -0.42712696E-01 -0.16039078E+00 -0.26663557E+00 -0.35847089E+00
 -0.43356164E+00 -0.49026014E+00 -0.52762691E+00 -0.54542645E+00 -0.54409949E+00
 Real Space Part
 -0.40771874E+03 -0.40753896E+03 -0.40699980E+03 -0.40610179E+03 -0.40484584E+03
 -0.40323317E+03 -0.40126543E+03 -0.39894456E+03 -0.39627294E+03 -0.39325326E+03
 -0.38988862E+03 -0.38618249E+03 -0.38213873E+03 -0.37776160E+03 -0.37305575E+03
 -0.36802623E+03 -0.36267853E+03 -0.35701856E+03 -0.35105263E+03 -0.34478754E+03
 -0.33823053E+03 -0.33138928E+03 -0.32427199E+03 -0.31688731E+03 -0.30924442E+03
 -0.30135300E+03 -0.29322326E+03 -0.28486596E+03 -0.27629239E+03 -0.26751445E+03
 -0.25854458E+03 -0.24939585E+03 -0.24008192E+03 -0.23061710E+03 -0.22101631E+03
 -0.21129516E+03 -0.20146991E+03 -0.19155749E+03 -0.18157555E+03 -0.17154243E+03
 -0.16147720E+03 -0.15139966E+03 -0.14133033E+03 -0.13129052E+03 -0.12130225E+03
 -0.11138833E+03 -0.10157234E+03 -0.91878614E+02 -0.82332275E+02 -0.72959210E+02
 -0.63786081E+02 -0.54840313E+02 -0.46150094E+02 -0.37744362E+02 -0.29652792E+02
 -0.21905789E+02 -0.14534463E+02 -0.75706153E+01 -0.10467120E+01  0.50041396E+01
  0.10548223E+02  0.15551203E+02  0.19976833E+02  0.23947352E+02  0.28057103E+02
  0.32338822E+02  0.36756611E+02  0.41274501E+02  0.45854087E+02  0.50457194E+02
  0.55044366E+02  0.59574678E+02  0.64009290E+02  0.68302968E+02  0.72418209E+02
  0.76306628E+02  0.79930545E+02  0.83241124E+02  0.86197352E+02  0.88754146E+02
  0.90864763E+02  0.92488430E+02  0.93575677E+02  0.94085369E+02  0.93971950E+02
  0.93189061E+02  0.91697272E+02  0.89448671E+02  0.86402820E+02  0.82519024E+02
  0.77752053E+02  0.72065975E+02  0.65420062E+02  0.57774350E+02  0.49096829E+02
  0.39342887E+02  0.28494130E+02  0.16679271E+02  0.24365950E+01  0.00000000E+00
 Reciprocal Space Part
 -0.84380410E+01 -0.83422438E+01 -0.80567334E+01 -0.75871107E+01 -0.69425723E+01
 -0.61357053E+01 -0.51822091E+01 -0.41005476E+01 -0.29115427E+01 -0.16379187E+01
 -0.30380665E+00  0.10657764E+01  0.24454634E+01  0.38100749E+01  0.51351445E+01
  0.63974224E+01  0.75753432E+01  0.86494483E+01  0.96027546E+01  0.10421059E+02
  0.11093177E+02  0.11611104E+02  0.11970108E+02  0.12168737E+02  0.12208760E+02
  0.12095033E+02  0.11835297E+02  0.11439917E+02  0.10921569E+02  0.10294884E+02
  0.95760537E+01  0.87824183E+01  0.79320389E+01  0.70432682E+01  0.61343304E+01
  0.52229190E+01  0.43258233E+01  0.34585913E+01  0.26352349E+01  0.18679857E+01
  0.11671029E+01  0.54073871E+00 -0.51398183E-02 -0.46677084E+00 -0.84256280E+00
 -0.11330071E+01 -0.13405429E+01 -0.14693797E+01 -0.15252839E+01 -0.15153369E+01
 -0.14476719E+01 -0.13311980E+01 -0.11753186E+01 -0.98965315E+00 -0.78376785E+00
 -0.56692421E+00 -0.34784975E+00 -0.13453686E+00  0.65926241E-01  0.24748936E+00
  0.40523719E+00  0.53544814E+00  0.63561572E+00  0.70443365E+00  0.74174714E+00
  0.74847352E+00  0.72649622E+00  0.67853658E+00  0.60800854E+00  0.51886135E+00
  0.41541576E+00  0.30219888E+00  0.18378284E+00  0.64631822E-01 -0.51038094E-01
 -0.15938292E+00 -0.25703544E+00 -0.34118841E+00 -0.40965496E+00 -0.46090536E+00
 -0.49408034E+00 -0.50898186E+00 -0.50604272E+00 -0.48627714E+00 -0.45121495E+00
 -0.40282234E+00 -0.34341239E+00 -0.27554896E+00 -0.20194725E+00 -0.12537458E+00
 -0.48554605E-01  0.25922105E-01  0.95678383E-01  0.15861958E+00  0.21298966E+00
  0.25741315E+00  0.29092207E+00  0.31296789E+00  0.32341870E+00  0.32254242E+00
 Real Space Part
  0.25837316E+03  0.25826205E+03  0.25792885E+03  0.25737389E+03  0.25659772E+03
  0.25560112E+03  0.25438510E+03  0.25295089E+03  0.25129994E+03  0.24943396E+03
  0.24735486E+03  0.24506480E+03  0.24256618E+03  0.23986166E+03  0.23695411E+03
  0.23384669E+03  0.23054280E+03  0.22704609E+03  0.22336050E+03  0.21949022E+03
  0.21543976E+03  0.21121386E+03  0.20681758E+03  0.20225630E+03  0.19753567E+03
  0.19266166E+03  0.18764058E+03  0.18247905E+03  0.17718404E+03  0.17176285E+03
  0.16622314E+03  0.16057294E+03  0.15482062E+03  0.14897495E+03  0.14304509E+03
  0.13704057E+03  0.13097133E+03  0.12484773E+03  0.11868051E+03  0.11248087E+03
  0.10626040E+03  0.10003117E+03  0.93805629E+02  0.87596714E+02  0.81417789E+02
  0.75282668E+02  0.69205618E+02  0.63201357E+02  0.57285056E+02  0.51472335E+02
  0.45779265E+02  0.40222362E+02  0.34818582E+02  0.29585317E+02  0.24540384E+02
  0.19702020E+02  0.15088866E+02  0.10719959E+02  0.66147158E+01  0.27929175E+01
 -0.72531069E+00 -0.39194941E+01 -0.67680320E+01 -0.93444442E+01 -0.12005009E+02
 -0.14768401E+02 -0.17612181E+02 -0.20513962E+02 -0.23449994E+02 -0.26396758E+02
 -0.29330056E+02 -0.32224898E+02 -0.35057623E+02 -0.37800836E+02 -0.40431827E+02
 -0.42921481E+02 -0.45247126E+02 -0.47379523E+02 -0.49294153E+02 -0.50964143E+02
 -0.52361696E+02 -0.53462620E+02 -0.54237620E+02 -0.54662401E+02 -0.54710098E+02
 -0.54353424E+02 -0.53569243E+02 -0.52329443E+02 -0.50610382E+02 -0.48388306E+02
 -0.45636819E+02 -0.42335059E+02 -0.38459367E+02 -0.33986566E+02 -0.28898211E+02
 -0.23168446E+02 -0.16786908E+02 -0.98299898E+01 -0.14364499E+01  0.00000000E+00
 Non local Part
           1           1  0.594199078900351     
 -0.477478817810334     
 Reciprocal Space Part
  0.00000000E+00  0.15279168E+00  0.30752124E+00  0.46604653E+00  0.63006765E+00
  0.80105405E+00  0.98017828E+00  0.11682588E+01  0.13657131E+01  0.15725231E+01
  0.17882131E+01  0.20118422E+01  0.22420100E+01  0.24768769E+01  0.27141978E+01
  0.29513677E+01  0.31854799E+01  0.34133929E+01  0.36318064E+01  0.38373418E+01
  0.40266279E+01  0.41963873E+01  0.43435215E+01  0.44651933E+01  0.45589034E+01
  0.46225593E+01  0.46545348E+01  0.46537180E+01  0.46195474E+01  0.45520344E+01
  0.44517717E+01  0.43199273E+01  0.41582255E+01  0.39689131E+01  0.37547138E+01
  0.35187715E+01  0.32645831E+01  0.29959239E+01  0.27167668E+01  0.24311973E+01
  0.21433272E+01  0.18572087E+01  0.15767505E+01  0.13056396E+01  0.10472690E+01
  0.80467403E+00  0.58047788E+00  0.37684898E+00  0.19546929E+00  0.37515357E-01
 -0.96348385E-01 -0.20596384E+00 -0.29166167E+00 -0.35423266E+00 -0.39488898E+00
 -0.41521676E+00 -0.41712134E+00 -0.40276697E+00 -0.37451262E+00 -0.33484566E+00
 -0.28631536E+00 -0.23146775E+00 -0.17278367E+00 -0.11262148E+00 -0.53165628E-01
  0.36175780E-02  0.56016277E-01  0.10260074E+00  0.14224207E+00  0.17412178E+00
  0.19773248E+00  0.21286995E+00  0.21961732E+00  0.21832218E+00  0.20956746E+00
  0.19413743E+00  0.17297989E+00  0.14716579E+00  0.11784774E+00  0.86218533E-01
  0.53470926E-01  0.20759875E-01 -0.10831888E-01 -0.40323998E-01 -0.66863680E-01
 -0.89745523E-01 -0.10842549E+00 -0.12252907E+00 -0.13185353E+00 -0.13636468E+00
 -0.13618832E+00 -0.13159712E+00 -0.12299346E+00 -0.11088897E+00 -0.95881731E-01
 -0.78631844E-01 -0.59836272E-01 -0.40203856E-01 -0.20431252E-01 -0.11805371E-02
 Real Space Part
  0.00000000E+00  0.36016470E+01  0.71942522E+01  0.10768800E+02  0.14316325E+02
  0.17827942E+02  0.21294866E+02  0.24708440E+02  0.28060163E+02  0.31341709E+02
  0.34544954E+02  0.37662004E+02  0.40685209E+02  0.43607194E+02  0.46420881E+02
  0.49119503E+02  0.51696633E+02  0.54146202E+02  0.56462517E+02  0.58640278E+02
  0.60674600E+02  0.62561027E+02  0.64295548E+02  0.65874613E+02  0.67295142E+02
  0.68554544E+02  0.69650724E+02  0.70582093E+02  0.71347581E+02  0.71946638E+02
  0.72379246E+02  0.72645920E+02  0.72747716E+02  0.72686227E+02  0.72463589E+02
  0.72082479E+02  0.71546110E+02  0.70858231E+02  0.70023121E+02  0.69045580E+02
  0.67930924E+02  0.66684975E+02  0.65314048E+02  0.63824939E+02  0.62224913E+02
  0.60521687E+02  0.58723413E+02  0.56838660E+02  0.54876394E+02  0.52845959E+02
  0.50757054E+02  0.48619706E+02  0.46444251E+02  0.44241304E+02  0.42021734E+02
  0.39796636E+02  0.37577302E+02  0.35375190E+02  0.33201894E+02  0.31069116E+02
  0.28988627E+02  0.26972250E+02  0.25032102E+02  0.23146954E+02  0.21198081E+02
  0.19186272E+02  0.17126556E+02  0.15033706E+02  0.12922679E+02  0.10808038E+02
  0.87042218E+01  0.66255492E+01  0.45854845E+01  0.25982885E+01  0.67621131E+00
 -0.11668827E+01 -0.29197381E+01 -0.45694937E+01 -0.61053510E+01 -0.75163038E+01
 -0.87916195E+01 -0.99222707E+01 -0.10898201E+02 -0.11711497E+02 -0.12354019E+02
 -0.12818083E+02 -0.13097844E+02 -0.13186511E+02 -0.13079209E+02 -0.12771576E+02
 -0.12258995E+02 -0.11539032E+02 -0.10608916E+02 -0.94665225E+01 -0.81115752E+01
 -0.65421253E+01 -0.47610403E+01 -0.27960553E+01 -0.41220264E+00  0.00000000E+00
 PAW radial sets
         363  0.520134355386775     
(5E20.12)                                
 augmentation charges (non sperical)
  0.136235920566E-01  0.259291988841E-01  0.160051128787E-02  0.259291988841E-01  0.489927346999E-01
  0.414104798650E-02  0.160051128787E-02  0.414104798650E-02 -0.308695800982E-02
 uccopancies in atom
  0.999999998693E+00  0.000000000000E+00  0.000000000000E+00  0.000000000000E+00  0.000000000000E+00
  0.000000000000E+00  0.000000000000E+00  0.000000000000E+00  0.000000000000E+00
 grid
  0.116365397438E-04  0.120001524756E-04  0.123751271949E-04  0.127618189353E-04  0.131605938244E-04
  0.135718294303E-04  0.139959151194E-04  0.144332524243E-04  0.148842554251E-04  0.153493511404E-04
  0.158289799324E-04  0.163235959232E-04  0.168336674253E-04  0.173596773848E-04  0.179021238385E-04
  0.184615203857E-04  0.190383966745E-04  0.196332989028E-04  0.202467903364E-04  0.208794518411E-04
  0.215318824339E-04  0.222046998492E-04  0.228985411241E-04  0.236140632016E-04  0.243519435526E-04
  0.251128808170E-04  0.258975954658E-04  0.267068304825E-04  0.275413520675E-04  0.284019503625E-04
  0.292894401994E-04  0.302046618718E-04  0.311484819298E-04  0.321217940016E-04  0.331255196387E-04
  0.341606091889E-04  0.352280426958E-04  0.363288308273E-04  0.374640158317E-04  0.386346725253E-04
  0.398419093096E-04  0.410868692207E-04  0.423707310119E-04  0.436947102696E-04  0.450600605642E-04
  0.464680746370E-04  0.479200856242E-04  0.494174683192E-04  0.509616404744E-04  0.525540641432E-04
  0.541962470646E-04  0.558897440906E-04  0.576361586586E-04  0.594371443092E-04  0.612944062521E-04
  0.632097029807E-04  0.651848479365E-04  0.672217112269E-04  0.693222213953E-04  0.714883672472E-04
  0.737221997335E-04  0.760258338920E-04  0.784014508502E-04  0.808512998904E-04  0.833777005792E-04
  0.859830449641E-04  0.886697998377E-04  0.914405090742E-04  0.942977960371E-04  0.972443660636E-04
  0.100283009026E-03  0.103416601973E-03  0.106648111853E-03  0.109980598327E-03  0.113417216659E-03
  0.116961220709E-03  0.120615966013E-03  0.124384912957E-03  0.128271630056E-03  0.132279797333E-03
  0.136413209802E-03  0.140675781061E-03  0.145071547000E-03  0.149604669619E-03  0.154279440969E-03
  0.159100287220E-03  0.164071772845E-03  0.169198604950E-03  0.174485637720E-03  0.179937877028E-03
  0.185560485163E-03  0.191358785724E-03  0.197338268660E-03  0.203504595467E-03  0.209863604547E-03
  0.216421316740E-03  0.223183941020E-03  0.230157880376E-03  0.237349737876E-03  0.244766322917E-03
  0.252414657670E-03  0.260301983735E-03  0.268435768991E-03  0.276823714672E-03  0.285473762654E-03
  0.294394102977E-03  0.303593181601E-03  0.313079708400E-03  0.322862665409E-03  0.332951315330E-03
  0.343355210302E-03  0.354084200943E-03  0.365148445678E-03  0.376558420359E-03  0.388324928181E-03
  0.400459109912E-03  0.412972454440E-03  0.425876809655E-03  0.439184393661E-03  0.452907806348E-03
  0.467060041321E-03  0.481654498203E-03  0.496704995321E-03  0.512225782792E-03  0.528231556011E-03
  0.544737469568E-03  0.561759151596E-03  0.579312718570E-03  0.597414790562E-03  0.616082506980E-03
  0.635333542796E-03  0.655186125282E-03  0.675659051264E-03  0.696771704924E-03  0.718544076149E-03
  0.740996779462E-03  0.764151073538E-03  0.788028881330E-03  0.812652810832E-03  0.838046176477E-03
  0.864233021221E-03  0.891238139296E-03  0.919087099697E-03  0.947806270383E-03  0.977422843248E-03
  0.100796485986E-02  0.103946123802E-02  0.107194179914E-02  0.110543729647E-02  0.113997944423E-02
  0.117560094762E-02  0.121233553381E-02  0.125021798383E-02  0.128928416557E-02  0.132957106768E-02
  0.137111683461E-02  0.141396080274E-02  0.145814353760E-02  0.150370687229E-02  0.155069394712E-02
  0.159914925040E-02  0.164911866057E-02  0.170064948971E-02  0.175379052823E-02  0.180859209116E-02
  0.186510606572E-02  0.192338596048E-02  0.198348695604E-02  0.204546595723E-02  0.210938164702E-02
  0.217529454209E-02  0.224326705010E-02  0.231336352880E-02  0.238565034695E-02  0.246019594719E-02
  0.253707091078E-02  0.261634802451E-02  0.269810234955E-02  0.278241129256E-02  0.286935467894E-02
  0.295901482847E-02  0.305147663317E-02  0.314682763778E-02  0.324515812254E-02  0.334656118875E-02
  0.345113284689E-02  0.355897210752E-02  0.367018107505E-02  0.378486504437E-02  0.390313260059E-02
  0.402509572182E-02  0.415086988523E-02  0.428057417634E-02  0.441433140179E-02  0.455226820564E-02
  0.469451518925E-02  0.484120703495E-02  0.499248263354E-02  0.514848521583E-02  0.530936248822E-02
  0.547526677257E-02  0.564635515043E-02  0.582278961173E-02  0.600473720819E-02  0.619237021149E-02
  0.638586627635E-02  0.658540860877E-02  0.679118613947E-02  0.700339370278E-02  0.722223222113E-02
  0.744790889526E-02  0.768063740041E-02  0.792063808866E-02  0.816813819750E-02  0.842337206506E-02
  0.868658135194E-02  0.895801527002E-02  0.923793081843E-02  0.952659302689E-02  0.982427520662E-02
  0.101312592091E-01  0.104478356931E-01  0.107743043996E-01  0.111109744357E-01  0.114581645676E-01
  0.118162035217E-01  0.121854302968E-01  0.125661944841E-01  0.129588565989E-01  0.133637884217E-01
  0.137813733500E-01  0.142120067619E-01  0.146560963897E-01  0.151140627064E-01  0.155863393239E-01
  0.160733734032E-01  0.165756260781E-01  0.170935728915E-01  0.176277042461E-01  0.181785258681E-01
  0.187465592867E-01  0.193323423274E-01  0.199364296215E-01  0.205593931310E-01  0.212018226904E-01
  0.218643265651E-01  0.225475320271E-01  0.232520859492E-01  0.239786554173E-01  0.247279283622E-01
  0.255006142105E-01  0.262974445570E-01  0.271191738568E-01  0.279665801397E-01  0.288404657473E-01
  0.297416580921E-01  0.306710104413E-01  0.316294027246E-01  0.326177423671E-01  0.336369651489E-01
  0.346880360907E-01  0.357719503678E-01  0.368897342522E-01  0.380424460843E-01  0.392311772750E-01
  0.404570533392E-01  0.417212349610E-01  0.430249190933E-01  0.443693400906E-01  0.457557708780E-01
  0.471855241562E-01  0.486599536446E-01  0.501804553628E-01  0.517484689527E-01  0.533654790415E-01
  0.550330166468E-01  0.567526606272E-01  0.585260391764E-01  0.603548313652E-01  0.622407687309E-01
  0.641856369174E-01  0.661912773653E-01  0.682595890554E-01  0.703925303074E-01  0.725921206330E-01
  0.748604426491E-01  0.771996440488E-01  0.796119396355E-01  0.820996134194E-01  0.846650207805E-01
  0.873105906985E-01  0.900388280525E-01  0.928523159930E-01  0.957537183872E-01  0.987457823419E-01
  0.101831340804E+00  0.105013315242E+00  0.108294718414E+00  0.111678657220E+00  0.115168335641E+00
  0.118767057775E+00  0.122478230966E+00  0.126305369027E+00  0.130252095570E+00  0.134322147435E+00
  0.138519378231E+00  0.142847761981E+00  0.147311396886E+00  0.151914509205E+00  0.156661457259E+00
  0.161556735555E+00  0.166604979041E+00  0.171810967496E+00  0.177179630055E+00  0.182716049878E+00
  0.188425468959E+00  0.194313293090E+00  0.200385096984E+00  0.206646629548E+00  0.213103819326E+00
  0.219762780118E+00  0.226629816762E+00  0.233711431108E+00  0.241014328171E+00  0.248545422483E+00
  0.256311844636E+00  0.264320948036E+00  0.272580315864E+00  0.281097768257E+00  0.289881369712E+00
  0.298939436720E+00  0.308280545644E+00  0.317913540832E+00  0.327847543002E+00  0.338091957867E+00
  0.348656485048E+00  0.359551127251E+00  0.370786199746E+00  0.382372340126E+00  0.394320518384E+00
  0.406642047297E+00  0.419348593138E+00  0.432452186723E+00  0.445965234799E+00  0.459900531793E+00
  0.474271271928E+00  0.489091061712E+00  0.504373932821E+00  0.520134355387E+00  0.536387251698E+00
  0.553148010325E+00  0.570432500694E+00  0.588257088111E+00  0.606638649257E+00  0.625594588164E+00
  0.645142852702E+00  0.665301951562E+00  0.686090971788E+00  0.707529596845E+00  0.729638125257E+00
  0.752437489828E+00  0.775949277458E+00  0.800195749583E+00
 aepotential
  0.568167509245E+05  0.550635481897E+05  0.524115275846E+05  0.499018713441E+05  0.475237204497E+05
  0.451515547378E+05  0.430200164382E+05  0.409238097938E+05  0.389890217306E+05  0.368813865094E+05
  0.350615246282E+05  0.333557092279E+05  0.316173241956E+05  0.300729091537E+05  0.286886799447E+05
  0.272489939628E+05  0.259465437732E+05  0.248400202732E+05  0.235396741163E+05  0.223170218821E+05
  0.213328748534E+05  0.203294079803E+05  0.194844222350E+05  0.185710568927E+05  0.176709429315E+05
  0.167671510199E+05  0.160243622565E+05  0.152818091117E+05  0.146690277682E+05  0.138258389832E+05
  0.134189698578E+05  0.126725443221E+05  0.123038676256E+05  0.119831142764E+05  0.113066884034E+05
  0.109542752362E+05  0.105045026707E+05  0.101224377086E+05  0.974218310199E+04  0.935878435724E+04
  0.898430881262E+04  0.863162335351E+04  0.834109909528E+04  0.802614032693E+04  0.765474863659E+04
  0.737958797444E+04  0.710461943105E+04  0.684124268882E+04  0.657256357790E+04  0.634080972021E+04
  0.611883238911E+04  0.588776114841E+04  0.567061153551E+04  0.546806596497E+04  0.527334245377E+04
  0.508202990632E+04  0.489948715094E+04  0.472473624177E+04  0.455158263083E+04  0.439380708114E+04
  0.423918224458E+04  0.409513459489E+04  0.395420396787E+04  0.381489630690E+04  0.368299767628E+04
  0.356065917645E+04  0.344808656759E+04  0.332059296355E+04  0.320340159630E+04  0.308841817339E+04
  0.298656692828E+04  0.289151173890E+04  0.278932022020E+04  0.269860643300E+04  0.260963295288E+04
  0.252369425395E+04  0.244027743974E+04  0.235675162269E+04  0.227998960265E+04  0.220500647734E+04
  0.213360027980E+04  0.206507687815E+04  0.199794153830E+04  0.193259130823E+04  0.187002537936E+04
  0.180928697676E+04  0.175002211291E+04  0.169313737953E+04  0.163803960546E+04  0.158539968194E+04
  0.153386090079E+04  0.148425513654E+04  0.143657002851E+04  0.139061558403E+04  0.134610494542E+04
  0.130289436224E+04  0.126122212897E+04  0.122102031708E+04  0.118215352244E+04  0.114447797219E+04
  0.110798464935E+04  0.107278404419E+04  0.103876475250E+04  0.100569435470E+04  0.973994994213E+03
  0.943496118508E+03  0.913601133424E+03  0.884368745084E+03  0.856377178574E+03  0.829284208704E+03
  0.803218610485E+03  0.778000642091E+03  0.753540985318E+03  0.729760315842E+03  0.706813187509E+03
  0.684588297547E+03  0.663084401005E+03  0.642266135539E+03  0.622145759815E+03  0.602604001613E+03
  0.583767205221E+03  0.565471068185E+03  0.547758863981E+03  0.530608539213E+03  0.513970586017E+03
  0.497866957727E+03  0.482290300210E+03  0.467205520126E+03  0.452603639977E+03  0.438446185809E+03
  0.424735989962E+03  0.411454977271E+03  0.398592550498E+03  0.386131640032E+03  0.374064605946E+03
  0.362373286107E+03  0.351044213533E+03  0.340068051205E+03  0.329433845745E+03  0.319134048467E+03
  0.309149644115E+03  0.299487029885E+03  0.290127192243E+03  0.281044793509E+03  0.272245103681E+03
  0.263725213549E+03  0.255462407793E+03  0.247455143583E+03  0.239704879539E+03  0.232184929110E+03
  0.224899820685E+03  0.217837606539E+03  0.210994023374E+03  0.204364206949E+03  0.197938229036E+03
  0.191708799370E+03  0.185670997314E+03  0.179820456426E+03  0.174149726407E+03  0.168652754948E+03
  0.163326590424E+03  0.158163091260E+03  0.153157588893E+03  0.148306699724E+03  0.143604779095E+03
  0.139046607489E+03  0.134629057361E+03  0.130346510366E+03  0.126195683197E+03  0.122171984941E+03
  0.118271582517E+03  0.114490256495E+03  0.110824578770E+03  0.107271016470E+03  0.103826131339E+03
  0.100486939601E+03  0.972496474930E+02  0.941112617705E+02  0.910688157695E+02  0.881183294491E+02
  0.852582835944E+02  0.824865483648E+02  0.797986769210E+02  0.771921574428E+02  0.746652114120E+02
  0.722153653278E+02  0.698406104858E+02  0.675378771122E+02  0.653049180667E+02  0.631403153303E+02
  0.610415851152E+02  0.590064415061E+02  0.570331440351E+02  0.551198864034E+02  0.532594415948E+02
  0.514567312679E+02  0.497167994242E+02  0.480262228740E+02  0.463814095189E+02  0.447917181876E+02
  0.432498169270E+02  0.417546208464E+02  0.403054640044E+02  0.388992758341E+02  0.375349740621E+02
  0.362124635070E+02  0.349306291423E+02  0.336869443383E+02  0.324814397445E+02  0.313100087425E+02
  0.301767426114E+02  0.290753781389E+02  0.280084558665E+02  0.269725471906E+02  0.259693347023E+02
  0.249948801144E+02  0.240502968713E+02  0.231336866599E+02  0.222438647082E+02  0.213822880378E+02
  0.205459542447E+02  0.197336290054E+02  0.189463412224E+02  0.181816945021E+02  0.174408862092E+02
  0.167210511930E+02  0.160240511476E+02  0.153460686204E+02  0.146892408360E+02  0.140510311724E+02
  0.134327459069E+02  0.128311284555E+02  0.122486578950E+02  0.116821075902E+02  0.111327310512E+02
  0.105997234406E+02  0.100818813024E+02  0.957910573785E+01  0.909110837013E+01  0.861710351187E+01
  0.815666139425E+01  0.770969115698E+01  0.727563373976E+01  0.685365938987E+01  0.644399715789E+01
  0.604555582198E+01  0.565869169298E+01  0.528250018497E+01  0.491691343928E+01  0.456181226095E+01
  0.421605205641E+01  0.388029822947E+01  0.355353593873E+01  0.323577162745E+01  0.292654903710E+01
  0.262607615453E+01  0.233295412816E+01  0.204845397889E+01  0.177062722040E+01  0.150114356179E+01
  0.123765152926E+01  0.981878863997E+00  0.731952146227E+00  0.488975790051E+00  0.251903371338E+00
  0.209078273758E-01 -0.204480442105E+00 -0.424462383510E+00 -0.638633203133E+00 -0.848176627864E+00
 -0.105234460716E+01 -0.125184141922E+01 -0.144656118854E+01 -0.163708683529E+01 -0.182289825149E+01
 -0.200469780342E+01 -0.218254162819E+01 -0.235628649195E+01 -0.252640591990E+01 -0.269290796311E+01
 -0.285574659210E+01 -0.301535768816E+01 -0.317162135008E+01 -0.332467859460E+01 -0.347473929943E+01
 -0.362179442613E+01 -0.376601399967E+01 -0.390740306908E+01 -0.404617161618E+01 -0.418226540348E+01
 -0.431585470976E+01 -0.444698240445E+01 -0.457569584972E+01 -0.470208217807E+01 -0.482620917633E+01
 -0.494808565161E+01 -0.506779772342E+01 -0.518537029025E+01 -0.530086011134E+01 -0.541426215957E+01
 -0.552565816017E+01 -0.563501364100E+01 -0.574239753105E+01 -0.584777592621E+01 -0.595122575761E+01
 -0.605264787394E+01 -0.615217618516E+01 -0.624969186829E+01 -0.634522873672E+01 -0.643879964711E+01
 -0.653029619518E+01 -0.661979302919E+01 -0.670720794367E+01 -0.679254061638E+01 -0.687569280278E+01
 -0.695670920370E+01 -0.703546681630E+01 -0.711195648576E+01 -0.718611572365E+01 -0.725789767596E+01
 -0.732722792337E+01 -0.739404316527E+01 -0.745830295716E+01 -0.751990886320E+01 -0.757879898400E+01
 -0.763492317934E+01 -0.768818647270E+01 -0.773852374220E+01 -0.778586547210E+01 -0.783014132776E+01
 -0.787126564785E+01 -0.790918193518E+01 -0.794381778947E+01 -0.797511601153E+01 -0.800299906906E+01
 -0.802741824207E+01 -0.804832384000E+01 -0.806566339383E+01 -0.807939749303E+01 -0.808949045218E+01
 -0.809591723488E+01 -0.809865883865E+01 -0.809770895816E+01 -0.809306453381E+01 -0.808473836730E+01
 -0.807275471800E+01 -0.805714718044E+01 -0.803796037344E+01 -0.801525501883E+01 -0.798910219636E+01
 -0.795958822936E+01 -0.792680814028E+01 -0.789087460601E+01 -0.785191062927E+01 -0.781004819483E+01
 -0.776543219354E+01 -0.771821750745E+01 -0.766856247326E+01 -0.761663264758E+01 -0.756259230646E+01
 -0.750660579095E+01 -0.744883026007E+01 -0.738941079276E+01
 core charge-density
  0.000000000000E+00  0.000000000000E+00  0.000000000000E+00  0.000000000000E+00  0.000000000000E+00
  0.000000000000E+00  0.000000000000E+00  0.000000000000E+00  0.000000000000E+00  0.000000000000E+00
  0.000000000000E+00  0.000000000000E+00  0.000000000000E+00  0.000000000000E+00  0.000000000000E+00
  0.000000000000E+00  0.000000000000E+00  0.000000000000E+00  0.000000000000E+00  0.000000000000E+00
  0.000000000000E+00  0.000000000000E+00  0.000000000000E+00  0.000000000000E+00  0.000000000000E+00
  0.000000000000E+00  0.000000000000E+00  0.000000000000E+00  0.000000000000E+00  0.000000000000E+00
  0.000000000000E+00  0.000000000000E+00  0.000000000000E+00  0.000000000000E+00  0.000000000000E+00
  0.000000000000E+00  0.000000000000E+00  0.000000000000E+00  0.000000000000E+00  0.000000000000E+00
  0.000000000000E+00  0.000000000000E+00  0.000000000000E+00  0.000000000000E+00  0.000000000000E+00
  0.000000000000E+00  0.000000000000E+00  0.000000000000E+00  0.000000000000E+00  0.000000000000E+00
  0.000000000000E+00  0.000000000000E+00  0.000000000000E+00  0.000000000000E+00  0.000000000000E+00
  0.000000000000E+00  0.000000000000E+00  0.000000000000E+00  0.000000000000E+00  0.000000000000E+00
  0.000000000000E+00  0.000000000000E+00  0.000000000000E+00  0.000000000000E+00  0.000000000000E+00
  0.000000000000E+00  0.000000000000E+00  0.000000000000E+00  0.000000000000E+00  0.000000000000E+00
  0.000000000000E+00  0.000000000000E+00  0.000000000000E+00  0.000000000000E+00  0.000000000000E+00
  0.000000000000E+00  0.000000000000E+00  0.000000000000E+00  0.000000000000E+00  0.000000000000E+00
  0.000000000000E+00  0.000000000000E+00  0.000000000000E+00  0.000000000000E+00  0.000000000000E+00
  0.000000000000E+00  0.000000000000E+00  0.000000000000E+00  0.000000000000E+00  0.000000000000E+00
  0.000000000000E+00  0.000000000000E+00  0.000000000000E+00  0.000000000000E+00  0.000000000000E+00
  0.000000000000E+00  0.000000000000E+00  0.000000000000E+00  0.000000000000E+00  0.000000000000E+00
  0.000000000000E+00  0.000000000000E+00  0.000000000000E+00  0.000000000000E+00  0.000000000000E+00
  0.000000000000E+00  0.000000000000E+00  0.000000000000E+00  0.000000000000E+00  0.000000000000E+00
  0.000000000000E+00  0.000000000000E+00  0.000000000000E+00  0.000000000000E+00  0.000000000000E+00
  0.000000000000E+00  0.000000000000E+00  0.000000000000E+00  0.000000000000E+00  0.000000000000E+00
  0.000000000000E+00  0.000000000000E+00  0.000000000000E+00  0.000000000000E+00  0.000000000000E+00
  0.000000000000E+00  0.000000000000E+00  0.000000000000E+00  0.000000000000E+00  0.000000000000E+00
  0.000000000000E+00  0.000000000000E+00  0.000000000000E+00  0.000000000000E+00  0.000000000000E+00
  0.000000000000E+00  0.000000000000E+00  0.000000000000E+00  0.000000000000E+00  0.000000000000E+00
  0.000000000000E+00  0.000000000000E+00  0.000000000000E+00  0.000000000000E+00  0.000000000000E+00
  0.000000000000E+00  0.000000000000E+00  0.000000000000E+00  0.000000000000E+00  0.000000000000E+00
  0.000000000000E+00  0.000000000000E+00  0.000000000000E+00  0.000000000000E+00  0.000000000000E+00
  0.000000000000E+00  0.000000000000E+00  0.000000000000E+00  0.000000000000E+00  0.000000000000E+00
  0.000000000000E+00  0.000000000000E+00  0.000000000000E+00  0.000000000000E+00  0.000000000000E+00
  0.000000000000E+00  0.000000000000E+00  0.000000000000E+00  0.000000000000E+00  0.000000000000E+00
  0.000000000000E+00  0.000000000000E+00  0.000000000000E+00  0.000000000000E+00  0.000000000000E+00
  0.000000000000E+00  0.000000000000E+00  0.000000000000E+00  0.000000000000E+00  0.000000000000E+00
  0.000000000000E+00  0.000000000000E+00  0.000000000000E+00  0.000000000000E+00  0.000000000000E+00
  0.000000000000E+00  0.000000000000E+00  0.000000000000E+00  0.000000000000E+00  0.000000000000E+00
  0.000000000000E+00  0.000000000000E+00  0.000000000000E+00  0.000000000000E+00  0.000000000000E+00
  0.000000000000E+00  0.000000000000E+00  0.000000000000E+00  0.000000000000E+00  0.000000000000E+00
  0.000000000000E+00  0.000000000000E+00  0.000000000000E+00  0.000000000000E+00  0.000000000000E+00
  0.000000000000E+00  0.000000000000E+00  0.000000000000E+00  0.000000000000E+00  0.000000000000E+00
  0.000000000000E+00  0.000000000000E+00  0.000000000000E+00  0.000000000000E+00  0.000000000000E+00
  0.000000000000E+00  0.000000000000E+00  0.000000000000E+00  0.000000000000E+00  0.000000000000E+00
  0.000000000000E+00  0.000000000000E+00  0.000000000000E+00  0.000000000000E+00  0.000000000000E+00
  0.000000000000E+00  0.000000000000E+00  0.000000000000E+00  0.000000000000E+00  0.000000000000E+00
  0.000000000000E+00  0.000000000000E+00  0.000000000000E+00  0.000000000000E+00  0.000000000000E+00
  0.000000000000E+00  0.000000000000E+00  0.000000000000E+00  0.000000000000E+00  0.000000000000E+00
  0.000000000000E+00  0.000000000000E+00  0.000000000000E+00  0.000000000000E+00  0.000000000000E+00
  0.000000000000E+00  0.000000000000E+00  0.000000000000E+00  0.000000000000E+00  0.000000000000E+00
  0.000000000000E+00  0.000000000000E+00  0.000000000000E+00  0.000000000000E+00  0.000000000000E+00
  0.000000000000E+00  0.000000000000E+00  0.000000000000E+00  0.000000000000E+00  0.000000000000E+00
  0.000000000000E+00  0.000000000000E+00  0.000000000000E+00  0.000000000000E+00  0.000000000000E+00
  0.000000000000E+00  0.000000000000E+00  0.000000000000E+00  0.000000000000E+00  0.000000000000E+00
  0.000000000000E+00  0.000000000000E+00  0.000000000000E+00  0.000000000000E+00  0.000000000000E+00
  0.000000000000E+00  0.000000000000E+00  0.000000000000E+00  0.000000000000E+00  0.000000000000E+00
  0.000000000000E+00  0.000000000000E+00  0.000000000000E+00  0.000000000000E+00  0.000000000000E+00
  0.000000000000E+00  0.000000000000E+00  0.000000000000E+00  0.000000000000E+00  0.000000000000E+00
  0.000000000000E+00  0.000000000000E+00  0.000000000000E+00  0.000000000000E+00  0.000000000000E+00
  0.000000000000E+00  0.000000000000E+00  0.000000000000E+00  0.000000000000E+00  0.000000000000E+00
  0.000000000000E+00  0.000000000000E+00  0.000000000000E+00  0.000000000000E+00  0.000000000000E+00
  0.000000000000E+00  0.000000000000E+00  0.000000000000E+00  0.000000000000E+00  0.000000000000E+00
  0.000000000000E+00  0.000000000000E+00  0.000000000000E+00  0.000000000000E+00  0.000000000000E+00
  0.000000000000E+00  0.000000000000E+00  0.000000000000E+00  0.000000000000E+00  0.000000000000E+00
  0.000000000000E+00  0.000000000000E+00  0.000000000000E+00  0.000000000000E+00  0.000000000000E+00
  0.000000000000E+00  0.000000000000E+00  0.000000000000E+00  0.000000000000E+00  0.000000000000E+00
  0.000000000000E+00  0.000000000000E+00  0.000000000000E+00  0.000000000000E+00  0.000000000000E+00
  0.000000000000E+00  0.000000000000E+00  0.000000000000E+00  0.000000000000E+00  0.000000000000E+00
  0.000000000000E+00  0.000000000000E+00  0.000000000000E+00  0.000000000000E+00  0.000000000000E+00
  0.000000000000E+00  0.000000000000E+00  0.000000000000E+00  0.000000000000E+00  0.000000000000E+00
  0.000000000000E+00  0.000000000000E+00  0.000000000000E+00  0.000000000000E+00  0.000000000000E+00
  0.000000000000E+00  0.000000000000E+00  0.000000000000E+00  0.000000000000E+00  0.000000000000E+00
  0.000000000000E+00  0.000000000000E+00  0.000000000000E+00
 kinetic energy-density
  0.000000000000E+00  0.000000000000E+00  0.000000000000E+00  0.000000000000E+00  0.000000000000E+00
  0.000000000000E+00  0.000000000000E+00  0.000000000000E+00  0.000000000000E+00  0.000000000000E+00
  0.000000000000E+00  0.000000000000E+00  0.000000000000E+00  0.000000000000E+00  0.000000000000E+00
  0.000000000000E+00  0.000000000000E+00  0.000000000000E+00  0.000000000000E+00  0.000000000000E+00
  0.000000000000E+00  0.000000000000E+00  0.000000000000E+00  0.000000000000E+00  0.000000000000E+00
  0.000000000000E+00  0.000000000000E+00  0.000000000000E+00  0.000000000000E+00  0.000000000000E+00
  0.000000000000E+00  0.000000000000E+00  0.000000000000E+00  0.000000000000E+00  0.000000000000E+00
  0.000000000000E+00  0.000000000000E+00  0.000000000000E+00  0.000000000000E+00  0.000000000000E+00
  0.000000000000E+00  0.000000000000E+00  0.000000000000E+00  0.000000000000E+00  0.000000000000E+00
  0.000000000000E+00  0.000000000000E+00  0.000000000000E+00  0.000000000000E+00  0.000000000000E+00
  0.000000000000E+00  0.000000000000E+00  0.000000000000E+00  0.000000000000E+00  0.000000000000E+00
  0.000000000000E+00  0.000000000000E+00  0.000000000000E+00  0.000000000000E+00  0.000000000000E+00
  0.000000000000E+00  0.000000000000E+00  0.000000000000E+00  0.000000000000E+00  0.000000000000E+00
  0.000000000000E+00  0.000000000000E+00  0.000000000000E+00  0.000000000000E+00  0.000000000000E+00
  0.000000000000E+00  0.000000000000E+00  0.000000000000E+00  0.000000000000E+00  0.000000000000E+00
  0.000000000000E+00  0.000000000000E+00  0.000000000000E+00  0.000000000000E+00  0.000000000000E+00
  0.000000000000E+00  0.000000000000E+00  0.000000000000E+00  0.000000000000E+00  0.000000000000E+00
  0.000000000000E+00  0.000000000000E+00  0.000000000000E+00  0.000000000000E+00  0.000000000000E+00
  0.000000000000E+00  0.000000000000E+00  0.000000000000E+00  0.000000000000E+00  0.000000000000E+00
  0.000000000000E+00  0.000000000000E+00  0.000000000000E+00  0.000000000000E+00  0.000000000000E+00
  0.000000000000E+00  0.000000000000E+00  0.000000000000E+00  0.000000000000E+00  0.000000000000E+00
  0.000000000000E+00  0.000000000000E+00  0.000000000000E+00  0.000000000000E+00  0.000000000000E+00
  0.000000000000E+00  0.000000000000E+00  0.000000000000E+00  0.000000000000E+00  0.000000000000E+00
  0.000000000000E+00  0.000000000000E+00  0.000000000000E+00  0.000000000000E+00  0.000000000000E+00
  0.000000000000E+00  0.000000000000E+00  0.000000000000E+00  0.000000000000E+00  0.000000000000E+00
  0.000000000000E+00  0.000000000000E+00  0.000000000000E+00  0.000000000000E+00  0.000000000000E+00
  0.000000000000E+00  0.000000000000E+00  0.000000000000E+00  0.000000000000E+00  0.000000000000E+00
  0.000000000000E+00  0.000000000000E+00  0.000000000000E+00  0.000000000000E+00  0.000000000000E+00
  0.000000000000E+00  0.000000000000E+00  0.000000000000E+00  0.000000000000E+00  0.000000000000E+00
  0.000000000000E+00  0.000000000000E+00  0.000000000000E+00  0.000000000000E+00  0.000000000000E+00
  0.000000000000E+00  0.000000000000E+00  0.000000000000E+00  0.000000000000E+00  0.000000000000E+00
  0.000000000000E+00  0.000000000000E+00  0.000000000000E+00  0.000000000000E+00  0.000000000000E+00
  0.000000000000E+00  0.000000000000E+00  0.000000000000E+00  0.000000000000E+00  0.000000000000E+00
  0.000000000000E+00  0.000000000000E+00  0.000000000000E+00  0.000000000000E+00  0.000000000000E+00
  0.000000000000E+00  0.000000000000E+00  0.000000000000E+00  0.000000000000E+00  0.000000000000E+00
  0.000000000000E+00  0.000000000000E+00  0.000000000000E+00  0.000000000000E+00  0.000000000000E+00
  0.000000000000E+00  0.000000000000E+00  0.000000000000E+00  0.000000000000E+00  0.000000000000E+00
  0.000000000000E+00  0.000000000000E+00  0.000000000000E+00  0.000000000000E+00  0.000000000000E+00
  0.000000000000E+00  0.000000000000E+00  0.000000000000E+00  0.000000000000E+00  0.000000000000E+00
  0.000000000000E+00  0.000000000000E+00  0.000000000000E+00  0.000000000000E+00  0.000000000000E+00
  0.000000000000E+00  0.000000000000E+00  0.000000000000E+00  0.000000000000E+00  0.000000000000E+00
  0.000000000000E+00  0.000000000000E+00  0.000000000000E+00  0.000000000000E+00  0.000000000000E+00
  0.000000000000E+00  0.000000000000E+00  0.000000000000E+00  0.000000000000E+00  0.000000000000E+00
  0.000000000000E+00  0.000000000000E+00  0.000000000000E+00  0.000000000000E+00  0.000000000000E+00
  0.000000000000E+00  0.000000000000E+00  0.000000000000E+00  0.000000000000E+00  0.000000000000E+00
  0.000000000000E+00  0.000000000000E+00  0.000000000000E+00  0.000000000000E+00  0.000000000000E+00
  0.000000000000E+00  0.000000000000E+00  0.000000000000E+00  0.000000000000E+00  0.000000000000E+00
  0.000000000000E+00  0.000000000000E+00  0.000000000000E+00  0.000000000000E+00  0.000000000000E+00
  0.000000000000E+00  0.000000000000E+00  0.000000000000E+00  0.000000000000E+00  0.000000000000E+00
  0.000000000000E+00  0.000000000000E+00  0.000000000000E+00  0.000000000000E+00  0.000000000000E+00
  0.000000000000E+00  0.000000000000E+00  0.000000000000E+00  0.000000000000E+00  0.000000000000E+00
  0.000000000000E+00  0.000000000000E+00  0.000000000000E+00  0.000000000000E+00  0.000000000000E+00
  0.000000000000E+00  0.000000000000E+00  0.000000000000E+00  0.000000000000E+00  0.000000000000E+00
  0.000000000000E+00  0.000000000000E+00  0.000000000000E+00  0.000000000000E+00  0.000000000000E+00
  0.000000000000E+00  0.000000000000E+00  0.000000000000E+00  0.000000000000E+00  0.000000000000E+00
  0.000000000000E+00  0.000000000000E+00  0.000000000000E+00  0.000000000000E+00  0.000000000000E+00
  0.000000000000E+00  0.000000000000E+00  0.000000000000E+00  0.000000000000E+00  0.000000000000E+00
  0.000000000000E+00  0.000000000000E+00  0.000000000000E+00  0.000000000000E+00  0.000000000000E+00
  0.000000000000E+00  0.000000000000E+00  0.000000000000E+00  0.000000000000E+00  0.000000000000E+00
  0.000000000000E+00  0.000000000000E+00  0.000000000000E+00  0.000000000000E+00  0.000000000000E+00
  0.000000000000E+00  0.000000000000E+00  0.000000000000E+00  0.000000000000E+00  0.000000000000E+00
  0.000000000000E+00  0.000000000000E+00  0.000000000000E+00  0.000000000000E+00  0.000000000000E+00
  0.000000000000E+00  0.000000000000E+00  0.000000000000E+00  0.000000000000E+00  0.000000000000E+00
  0.000000000000E+00  0.000000000000E+00  0.000000000000E+00  0.000000000000E+00  0.000000000000E+00
  0.000000000000E+00  0.000000000000E+00  0.000000000000E+00  0.000000000000E+00  0.000000000000E+00
  0.000000000000E+00  0.000000000000E+00  0.000000000000E+00  0.000000000000E+00  0.000000000000E+00
  0.000000000000E+00  0.000000000000E+00  0.000000000000E+00  0.000000000000E+00  0.000000000000E+00
  0.000000000000E+00  0.000000000000E+00  0.000000000000E+00  0.000000000000E+00  0.000000000000E+00
  0.000000000000E+00  0.000000000000E+00  0.000000000000E+00  0.000000000000E+00  0.000000000000E+00
  0.000000000000E+00  0.000000000000E+00  0.000000000000E+00  0.000000000000E+00  0.000000000000E+00
  0.000000000000E+00  0.000000000000E+00  0.000000000000E+00  0.000000000000E+00  0.000000000000E+00
  0.000000000000E+00  0.000000000000E+00  0.000000000000E+00  0.000000000000E+00  0.000000000000E+00
  0.000000000000E+00  0.000000000000E+00  0.000000000000E+00
 local pseudopotential core
 -0.622843071015E+02 -0.622854673831E+02 -0.622865925048E+02 -0.622876835343E+02 -0.622887415045E+02
 -0.622897674175E+02 -0.622907622442E+02 -0.622917269263E+02 -0.622926623776E+02 -0.622935694841E+02
 -0.622944491040E+02 -0.622953020705E+02 -0.622961291910E+02 -0.622969312488E+02 -0.622977090032E+02
 -0.622984631905E+02 -0.622991945246E+02 -0.622999036985E+02 -0.623005913833E+02 -0.623012582299E+02
 -0.623019048700E+02 -0.623025319156E+02 -0.623031399605E+02 -0.623037295802E+02 -0.623043013331E+02
 -0.623048557607E+02 -0.623053933875E+02 -0.623059147227E+02 -0.623064202599E+02 -0.623069104775E+02
 -0.623073858400E+02 -0.623078467971E+02 -0.623082937856E+02 -0.623087272282E+02 -0.623091475355E+02
 -0.623095551052E+02 -0.623099503233E+02 -0.623103335638E+02 -0.623107051898E+02 -0.623110655527E+02
 -0.623114149940E+02 -0.623117538442E+02 -0.623120824241E+02 -0.623124010447E+02 -0.623127100077E+02
 -0.623130096054E+02 -0.623133001214E+02 -0.623135818307E+02 -0.623138549998E+02 -0.623141198872E+02
 -0.623143767437E+02 -0.623146258122E+02 -0.623148673284E+02 -0.623151015208E+02 -0.623153286110E+02
 -0.623155488138E+02 -0.623157623375E+02 -0.623159693840E+02 -0.623161701490E+02 -0.623163648226E+02
 -0.623165535887E+02 -0.623167366258E+02 -0.623169141067E+02 -0.623170861994E+02 -0.623172530664E+02
 -0.623174148654E+02 -0.623175717491E+02 -0.623177238657E+02 -0.623178713586E+02 -0.623180143672E+02
 -0.623181530265E+02 -0.623182874671E+02 -0.623184178157E+02 -0.623185441952E+02 -0.623186667246E+02
 -0.623187855194E+02 -0.623189006911E+02 -0.623190123482E+02 -0.623191205956E+02 -0.623192255348E+02
 -0.623193272645E+02 -0.623194258797E+02 -0.623195214730E+02 -0.623196141339E+02 -0.623197039486E+02
 -0.623197910014E+02 -0.623198753730E+02 -0.623199571420E+02 -0.623200363845E+02 -0.623201131738E+02
 -0.623201875809E+02 -0.623202596745E+02 -0.623203295211E+02 -0.623203971846E+02 -0.623204627270E+02
 -0.623205262082E+02 -0.623205876857E+02 -0.623206472153E+02 -0.623207048503E+02 -0.623207606428E+02
 -0.623208146421E+02 -0.623208668963E+02 -0.623209174513E+02 -0.623209663512E+02 -0.623210136383E+02
 -0.623210593532E+02 -0.623211035347E+02 -0.623211462198E+02 -0.623211874439E+02 -0.623212272406E+02
 -0.623212656418E+02 -0.623213026778E+02 -0.623213383772E+02 -0.623213727668E+02 -0.623214058719E+02
 -0.623214377159E+02 -0.623214683208E+02 -0.623214977066E+02 -0.623215258918E+02 -0.623215528932E+02
 -0.623215787254E+02 -0.623216034020E+02 -0.623216269340E+02 -0.623216493309E+02 -0.623216706006E+02
 -0.623216907485E+02 -0.623217097784E+02 -0.623217276919E+02 -0.623217444888E+02 -0.623217601662E+02
 -0.623217747195E+02 -0.623217881414E+02 -0.623218004223E+02 -0.623218115505E+02 -0.623218215112E+02
 -0.623218302870E+02 -0.623218378578E+02 -0.623218442005E+02 -0.623218492889E+02 -0.623218530937E+02
 -0.623218555821E+02 -0.623218567176E+02 -0.623218564603E+02 -0.623218547661E+02 -0.623218515868E+02
 -0.623218468700E+02 -0.623218405584E+02 -0.623218325903E+02 -0.623218228984E+02 -0.623218114102E+02
 -0.623217980476E+02 -0.623217827264E+02 -0.623217653557E+02 -0.623217458382E+02 -0.623217240694E+02
 -0.623216999368E+02 -0.623216733204E+02 -0.623216440913E+02 -0.623216121118E+02 -0.623215772343E+02
 -0.623215393012E+02 -0.623214981442E+02 -0.623214535833E+02 -0.623214054267E+02 -0.623213534692E+02
 -0.623212974922E+02 -0.623212372626E+02 -0.623211725317E+02 -0.623211030343E+02 -0.623210284880E+02
 -0.623209485917E+02 -0.623208630245E+02 -0.623207714450E+02 -0.623206734891E+02 -0.623205687693E+02
 -0.623204568730E+02 -0.623203373610E+02 -0.623202097655E+02 -0.623200735888E+02 -0.623199283011E+02
 -0.623197733384E+02 -0.623196081008E+02 -0.623194319497E+02 -0.623192442055E+02 -0.623190441455E+02
 -0.623188310005E+02 -0.623186039521E+02 -0.623183621298E+02 -0.623181046078E+02 -0.623178304006E+02
 -0.623175384605E+02 -0.623172276729E+02 -0.623168968522E+02 -0.623165447374E+02 -0.623161699874E+02
 -0.623157711755E+02 -0.623153467847E+02 -0.623148952016E+02 -0.623144147101E+02 -0.623139034855E+02
 -0.623133595870E+02 -0.623127809510E+02 -0.623121653828E+02 -0.623115105487E+02 -0.623108139671E+02
 -0.623100729990E+02 -0.623092848385E+02 -0.623084465020E+02 -0.623075548169E+02 -0.623066064102E+02
 -0.623055976952E+02 -0.623045248586E+02 -0.623033838462E+02 -0.623021703472E+02 -0.623008797791E+02
 -0.622995072699E+02 -0.622980476399E+02 -0.622964953831E+02 -0.622948446459E+02 -0.622930892063E+02
 -0.622912224500E+02 -0.622892373465E+02 -0.622871264231E+02 -0.622848817368E+02 -0.622824948461E+02
 -0.622799567789E+02 -0.622772580001E+02 -0.622743883771E+02 -0.622713371422E+02 -0.622680928535E+02
 -0.622646433538E+02 -0.622609757258E+02 -0.622570762463E+02 -0.622529303363E+02 -0.622485225086E+02
 -0.622438363127E+02 -0.622388542762E+02 -0.622335578424E+02 -0.622279273050E+02 -0.622219417391E+02
 -0.622155789273E+02 -0.622088152826E+02 -0.622016257668E+02 -0.621939838041E+02 -0.621858611900E+02
 -0.621772279957E+02 -0.621680524669E+02 -0.621583009169E+02 -0.621479376157E+02 -0.621369246707E+02
 -0.621252219041E+02 -0.621127867224E+02 -0.620995739802E+02 -0.620855358368E+02 -0.620706216070E+02
 -0.620547776042E+02 -0.620379469768E+02 -0.620200695374E+02 -0.620010815845E+02 -0.619809157178E+02
 -0.619595006448E+02 -0.619367609812E+02 -0.619126170442E+02 -0.618869846376E+02 -0.618597748315E+02
 -0.618308937345E+02 -0.618002422600E+02 -0.617677158863E+02 -0.617332044128E+02 -0.616965917096E+02
 -0.616577554648E+02 -0.616165669285E+02 -0.615728906540E+02 -0.615265842395E+02 -0.614774980684E+02
 -0.614254750528E+02 -0.613703503796E+02 -0.613119512613E+02 -0.612500966930E+02 -0.611845972187E+02
 -0.611152547069E+02 -0.610418621387E+02 -0.609642034098E+02 -0.608820531485E+02 -0.607951765519E+02
 -0.607033292405E+02 -0.606062571352E+02 -0.605036963548E+02 -0.603953731371E+02 -0.602810037826E+02
 -0.601602946211E+02 -0.600329419990E+02 -0.598986322862E+02 -0.597570418987E+02 -0.596078373338E+02
 -0.594506752098E+02 -0.592852023064E+02 -0.591110555939E+02 -0.589278622427E+02 -0.587352396007E+02
 -0.585327951230E+02 -0.583201262402E+02 -0.580968201448E+02 -0.578624534779E+02 -0.576165918931E+02
 -0.573587894748E+02 -0.570885879856E+02 -0.568055159149E+02 -0.565090873026E+02 -0.561988003053E+02
 -0.558741354762E+02 -0.555345537248E+02 -0.551794939215E+02 -0.548083701134E+02 -0.544205683110E+02
 -0.540154428098E+02 -0.535923120034E+02 -0.531504536506E+02 -0.526890995562E+02 -0.522074296313E+02
 -0.517045653109E+02 -0.511795623204E+02 -0.506314028138E+02 -0.500589869481E+02 -0.494611240177E+02
 -0.488365233585E+02 -0.481837853353E+02 -0.475013928548E+02 -0.467877039944E+02 -0.460409464789E+02
 -0.452592148634E+02 -0.444404713407E+02 -0.435825510393E+02 -0.426831724667E+02 -0.417399533181E+02
 -0.407504312143E+02 -0.397120881008E+02 -0.386223762173E+02 -0.375238282596E+02 -0.364583488277E+02
 -0.354223615172E+02 -0.344120532299E+02 -0.334233282092E+02 -0.324518753275E+02 -0.314932332910E+02
 -0.305430031328E+02 -0.295972189875E+02 -0.286529121405E+02 -0.277138961731E+02 -0.268807027160E+02
 -0.260664130351E+02 -0.252730858705E+02 -0.245093210951E+02 -0.237369804927E+02 -0.230177326346E+02
 -0.223202792622E+02 -0.216439601545E+02 -0.209881352061E+02 -0.203521808893E+02 -0.197354951450E+02
 -0.191374976575E+02 -0.185576198385E+02 -0.179953113192E+02
 pspotential valence only
 -0.835364443183E+01 -0.835480471514E+01 -0.835592983867E+01 -0.835702087007E+01 -0.835807884224E+01
 -0.835910475745E+01 -0.836009958644E+01 -0.836106427094E+01 -0.836199972487E+01 -0.836290683408E+01
 -0.836378645693E+01 -0.836463942654E+01 -0.836546655033E+01 -0.836626861160E+01 -0.836704636979E+01
 -0.836780056104E+01 -0.836853189944E+01 -0.836924107781E+01 -0.836992876738E+01 -0.837059561908E+01
 -0.837124226465E+01 -0.837186931595E+01 -0.837247736699E+01 -0.837306699323E+01 -0.837363875307E+01
 -0.837419318797E+01 -0.837473082266E+01 -0.837525216614E+01 -0.837575771220E+01 -0.837624793930E+01
 -0.837672331183E+01 -0.837718427960E+01 -0.837763127942E+01 -0.837806473403E+01 -0.837848505413E+01
 -0.837889263748E+01 -0.837928787009E+01 -0.837967112602E+01 -0.838004276847E+01 -0.838040314880E+01
 -0.838075260865E+01 -0.838109147855E+01 -0.838142007940E+01 -0.838173872233E+01 -0.838204770903E+01
 -0.838234733196E+01 -0.838263787479E+01 -0.838291961258E+01 -0.838319281205E+01 -0.838345773176E+01
 -0.838371462259E+01 -0.838396372759E+01 -0.838420528259E+01 -0.838443951627E+01 -0.838466665035E+01
 -0.838488689980E+01 -0.838510047314E+01 -0.838530757244E+01 -0.838550839365E+01 -0.838570312694E+01
 -0.838589195655E+01 -0.838607506113E+01 -0.838625261389E+01 -0.838642478299E+01 -0.838659173124E+01
 -0.838675361656E+01 -0.838691059214E+01 -0.838706280638E+01 -0.838721040324E+01 -0.838735352234E+01
 -0.838749229913E+01 -0.838762686466E+01 -0.838775734613E+01 -0.838788386698E+01 -0.838800654673E+01
 -0.838812550132E+01 -0.838824084303E+01 -0.838835268091E+01 -0.838846112051E+01 -0.838856626418E+01
 -0.838866821125E+01 -0.838876705775E+01 -0.838886289691E+01 -0.838895581929E+01 -0.838904591216E+01
 -0.838913326065E+01 -0.838921794676E+01 -0.838930005033E+01 -0.838937964851E+01 -0.838945681606E+01
 -0.838953162551E+01 -0.838960414700E+01 -0.838967444854E+01 -0.838974259597E+01 -0.838980865298E+01
 -0.838987268138E+01 -0.838993474093E+01 -0.838999488940E+01 -0.839005318268E+01 -0.839010967509E+01
 -0.839016441888E+01 -0.839021746471E+01 -0.839026886165E+01 -0.839031865690E+01 -0.839036689617E+01
 -0.839041362371E+01 -0.839045888209E+01 -0.839050271250E+01 -0.839054515454E+01 -0.839058624645E+01
 -0.839062602512E+01 -0.839066452601E+01 -0.839070178326E+01 -0.839073782960E+01 -0.839077269660E+01
 -0.839080641434E+01 -0.839083901186E+01 -0.839087051687E+01 -0.839090095570E+01 -0.839093035370E+01
 -0.839095873478E+01 -0.839098612190E+01 -0.839101253651E+01 -0.839103799908E+01 -0.839106252886E+01
 -0.839108614388E+01 -0.839110886091E+01 -0.839113069563E+01 -0.839115166254E+01 -0.839117177470E+01
 -0.839119104418E+01 -0.839120948165E+01 -0.839122709654E+01 -0.839124389719E+01 -0.839125989033E+01
 -0.839127508150E+01 -0.839128947488E+01 -0.839130307320E+01 -0.839131587777E+01 -0.839132788850E+01
 -0.839133910356E+01 -0.839134951977E+01 -0.839135913215E+01 -0.839136793406E+01 -0.839137591712E+01
 -0.839138307106E+01 -0.839138938381E+01 -0.839139484120E+01 -0.839139942698E+01 -0.839140312271E+01
 -0.839140590779E+01 -0.839140775907E+01 -0.839140865094E+01 -0.839140855513E+01 -0.839140744065E+01
 -0.839140527342E+01 -0.839140201653E+01 -0.839139762959E+01 -0.839139206899E+01 -0.839138528722E+01
 -0.839137723318E+01 -0.839136785168E+01 -0.839135708308E+01 -0.839134486358E+01 -0.839133112416E+01
 -0.839131579102E+01 -0.839129878494E+01 -0.839128002095E+01 -0.839125940810E+01 -0.839123684905E+01
 -0.839121223965E+01 -0.839118546856E+01 -0.839115641684E+01 -0.839112495749E+01 -0.839109095480E+01
 -0.839105426415E+01 -0.839101473099E+01 -0.839097219072E+01 -0.839092646773E+01 -0.839087737479E+01
 -0.839082471244E+01 -0.839076826815E+01 -0.839070781547E+01 -0.839064311316E+01 -0.839057390440E+01
 -0.839049991574E+01 -0.839042085596E+01 -0.839033641510E+01 -0.839024626330E+01 -0.839015004933E+01
 -0.839004739951E+01 -0.838993791623E+01 -0.838982117647E+01 -0.838969673001E+01 -0.838956409812E+01
 -0.838942277124E+01 -0.838927220763E+01 -0.838911183092E+01 -0.838894102811E+01 -0.838875914737E+01
 -0.838856549542E+01 -0.838835933502E+01 -0.838813988229E+01 -0.838790630374E+01 -0.838765771312E+01
 -0.838739316829E+01 -0.838711166753E+01 -0.838681214591E+01 -0.838649347164E+01 -0.838615444150E+01
 -0.838579377646E+01 -0.838541011741E+01 -0.838500201972E+01 -0.838456794809E+01 -0.838410627128E+01
 -0.838361525580E+01 -0.838309305977E+01 -0.838253772635E+01 -0.838194717663E+01 -0.838131920226E+01
 -0.838065145751E+01 -0.837994145100E+01 -0.837918653680E+01 -0.837838390521E+01 -0.837753057294E+01
 -0.837662337253E+01 -0.837565894157E+01 -0.837463371106E+01 -0.837354389330E+01 -0.837238546864E+01
 -0.837115417245E+01 -0.836984548046E+01 -0.836845459399E+01 -0.836697642402E+01 -0.836540557461E+01
 -0.836373632572E+01 -0.836196261482E+01 -0.836007801782E+01 -0.835807572911E+01 -0.835594854109E+01
 -0.835368882185E+01 -0.835128849308E+01 -0.834873900633E+01 -0.834603131868E+01 -0.834315586743E+01
 -0.834010254432E+01 -0.833686066826E+01 -0.833341895804E+01 -0.832976550409E+01 -0.832588773939E+01
 -0.832177241045E+01 -0.831740554780E+01 -0.831277243594E+01 -0.830785758371E+01 -0.830264469495E+01
 -0.829711663949E+01 -0.829125542484E+01 -0.828504216962E+01 -0.827845707784E+01 -0.827147941596E+01
 -0.826408749197E+01 -0.825625863814E+01 -0.824796919746E+01 -0.823919451474E+01 -0.822990893335E+01
 -0.822008579863E+01 -0.820969746880E+01 -0.819871533457E+01 -0.818710984941E+01 -0.817485057107E+01
 -0.816190621669E+01 -0.814824473295E+01 -0.813383338323E+01 -0.811863885406E+01 -0.810262738249E+01
 -0.808576490830E+01 -0.806801725156E+01 -0.804935032004E+01 -0.802973034831E+01 -0.800912417210E+01
 -0.798749954069E+01 -0.796482547035E+01 -0.794107264255E+01 -0.791621384903E+01 -0.789022448811E+01
 -0.786308311389E+01 -0.783477204132E+01 -0.780527800950E+01 -0.777459290460E+01 -0.774271454385E+01
 -0.770964752036E+01 -0.767540410909E+01 -0.764000523083E+01 -0.760348147294E+01 -0.756587416102E+01
 -0.752723647588E+01 -0.748763460806E+01 -0.744714893951E+01 -0.740587524014E+01 -0.736392586472E+01
 -0.732143093256E+01 -0.727853946978E+01 -0.723542049159E+01 -0.719226399780E+01 -0.714928185317E+01
 -0.710670851951E+01 -0.706480160447E+01 -0.702384218697E+01 -0.698413487725E+01 -0.694600756435E+01
 -0.690981080034E+01 -0.687591676636E+01 -0.684471775960E+01 -0.681662413693E+01 -0.679206164257E+01
 -0.677146804349E+01 -0.675528898808E+01 -0.674397299915E+01 -0.673796550700E+01 -0.673770182678E+01
 -0.674359898675E+01 -0.675604632403E+01 -0.677539478319E+01 -0.680194488747E+01 -0.683593340293E+01
 -0.687751878849E+01 -0.692676562062E+01 -0.698362829905E+01 -0.704793447378E+01 -0.711936876866E+01
 -0.719745748841E+01 -0.728155504693E+01 -0.737083279537E+01 -0.746427070562E+01 -0.756065192903E+01
 -0.765855958948E+01 -0.775637434022E+01 -0.785227039992E+01 -0.794420735060E+01 -0.802991551862E+01
 -0.810687506150E+01 -0.817229377835E+01 -0.822309665426E+01 -0.825595081217E+01 -0.826736090807E+01
 -0.825387848207E+01 -0.821247059100E+01 -0.814108762803E+01 -0.804444361476E+01 -0.802396209553E+01
 -0.799360565649E+01 -0.795629702880E+01 -0.792149596577E+01 -0.785191062927E+01 -0.781004819483E+01
 -0.776543219354E+01 -0.771821750745E+01 -0.766856247326E+01 -0.761663264758E+01 -0.756259230646E+01
 -0.750660579095E+01 -0.744883026007E+01 -0.738941079276E+01
 core charge-density (pseudized)
  0.000000000000E+00  0.000000000000E+00  0.000000000000E+00  0.000000000000E+00  0.000000000000E+00
  0.000000000000E+00  0.000000000000E+00  0.000000000000E+00  0.000000000000E+00  0.000000000000E+00
  0.000000000000E+00  0.000000000000E+00  0.000000000000E+00  0.000000000000E+00  0.000000000000E+00
  0.000000000000E+00  0.000000000000E+00  0.000000000000E+00  0.000000000000E+00  0.000000000000E+00
  0.000000000000E+00  0.000000000000E+00  0.000000000000E+00  0.000000000000E+00  0.000000000000E+00
  0.000000000000E+00  0.000000000000E+00  0.000000000000E+00  0.000000000000E+00  0.000000000000E+00
  0.000000000000E+00  0.000000000000E+00  0.000000000000E+00  0.000000000000E+00  0.000000000000E+00
  0.000000000000E+00  0.000000000000E+00  0.000000000000E+00  0.000000000000E+00  0.000000000000E+00
  0.000000000000E+00  0.000000000000E+00  0.000000000000E+00  0.000000000000E+00  0.000000000000E+00
  0.000000000000E+00  0.000000000000E+00  0.000000000000E+00  0.000000000000E+00  0.000000000000E+00
  0.000000000000E+00  0.000000000000E+00  0.000000000000E+00  0.000000000000E+00  0.000000000000E+00
  0.000000000000E+00  0.000000000000E+00  0.000000000000E+00  0.000000000000E+00  0.000000000000E+00
  0.000000000000E+00  0.000000000000E+00  0.000000000000E+00  0.000000000000E+00  0.000000000000E+00
  0.000000000000E+00  0.000000000000E+00  0.000000000000E+00  0.000000000000E+00  0.000000000000E+00
  0.000000000000E+00  0.000000000000E+00  0.000000000000E+00  0.000000000000E+00  0.000000000000E+00
  0.000000000000E+00  0.000000000000E+00  0.000000000000E+00  0.000000000000E+00  0.000000000000E+00
  0.000000000000E+00  0.000000000000E+00  0.000000000000E+00  0.000000000000E+00  0.000000000000E+00
  0.000000000000E+00  0.000000000000E+00  0.000000000000E+00  0.000000000000E+00  0.000000000000E+00
  0.000000000000E+00  0.000000000000E+00  0.000000000000E+00  0.000000000000E+00  0.000000000000E+00
  0.000000000000E+00  0.000000000000E+00  0.000000000000E+00  0.000000000000E+00  0.000000000000E+00
  0.000000000000E+00  0.000000000000E+00  0.000000000000E+00  0.000000000000E+00  0.000000000000E+00
  0.000000000000E+00  0.000000000000E+00  0.000000000000E+00  0.000000000000E+00  0.000000000000E+00
  0.000000000000E+00  0.000000000000E+00  0.000000000000E+00  0.000000000000E+00  0.000000000000E+00
  0.000000000000E+00  0.000000000000E+00  0.000000000000E+00  0.000000000000E+00  0.000000000000E+00
  0.000000000000E+00  0.000000000000E+00  0.000000000000E+00  0.000000000000E+00  0.000000000000E+00
  0.000000000000E+00  0.000000000000E+00  0.000000000000E+00  0.000000000000E+00  0.000000000000E+00
  0.000000000000E+00  0.000000000000E+00  0.000000000000E+00  0.000000000000E+00  0.000000000000E+00
  0.000000000000E+00  0.000000000000E+00  0.000000000000E+00  0.000000000000E+00  0.000000000000E+00
  0.000000000000E+00  0.000000000000E+00  0.000000000000E+00  0.000000000000E+00  0.000000000000E+00
  0.000000000000E+00  0.000000000000E+00  0.000000000000E+00  0.000000000000E+00  0.000000000000E+00
  0.000000000000E+00  0.000000000000E+00  0.000000000000E+00  0.000000000000E+00  0.000000000000E+00
  0.000000000000E+00  0.000000000000E+00  0.000000000000E+00  0.000000000000E+00  0.000000000000E+00
  0.000000000000E+00  0.000000000000E+00  0.000000000000E+00  0.000000000000E+00  0.000000000000E+00
  0.000000000000E+00  0.000000000000E+00  0.000000000000E+00  0.000000000000E+00  0.000000000000E+00
  0.000000000000E+00  0.000000000000E+00  0.000000000000E+00  0.000000000000E+00  0.000000000000E+00
  0.000000000000E+00  0.000000000000E+00  0.000000000000E+00  0.000000000000E+00  0.000000000000E+00
  0.000000000000E+00  0.000000000000E+00  0.000000000000E+00  0.000000000000E+00  0.000000000000E+00
  0.000000000000E+00  0.000000000000E+00  0.000000000000E+00  0.000000000000E+00  0.000000000000E+00
  0.000000000000E+00  0.000000000000E+00  0.000000000000E+00  0.000000000000E+00  0.000000000000E+00
  0.000000000000E+00  0.000000000000E+00  0.000000000000E+00  0.000000000000E+00  0.000000000000E+00
  0.000000000000E+00  0.000000000000E+00  0.000000000000E+00  0.000000000000E+00  0.000000000000E+00
  0.000000000000E+00  0.000000000000E+00  0.000000000000E+00  0.000000000000E+00  0.000000000000E+00
  0.000000000000E+00  0.000000000000E+00  0.000000000000E+00  0.000000000000E+00  0.000000000000E+00
  0.000000000000E+00  0.000000000000E+00  0.000000000000E+00  0.000000000000E+00  0.000000000000E+00
  0.000000000000E+00  0.000000000000E+00  0.000000000000E+00  0.000000000000E+00  0.000000000000E+00
  0.000000000000E+00  0.000000000000E+00  0.000000000000E+00  0.000000000000E+00  0.000000000000E+00
  0.000000000000E+00  0.000000000000E+00  0.000000000000E+00  0.000000000000E+00  0.000000000000E+00
  0.000000000000E+00  0.000000000000E+00  0.000000000000E+00  0.000000000000E+00  0.000000000000E+00
  0.000000000000E+00  0.000000000000E+00  0.000000000000E+00  0.000000000000E+00  0.000000000000E+00
  0.000000000000E+00  0.000000000000E+00  0.000000000000E+00  0.000000000000E+00  0.000000000000E+00
  0.000000000000E+00  0.000000000000E+00  0.000000000000E+00  0.000000000000E+00  0.000000000000E+00
  0.000000000000E+00  0.000000000000E+00  0.000000000000E+00  0.000000000000E+00  0.000000000000E+00
  0.000000000000E+00  0.000000000000E+00  0.000000000000E+00  0.000000000000E+00  0.000000000000E+00
  0.000000000000E+00  0.000000000000E+00  0.000000000000E+00  0.000000000000E+00  0.000000000000E+00
  0.000000000000E+00  0.000000000000E+00  0.000000000000E+00  0.000000000000E+00  0.000000000000E+00
  0.000000000000E+00  0.000000000000E+00  0.000000000000E+00  0.000000000000E+00  0.000000000000E+00
  0.000000000000E+00  0.000000000000E+00  0.000000000000E+00  0.000000000000E+00  0.000000000000E+00
  0.000000000000E+00  0.000000000000E+00  0.000000000000E+00  0.000000000000E+00  0.000000000000E+00
  0.000000000000E+00  0.000000000000E+00  0.000000000000E+00  0.000000000000E+00  0.000000000000E+00
  0.000000000000E+00  0.000000000000E+00  0.000000000000E+00  0.000000000000E+00  0.000000000000E+00
  0.000000000000E+00  0.000000000000E+00  0.000000000000E+00  0.000000000000E+00  0.000000000000E+00
  0.000000000000E+00  0.000000000000E+00  0.000000000000E+00  0.000000000000E+00  0.000000000000E+00
  0.000000000000E+00  0.000000000000E+00  0.000000000000E+00  0.000000000000E+00  0.000000000000E+00
  0.000000000000E+00  0.000000000000E+00  0.000000000000E+00  0.000000000000E+00  0.000000000000E+00
  0.000000000000E+00  0.000000000000E+00  0.000000000000E+00  0.000000000000E+00  0.000000000000E+00
  0.000000000000E+00  0.000000000000E+00  0.000000000000E+00  0.000000000000E+00  0.000000000000E+00
  0.000000000000E+00  0.000000000000E+00  0.000000000000E+00  0.000000000000E+00  0.000000000000E+00
  0.000000000000E+00  0.000000000000E+00  0.000000000000E+00  0.000000000000E+00  0.000000000000E+00
  0.000000000000E+00  0.000000000000E+00  0.000000000000E+00  0.000000000000E+00  0.000000000000E+00
  0.000000000000E+00  0.000000000000E+00  0.000000000000E+00  0.000000000000E+00  0.000000000000E+00
  0.000000000000E+00  0.000000000000E+00  0.000000000000E+00  0.000000000000E+00  0.000000000000E+00
  0.000000000000E+00  0.000000000000E+00  0.000000000000E+00  0.000000000000E+00  0.000000000000E+00
  0.000000000000E+00  0.000000000000E+00  0.000000000000E+00
 pseudo wavefunction
  0.414785367787E-04  0.427746371994E-04  0.441112375129E-04  0.454896032396E-04  0.469110394440E-04
  0.483768919707E-04  0.498885487186E-04  0.514474409548E-04  0.530550446701E-04  0.547128819762E-04
  0.564225225471E-04  0.581855851051E-04  0.600037389534E-04  0.618787055569E-04  0.638122601720E-04
  0.658062335272E-04  0.678625135570E-04  0.699830471888E-04  0.721698421869E-04  0.744249690528E-04
  0.767505629864E-04  0.791488259071E-04  0.816220285387E-04  0.841725125594E-04  0.868026928191E-04
  0.895150596257E-04  0.923121811028E-04  0.951967056217E-04  0.981713643084E-04  0.101238973630E-03
  0.104402438061E-03  0.107664752833E-03  0.111029006771E-03  0.114498385221E-03  0.118076173058E-03
  0.121765757805E-03  0.125570632834E-03  0.129494400680E-03  0.133540776443E-03  0.137713591314E-03
  0.142016796198E-03  0.146454465457E-03  0.151030800765E-03  0.155750135088E-03  0.160616936788E-03
  0.165635813850E-03  0.170811518247E-03  0.176148950441E-03  0.181653164020E-03  0.187329370483E-03
  0.193182944178E-03  0.199219427384E-03  0.205444535565E-03  0.211864162779E-03  0.218484387257E-03
  0.225311477159E-03  0.232351896512E-03  0.239612311324E-03  0.247099595901E-03  0.254820839354E-03
  0.262783352309E-03  0.270994673833E-03  0.279462578567E-03  0.288195084092E-03  0.297200458517E-03
  0.306487228309E-03  0.316064186364E-03  0.325940400336E-03  0.336125221219E-03  0.346628292200E-03
  0.357459557795E-03  0.368629273256E-03  0.380148014289E-03  0.392026687062E-03  0.404276538534E-03
  0.416909167100E-03  0.429936533579E-03  0.443370972532E-03  0.457225203944E-03  0.471512345266E-03
  0.486245923835E-03  0.501439889685E-03  0.517108628749E-03  0.533266976484E-03  0.549930231917E-03
  0.567114172129E-03  0.584835067193E-03  0.603109695579E-03  0.621955360039E-03  0.641389903992E-03
  0.661431728415E-03  0.682099809267E-03  0.703413715453E-03  0.725393627355E-03  0.748060355938E-03
  0.771435362451E-03  0.795540778750E-03  0.820399428249E-03  0.846034847532E-03  0.872471308636E-03
  0.899733842030E-03  0.927848260314E-03  0.956841182660E-03  0.986740060012E-03  0.101757320108E-02
  0.104936979913E-02  0.108215995964E-02  0.111597472880E-02  0.115084612288E-02  0.118680715859E-02
  0.122389188428E-02  0.126213541224E-02  0.130157395188E-02  0.134224484406E-02  0.138418659640E-02
  0.142743891978E-02  0.147204276590E-02  0.151804036608E-02  0.156547527119E-02  0.161439239296E-02
  0.166483804643E-02  0.171685999380E-02  0.177050748970E-02  0.182583132776E-02  0.188288388872E-02
  0.194171919003E-02  0.200239293696E-02  0.206496257533E-02  0.212948734592E-02  0.219602834053E-02
  0.226464855980E-02  0.233541297287E-02  0.240838857884E-02  0.248364447025E-02  0.256125189841E-02
  0.264128434088E-02  0.272381757101E-02  0.280892972967E-02  0.289670139919E-02  0.298721567961E-02
  0.308055826737E-02  0.317681753640E-02  0.327608462172E-02  0.337845350573E-02  0.348402110710E-02
  0.359288737254E-02  0.370515537131E-02  0.382093139279E-02  0.394032504703E-02  0.406344936843E-02
  0.419042092274E-02  0.432135991728E-02  0.445639031465E-02  0.459563995005E-02  0.473924065212E-02
  0.488732836767E-02  0.504004329024E-02  0.519752999266E-02  0.535993756379E-02  0.552741974947E-02
  0.570013509785E-02  0.587824710933E-02  0.606192439106E-02  0.625134081632E-02  0.644667568884E-02
  0.664811391223E-02  0.685584616468E-02  0.707006907908E-02  0.729098542879E-02  0.751880431907E-02
  0.775374138462E-02  0.799601899308E-02  0.824586645497E-02  0.850352024011E-02  0.876922420069E-02
  0.904322980136E-02  0.932579635636E-02  0.961719127403E-02  0.991769030887E-02  0.102275778214E-01
  0.105471470461E-01  0.108767003676E-01  0.112165496050E-01  0.115670163059E-01  0.119284320486E-01
  0.123011387538E-01  0.126854890063E-01  0.130818463860E-01  0.134905858093E-01  0.139120938812E-01
  0.143467692580E-01  0.147950230206E-01  0.152572790602E-01  0.157339744748E-01  0.162255599782E-01
  0.167325003215E-01  0.172552747271E-01  0.177943773362E-01  0.183503176692E-01  0.189236211007E-01
  0.195148293481E-01  0.201245009754E-01  0.207532119118E-01  0.214015559855E-01  0.220701454738E-01
  0.227596116692E-01  0.234706054626E-01  0.242037979426E-01  0.249598810139E-01  0.257395680323E-01
  0.265435944586E-01  0.273727185319E-01  0.282277219614E-01  0.291094106381E-01  0.300186153670E-01
  0.309561926200E-01  0.319230253087E-01  0.329200235802E-01  0.339481256339E-01  0.350082985601E-01
  0.361015392022E-01  0.372288750413E-01  0.383913651041E-01  0.395901008945E-01  0.408262073491E-01
  0.421008438169E-01  0.434152050633E-01  0.447705222981E-01  0.461680642294E-01  0.476091381406E-01
  0.490950909928E-01  0.506273105521E-01  0.522072265401E-01  0.538363118098E-01  0.555160835441E-01
  0.572481044777E-01  0.590339841421E-01  0.608753801312E-01  0.627739993889E-01  0.647315995152E-01
  0.667499900910E-01  0.688310340195E-01  0.709766488824E-01  0.731888083088E-01  0.754695433540E-01
  0.778209438860E-01  0.802451599766E-01  0.827444032925E-01  0.853209484837E-01  0.879771345639E-01
  0.907153662777E-01  0.935381154496E-01  0.964479223078E-01  0.994473967758E-01  0.102539219724E+00
  0.105726144173E+00  0.109010996438E+00  0.112396677203E+00  0.115886162516E+00  0.119482504687E+00
  0.123188833080E+00  0.127008354774E+00  0.130944355091E+00  0.135000197951E+00  0.139179326050E+00
  0.143485260827E+00  0.147921602201E+00  0.152492028045E+00  0.157200293368E+00  0.162050229166E+00
  0.167045740922E+00  0.172190806688E+00  0.177489474731E+00  0.182945860675E+00  0.188564144105E+00
  0.194348564557E+00  0.200303416853E+00  0.206433045696E+00  0.212741839465E+00  0.219234223136E+00
  0.225914650223E+00  0.232787593684E+00  0.239857535657E+00  0.247128955958E+00  0.254606319203E+00
  0.262294060450E+00  0.270196569233E+00  0.278318171849E+00  0.286663111765E+00  0.295235527991E+00
  0.304039431264E+00  0.313078677880E+00  0.322356941004E+00  0.331877679291E+00  0.341644102622E+00
  0.351659134795E+00  0.361925372969E+00  0.372445043698E+00  0.383219955360E+00  0.394251446830E+00
  0.405540332228E+00  0.417086841608E+00  0.428890557474E+00  0.440950347037E+00  0.453264290164E+00
  0.465829603023E+00  0.478642557491E+00  0.491698396446E+00  0.504991245181E+00  0.518514019247E+00
  0.532258329181E+00  0.546214382699E+00  0.560370885106E+00  0.574714938854E+00  0.589231943403E+00
  0.603905496772E+00  0.618717300433E+00  0.633647069500E+00  0.648672450501E+00  0.663768949338E+00
  0.678909872439E+00  0.694066284487E+00  0.709206986479E+00  0.724298518283E+00  0.739305190214E+00
  0.754189148450E+00  0.768910479380E+00  0.783427358095E+00  0.797696246219E+00  0.811672144064E+00
  0.825308901556E+00  0.838559591593E+00  0.851376948150E+00  0.863713869646E+00  0.875523985597E+00
  0.886762281306E+00  0.897385771145E+00  0.907354205780E+00  0.916630792245E+00  0.925182898117E+00
  0.932982701978E+00  0.940007741963E+00  0.946241302505E+00  0.951672566592E+00  0.956296447395E+00
  0.960112999468E+00  0.963126296910E+00  0.965342654966E+00  0.966768064320E+00  0.967404705877E+00
  0.967246420825E+00  0.966273029454E+00  0.964433274187E+00  0.961700484870E+00  0.958043687182E+00
  0.953448253882E+00  0.947902101021E+00  0.941395881254E+00  0.933923173003E+00  0.925480666844E+00
  0.916068344042E+00  0.905689647106E+00  0.894351638945E+00
 ae wavefunction
  0.581013143449E-04  0.599167371659E-04  0.617888830471E-04  0.637195242216E-04  0.657104882907E-04
  0.677636599495E-04  0.698809827764E-04  0.720644610598E-04  0.743161617065E-04  0.766382161862E-04
  0.790328225642E-04  0.815022475620E-04  0.840488287137E-04  0.866749765768E-04  0.893831770074E-04
  0.921759935143E-04  0.950560696908E-04  0.980261317024E-04  0.101088990872E-03  0.104247546347E-03
  0.107504787832E-03  0.110863798413E-03  0.114327757490E-03  0.117899943761E-03  0.121583738344E-03
  0.125382627964E-03  0.129300208258E-03  0.133340187159E-03  0.137506388430E-03  0.141802755229E-03
  0.146233353933E-03  0.150802377851E-03  0.155514151317E-03  0.160373133683E-03  0.165383923581E-03
  0.170551263291E-03  0.175880043150E-03  0.181375306262E-03  0.187042253193E-03  0.192886246927E-03
  0.198912817940E-03  0.205127669385E-03  0.211536682530E-03  0.218145922283E-03  0.224961642924E-03
  0.231990294059E-03  0.239238526646E-03  0.246713199325E-03  0.254421384879E-03  0.262370376936E-03
  0.270567696823E-03  0.279021100692E-03  0.287738586859E-03  0.296728403326E-03  0.305999055594E-03
  0.315559314673E-03  0.325418225387E-03  0.335585114891E-03  0.346069601487E-03  0.356881603708E-03
  0.368031349657E-03  0.379529386682E-03  0.391386591315E-03  0.403614179537E-03  0.416223717368E-03
  0.429227131760E-03  0.442636721876E-03  0.456465170605E-03  0.470725556669E-03  0.485431366819E-03
  0.500596508616E-03  0.516235323526E-03  0.532362600390E-03  0.548993589469E-03  0.566144016696E-03
  0.583830098569E-03  0.602068557377E-03  0.620876636957E-03  0.640272118991E-03  0.660273339634E-03
  0.680899206869E-03  0.702169218257E-03  0.724103479274E-03  0.746722722256E-03  0.770048325886E-03
  0.794102335271E-03  0.818907482703E-03  0.844487209013E-03  0.870865685584E-03  0.898067837081E-03
  0.926119364831E-03  0.955046771002E-03  0.984877383438E-03  0.101563938133E-02  0.104736182165E-02
  0.108007466639E-02  0.111380881070E-02  0.114859611181E-02  0.118446941889E-02  0.122146260383E-02
  0.125961059297E-02  0.129894939981E-02  0.133951615865E-02  0.138134915941E-02  0.142448788339E-02
  0.146897304021E-02  0.151484660577E-02  0.156215186156E-02  0.161093343507E-02  0.166123734132E-02
  0.171311102592E-02  0.176660340918E-02  0.182176493184E-02  0.187864760193E-02  0.193730504326E-02
  0.199779254529E-02  0.206016711458E-02  0.212448752770E-02  0.219081438592E-02  0.225921017140E-02
  0.232973930523E-02  0.240246820706E-02  0.247746535673E-02  0.255480135765E-02  0.263454900211E-02
  0.271678333861E-02  0.280158174119E-02  0.288902398086E-02  0.297919229917E-02  0.307217148403E-02
  0.316804894779E-02  0.326691480767E-02  0.336886196859E-02  0.347398620851E-02  0.358238626627E-02
  0.369416393215E-02  0.380942414102E-02  0.392827506835E-02  0.405082822902E-02  0.417719857913E-02
  0.430750462074E-02  0.444186850982E-02  0.458041616720E-02  0.472327739308E-02  0.487058598463E-02
  0.502247985724E-02  0.517910116915E-02  0.534059644991E-02  0.550711673245E-02  0.567881768901E-02
  0.585585977118E-02  0.603840835367E-02  0.622663388261E-02  0.642071202781E-02  0.662082383960E-02
  0.682715591007E-02  0.703990053892E-02  0.725925590407E-02  0.748542623707E-02  0.771862200347E-02
  0.795906008839E-02  0.820696398706E-02  0.846256400093E-02  0.872609743914E-02  0.899780882560E-02
  0.927795011168E-02  0.956678089500E-02  0.986456864395E-02  0.101715889285E-01  0.104881256572E-01
  0.108144713206E-01  0.111509272409E-01  0.114978038291E-01  0.118554208479E-01  0.122241076822E-01
  0.126042036164E-01  0.129960581193E-01  0.134000311356E-01  0.138164933858E-01  0.142458266728E-01
  0.146884241969E-01  0.151446908786E-01  0.156150436887E-01  0.160999119876E-01  0.165997378717E-01
  0.171149765292E-01  0.176460966034E-01  0.181935805649E-01  0.187579250929E-01  0.193396414644E-01
  0.199392559524E-01  0.205573102336E-01  0.211943618041E-01  0.218509844046E-01  0.225277684540E-01
  0.232253214936E-01  0.239442686372E-01  0.246852530338E-01  0.254489363364E-01  0.262359991824E-01
  0.270471416785E-01  0.278830838993E-01  0.287445663912E-01  0.296323506855E-01  0.305472198214E-01
  0.314899788745E-01  0.324614554933E-01  0.334625004450E-01  0.344939881698E-01  0.355568173317E-01
  0.366519113986E-01  0.377802191940E-01  0.389427154917E-01  0.401404015838E-01  0.413743058773E-01
  0.426454844691E-01  0.439550217526E-01  0.453040309991E-01  0.466936549603E-01  0.481250664644E-01
  0.495994689941E-01  0.511180972926E-01  0.526822179489E-01  0.542931299699E-01  0.559521653734E-01
  0.576606897241E-01  0.594201027368E-01  0.612318387654E-01  0.630973673905E-01  0.650181938885E-01
  0.669958597653E-01  0.690319431776E-01  0.711280594635E-01  0.732858614799E-01  0.755070400653E-01
  0.777933243748E-01  0.801464821699E-01  0.825683201490E-01  0.850606842124E-01  0.876254595424E-01
  0.902645708336E-01  0.929799823656E-01  0.957736979628E-01  0.986477609665E-01  0.101604254134E+00
  0.104645299328E+00  0.107773057354E+00  0.110989727457E+00  0.114297546877E+00  0.117698790200E+00
  0.121195768643E+00  0.124790829246E+00  0.128486353803E+00  0.132284757798E+00  0.136188489067E+00
  0.140200026383E+00  0.144321877735E+00  0.148556578675E+00  0.152906690045E+00  0.157374796055E+00
  0.161963501408E+00  0.166675429109E+00  0.171513216966E+00  0.176479514850E+00  0.181576980773E+00
  0.186808277349E+00  0.192176067521E+00  0.197683010140E+00  0.203331755211E+00  0.209124938444E+00
  0.215065176077E+00  0.221155058470E+00  0.227397144013E+00  0.233793951962E+00  0.240347955506E+00
  0.247061573443E+00  0.253937162213E+00  0.260977006986E+00  0.268183312042E+00  0.275558191029E+00
  0.283103656298E+00  0.290821607553E+00  0.298713820386E+00  0.306781933498E+00  0.315027435637E+00
  0.323451651936E+00  0.332055729185E+00  0.340840620821E+00  0.349807070743E+00  0.358955596902E+00
  0.368286473661E+00  0.377799713787E+00  0.387495049476E+00  0.397371912762E+00  0.407429415080E+00
  0.417666326327E+00  0.428081052860E+00  0.438671615195E+00  0.449435624879E+00  0.460370260569E+00
  0.471472243884E+00  0.482737814816E+00  0.494162705515E+00  0.505742115924E+00  0.517470686530E+00
  0.529342473001E+00  0.541350918903E+00  0.553488830424E+00  0.565748349051E+00  0.578120925768E+00
  0.590597296001E+00  0.603167452957E+00  0.615820624933E+00  0.628545250357E+00  0.641328956406E+00
  0.654158536652E+00  0.667019933024E+00  0.679898216491E+00  0.692777572575E+00  0.705641287323E+00
  0.718471736808E+00  0.731250379454E+00  0.743957750865E+00  0.756573463830E+00  0.769076210373E+00
  0.781443768947E+00  0.793653016795E+00  0.805679945611E+00  0.817499683877E+00  0.829086524254E+00
  0.840413957026E+00  0.851454708954E+00  0.862180790299E+00  0.872563546945E+00  0.882573721409E+00
  0.892181519094E+00  0.901356683888E+00  0.910068580871E+00  0.918286286730E+00  0.925978688500E+00
  0.933114590020E+00  0.939662826945E+00  0.945592389127E+00  0.950872551925E+00  0.955473014163E+00
  0.959364044237E+00  0.962516633930E+00  0.964902658425E+00  0.966495042899E+00  0.967267935838E+00
  0.967196886985E+00  0.966259031101E+00  0.964433274187E+00  0.961700484870E+00  0.958043687182E+00
  0.953448253882E+00  0.947902101021E+00  0.941395881254E+00  0.933923173003E+00  0.925480666844E+00
  0.916068344042E+00  0.905689647106E+00  0.894351638945E+00
 pseudo wavefunction
  0.751002279840E-04  0.774469220727E-04  0.798669444758E-04  0.823625865196E-04  0.849362111285E-04
  0.875902550623E-04  0.903272312236E-04  0.931497310368E-04  0.960604269020E-04  0.990620747247E-04
  0.102157516526E-03  0.105349683133E-03  0.108641596953E-03  0.112036374837E-03  0.115537231030E-03
  0.119147480213E-03  0.122870540642E-03  0.126709937387E-03  0.130669305667E-03  0.134752394291E-03
  0.138963069210E-03  0.143305317176E-03  0.147783249518E-03  0.152401106033E-03  0.157163258999E-03
  0.162074217320E-03  0.167138630791E-03  0.172361294501E-03  0.177747153372E-03  0.183301306845E-03
  0.189029013705E-03  0.194935697061E-03  0.201026949478E-03  0.207308538278E-03  0.213786410996E-03
  0.220466701012E-03  0.227355733361E-03  0.234460030715E-03  0.241786319568E-03  0.249341536597E-03
  0.257132835234E-03  0.265167592437E-03  0.273453415676E-03  0.281998150135E-03  0.290809886141E-03
  0.299896966822E-03  0.309267996009E-03  0.318931846380E-03  0.328897667862E-03  0.339174896296E-03
  0.349773262367E-03  0.360702800820E-03  0.371973859962E-03  0.383597111455E-03  0.395583560427E-03
  0.407944555887E-03  0.420691801471E-03  0.433837366526E-03  0.447393697535E-03  0.461373629900E-03
  0.475790400100E-03  0.490657658218E-03  0.505989480868E-03  0.521800384524E-03  0.538105339260E-03
  0.554919782928E-03  0.572259635776E-03  0.590141315516E-03  0.608581752872E-03  0.627598407611E-03
  0.647209285072E-03  0.667432953216E-03  0.688288560204E-03  0.709795852528E-03  0.731975193707E-03
  0.754847583568E-03  0.778434678127E-03  0.802758810097E-03  0.827843010027E-03  0.853711028113E-03
  0.880387356683E-03  0.907897253384E-03  0.936266765101E-03  0.965522752614E-03  0.995692916031E-03
  0.102680582102E-02  0.105889092584E-02  0.109197860925E-02  0.112610019927E-02  0.116128800282E-02
  0.119757533634E-02  0.123499655731E-02  0.127358709678E-02  0.131338349295E-02  0.135442342572E-02
  0.139674575237E-02  0.144039054439E-02  0.148539912538E-02  0.153181411017E-02  0.157967944521E-02
  0.162904045013E-02  0.167994386068E-02  0.173243787297E-02  0.178657218908E-02  0.184239806415E-02
  0.189996835488E-02  0.195933756958E-02  0.202056191980E-02  0.208369937350E-02  0.214880970997E-02
  0.221595457643E-02  0.228519754635E-02  0.235660417968E-02  0.243024208490E-02  0.250618098303E-02
  0.258449277364E-02  0.266525160291E-02  0.274853393383E-02  0.283441861857E-02  0.292298697317E-02
  0.301432285448E-02  0.310851273955E-02  0.320564580753E-02  0.330581402403E-02  0.340911222824E-02
  0.351563822268E-02  0.362549286577E-02  0.373878016732E-02  0.385560738699E-02  0.397608513580E-02
  0.410032748085E-02  0.422845205327E-02  0.436058015957E-02  0.449683689648E-02  0.463735126931E-02
  0.478225631408E-02  0.493168922342E-02  0.508579147641E-02  0.524470897250E-02  0.540859216955E-02
  0.557759622622E-02  0.575188114883E-02  0.593161194273E-02  0.611695876847E-02  0.630809710279E-02
  0.650520790464E-02  0.670847778642E-02  0.691809919048E-02  0.713427057126E-02  0.735719658295E-02
  0.758708827309E-02  0.782416328225E-02  0.806864604981E-02  0.832076802627E-02  0.858076789211E-02
  0.884889178350E-02  0.912539352502E-02  0.941053486964E-02  0.970458574621E-02  0.100078245146E-01
  0.103205382286E-01  0.106430229078E-01  0.109755838165E-01  0.113185357528E-01  0.116722033456E-01
  0.120369213616E-01  0.124130350211E-01  0.128009003242E-01  0.132008843868E-01  0.136133657874E-01
  0.140387349240E-01  0.144773943829E-01  0.149297593181E-01  0.153962578431E-01  0.158773314347E-01
  0.163734353489E-01  0.168850390499E-01  0.174126266528E-01  0.179566973792E-01  0.185177660276E-01
  0.190963634574E-01  0.196930370889E-01  0.203083514178E-01  0.209428885461E-01  0.215972487287E-01
  0.222720509377E-01  0.229679334428E-01  0.236855544106E-01  0.244255925217E-01  0.251887476061E-01
  0.259757412995E-01  0.267873177176E-01  0.276242441526E-01  0.284873117896E-01  0.293773364458E-01
  0.302951593306E-01  0.312416478303E-01  0.322176963148E-01  0.332242269695E-01  0.342621906517E-01
  0.353325677728E-01  0.364363692060E-01  0.375746372220E-01  0.387484464515E-01  0.399589048760E-01
  0.412071548482E-01  0.424943741416E-01  0.438217770308E-01  0.451906154027E-01  0.466021799005E-01
  0.480578010988E-01  0.495588507139E-01  0.511067428465E-01  0.527029352602E-01  0.543489306952E-01
  0.560462782185E-01  0.577965746098E-01  0.596014657865E-01  0.614626482651E-01  0.633818706629E-01
  0.653609352370E-01  0.674016994648E-01  0.695060776627E-01  0.716760426471E-01  0.739136274343E-01
  0.762209269825E-01  0.786000999743E-01  0.810533706401E-01  0.835830306224E-01  0.861914408808E-01
  0.888810336368E-01  0.916543143582E-01  0.945138637823E-01  0.974623399766E-01  0.100502480436E+00
  0.103637104214E+00  0.106869114090E+00  0.110201498761E+00  0.113637335069E+00  0.117179790247E+00
  0.120832124194E+00  0.124597691759E+00  0.128479945046E+00  0.132482435721E+00  0.136608817329E+00
  0.140862847598E+00  0.145248390737E+00  0.149769419713E+00  0.154430018495E+00  0.159234384268E+00
  0.164186829582E+00  0.169291784445E+00  0.174553798341E+00  0.179977542142E+00  0.185567809913E+00
  0.191329520589E+00  0.197267719491E+00  0.203387579665E+00  0.209694403017E+00  0.216193621216E+00
  0.222890796323E+00  0.229791621126E+00  0.236901919126E+00  0.244227644144E+00  0.251774879488E+00
  0.259549836648E+00  0.267558853436E+00  0.275808391535E+00  0.284305033365E+00  0.293055478216E+00
  0.302066537544E+00  0.311345129353E+00  0.320898271570E+00  0.330733074297E+00  0.340856730834E+00
  0.351276507342E+00  0.361999731024E+00  0.373033776658E+00  0.384386051345E+00  0.396063977286E+00
  0.408074972409E+00  0.420426428650E+00  0.433125687674E+00  0.446180013796E+00  0.459596563876E+00
  0.473382353906E+00  0.487544222024E+00  0.502088787645E+00  0.517022406403E+00  0.532351120562E+00
  0.548080604554E+00  0.564216105259E+00  0.580762376663E+00  0.597723608473E+00  0.615103348293E+00
  0.632904416927E+00  0.651128816381E+00  0.669777630136E+00  0.688850915254E+00  0.708347585907E+00
  0.728265287917E+00  0.748600263931E+00  0.769347208906E+00  0.790499115597E+00  0.812047109854E+00
  0.833980275581E+00  0.856285469339E+00  0.878947124699E+00  0.901947046622E+00  0.925264196314E+00
  0.948874467257E+00  0.972750453348E+00  0.996861210430E+00  0.102117201281E+01  0.104564410679E+01
  0.107023446371E+01  0.109489553541E+01  0.111957501580E+01  0.114421561257E+01  0.116875483398E+01
  0.119312479622E+01  0.121725205764E+01  0.124105748696E+01  0.126445617314E+01  0.128735738551E+01
  0.130966459320E+01  0.133127555356E+01  0.135208247936E+01  0.137197229487E+01  0.139082699014E+01
  0.140852408242E+01  0.142493719179E+01  0.143993673606E+01  0.145339074673E+01  0.146516580336E+01
  0.147512807827E+01  0.148314447612E+01  0.148908384397E+01  0.149281821698E+01  0.149422405190E+01
  0.149318338614E+01  0.148958484370E+01  0.148332439172E+01  0.147430573249E+01  0.146244019801E+01
  0.144764599698E+01  0.142984665161E+01  0.140896845461E+01  0.138493678002E+01  0.135767109845E+01
  0.132707858311E+01  0.129304625414E+01  0.125543191107E+01  0.121408357465E+01  0.116888602410E+01
  0.111973616312E+01  0.000000000000E+00  0.000000000000E+00  0.000000000000E+00  0.000000000000E+00
  0.000000000000E+00  0.000000000000E+00  0.000000000000E+00
 ae wavefunction
  0.106329947500E-03  0.109652313188E-03  0.113078486510E-03  0.116611710791E-03  0.120255330686E-03
  0.124012795332E-03  0.127887661631E-03  0.131883597587E-03  0.136004385802E-03  0.140253927030E-03
  0.144636243903E-03  0.149155484700E-03  0.153815927290E-03  0.158621983181E-03  0.163578201685E-03
  0.168689274223E-03  0.173960038778E-03  0.179395484445E-03  0.185000756165E-03  0.190781159604E-03
  0.196742166158E-03  0.202889418110E-03  0.209228734014E-03  0.215766114143E-03  0.222507746208E-03
  0.229460011185E-03  0.236629489376E-03  0.244022966583E-03  0.251647440593E-03  0.259510127694E-03
  0.267618469674E-03  0.275980140614E-03  0.284603054385E-03  0.293495371948E-03  0.302665509160E-03
  0.312122144766E-03  0.321874228460E-03  0.331930989520E-03  0.342301945386E-03  0.352996910739E-03
  0.364026006781E-03  0.375399670728E-03  0.387128665760E-03  0.399224091134E-03  0.411697392668E-03
  0.424560373645E-03  0.437825205839E-03  0.451504441095E-03  0.465611023160E-03  0.480158299943E-03
  0.495160036056E-03  0.510630425867E-03  0.526584106915E-03  0.543036173691E-03  0.560002191923E-03
  0.577498213244E-03  0.595540790388E-03  0.614146992779E-03  0.633334422655E-03  0.653121231710E-03
  0.673526138165E-03  0.694568444495E-03  0.716268055597E-03  0.738645497594E-03  0.761721937202E-03
  0.785519201673E-03  0.810059799435E-03  0.835366941162E-03  0.861464561933E-03  0.888377343555E-03
  0.916130737944E-03  0.944750991103E-03  0.974265167758E-03  0.100470117708E-02  0.103608779874E-02
  0.106845471019E-02  0.110183251453E-02  0.113625276931E-02  0.117174801640E-02  0.120835181238E-02
  0.124609876033E-02  0.128502454229E-02  0.132516595285E-02  0.136656093379E-02  0.140924860975E-02
  0.145326932500E-02  0.149866468137E-02  0.154547757740E-02  0.159375224860E-02  0.164353430903E-02
  0.169487079409E-02  0.174781020479E-02  0.180240255321E-02  0.185869940942E-02  0.191675394991E-02
  0.197662100745E-02  0.203835712251E-02  0.210202059627E-02  0.216767154524E-02  0.223537195755E-02
  0.230518575110E-02  0.237717883329E-02  0.245141916276E-02  0.252797681294E-02  0.260692403765E-02
  0.268833533852E-02  0.277228753467E-02  0.285885983447E-02  0.294813390958E-02  0.304019397094E-02
  0.313512684756E-02  0.323302206731E-02  0.333397194044E-02  0.343807164552E-02  0.354541931811E-02
  0.365611614200E-02  0.377026644333E-02  0.388797778758E-02  0.400936107948E-02  0.413453066590E-02
  0.426360444206E-02  0.439670396072E-02  0.453395454487E-02  0.467548540375E-02  0.482142975239E-02
  0.497192493481E-02  0.512711255086E-02  0.528713858700E-02  0.545215355089E-02  0.562231261015E-02
  0.579777573527E-02  0.597870784672E-02  0.616527896665E-02  0.635766437489E-02  0.655604476990E-02
  0.676060643429E-02  0.697154140542E-02  0.718904765102E-02  0.741332925006E-02  0.764459657897E-02
  0.788306650339E-02  0.812896257563E-02  0.838251523781E-02  0.864396203124E-02  0.891354781178E-02
  0.919152497151E-02  0.947815366701E-02  0.977370205421E-02  0.100784465302E-01  0.103926719819E-01
  0.107166720421E-01  0.110507493531E-01  0.113952158372E-01  0.117503929761E-01  0.121166120974E-01
  0.124942146696E-01  0.128835526058E-01  0.132849885758E-01  0.136988963267E-01  0.141256610131E-01
  0.145656795368E-01  0.150193608951E-01  0.154871265395E-01  0.159694107445E-01  0.164666609863E-01
  0.169793383318E-01  0.175079178389E-01  0.180528889670E-01  0.186147559995E-01  0.191940384769E-01
  0.197912716418E-01  0.204070068966E-01  0.210418122722E-01  0.216962729098E-01  0.223709915551E-01
  0.230665890657E-01  0.237837049314E-01  0.245229978077E-01  0.252851460634E-01  0.260708483418E-01
  0.268808241360E-01  0.277158143787E-01  0.285765820459E-01  0.294639127764E-01  0.303786155052E-01
  0.313215231129E-01  0.322934930901E-01  0.332954082164E-01  0.343281772570E-01  0.353927356733E-01
  0.364900463502E-01  0.376211003396E-01  0.387869176192E-01  0.399885478684E-01  0.412270712593E-01
  0.425035992665E-01  0.438192754875E-01  0.451752764868E-01  0.465728126490E-01  0.480131290551E-01
  0.494975063637E-01  0.510272617206E-01  0.526037496734E-01  0.542283631063E-01  0.559025341896E-01
  0.576277353405E-01  0.594054801961E-01  0.612373246050E-01  0.631248676312E-01  0.650697525521E-01
  0.670736679094E-01  0.691383485053E-01  0.712655764789E-01  0.734571823289E-01  0.757150459909E-01
  0.780410978707E-01  0.804373199360E-01  0.829057467582E-01  0.854484665921E-01  0.880676224407E-01
  0.907654130862E-01  0.935440941668E-01  0.964059792156E-01  0.993534406698E-01  0.102388910916E+00
  0.105514883229E+00  0.108733912823E+00  0.112048617698E+00  0.115461679656E+00  0.118975845096E+00
  0.122593925921E+00  0.126318800236E+00  0.130153413230E+00  0.134100777712E+00  0.138163974850E+00
  0.142346154683E+00  0.146650536527E+00  0.151080409452E+00  0.155639132627E+00  0.160330135323E+00
  0.165156917123E+00  0.170123047900E+00  0.175232167565E+00  0.180487985756E+00  0.185894281437E+00
  0.191454902021E+00  0.197173762826E+00  0.203054845825E+00  0.209102198465E+00  0.215319932166E+00
  0.221712220537E+00  0.228283297465E+00  0.235037454673E+00  0.241979039227E+00  0.249112450514E+00
  0.256442136998E+00  0.263972592385E+00  0.271708351825E+00  0.279653986935E+00  0.287814101360E+00
  0.296193324533E+00  0.304796306584E+00  0.313627710758E+00  0.322692207130E+00  0.331994464016E+00
  0.341539139991E+00  0.351330874403E+00  0.361374277475E+00  0.371673919653E+00  0.382234319480E+00
  0.393059931809E+00  0.404155133537E+00  0.415524209705E+00  0.427171337395E+00  0.439100569784E+00
  0.451315817376E+00  0.463820829574E+00  0.476619174200E+00  0.489714215357E+00  0.503109090678E+00
  0.516806686480E+00  0.530809611196E+00  0.545120168129E+00  0.559740325255E+00  0.574671683966E+00
  0.589915446086E+00  0.605472378290E+00  0.621342775296E+00  0.637526420157E+00  0.654022543319E+00
  0.670829778555E+00  0.687946117289E+00  0.705368860153E+00  0.723094566336E+00  0.741119000235E+00
  0.759437075969E+00  0.778042798638E+00  0.796929203636E+00  0.816088292970E+00  0.835510968560E+00
  0.855186963442E+00  0.875104770396E+00  0.895251565733E+00  0.915613134465E+00  0.936173788144E+00
  0.956916283932E+00  0.977821737871E+00  0.998869539391E+00  0.102003725958E+01  0.104130055961E+01
  0.106263309773E+01  0.108400643066E+01  0.110538991914E+01  0.112675062646E+01  0.114805322047E+01
  0.116925987066E+01  0.119033014998E+01  0.121122093124E+01  0.123188628907E+01  0.125227739974E+01
  0.127234244432E+01  0.129202651415E+01  0.131127151808E+01  0.133001609671E+01  0.134819553807E+01
  0.136574170088E+01  0.138258294566E+01  0.139864407108E+01  0.141384626207E+01  0.142810704760E+01
  0.144134027076E+01  0.145345607108E+01  0.146436088503E+01  0.147395746070E+01  0.148214489478E+01
  0.148881868737E+01  0.149387082350E+01  0.149718987981E+01  0.149866115989E+01  0.149816686218E+01
  0.149558628224E+01  0.149079605449E+01  0.148367043500E+01  0.147408163206E+01  0.146190018542E+01
  0.144699540142E+01  0.142923584870E+01  0.140848991784E+01  0.138462645170E+01  0.135751545337E+01
  0.132702887546E+01  0.129304149987E+01  0.125543191107E+01  0.121408357465E+01  0.116888602410E+01
  0.111973616312E+01  0.000000000000E+00  0.000000000000E+00  0.000000000000E+00  0.000000000000E+00
  0.000000000000E+00  0.000000000000E+00  0.000000000000E+00
 pseudo wavefunction
  0.118327813132E-08  0.125838244909E-08  0.133825374294E-08  0.142319457951E-08  0.151352672977E-08
  0.160959238792E-08  0.171175546774E-08  0.182040298110E-08  0.193594650407E-08  0.205882373603E-08
  0.218950015773E-08  0.232847079466E-08  0.247626209225E-08  0.263343391018E-08  0.280058164318E-08
  0.297833847653E-08  0.316737778468E-08  0.336841568206E-08  0.358221373592E-08  0.380958185123E-08
  0.405138133876E-08  0.430852817789E-08  0.458199648649E-08  0.487282221103E-08  0.518210705099E-08
  0.551102263223E-08  0.586081494534E-08  0.623280906568E-08  0.662841417300E-08  0.704912888965E-08
  0.749654695765E-08  0.797236327603E-08  0.847838032146E-08  0.901651497629E-08  0.958880579009E-08
  0.101974207020E-07  0.108446652534E-07  0.115329913214E-07  0.122650064073E-07  0.130434835141E-07
  0.138713716514E-07  0.147518070061E-07  0.156881248237E-07  0.166838720422E-07  0.177428207287E-07
  0.188689823687E-07  0.200666230623E-07  0.213402796849E-07  0.226947770737E-07  0.241352463052E-07
  0.256671441322E-07  0.272962736555E-07  0.290288063066E-07  0.308713052266E-07  0.328307501280E-07
  0.349145637357E-07  0.371306399052E-07  0.394873735258E-07  0.419936923225E-07  0.446590906752E-07
  0.474936655853E-07  0.505081549252E-07  0.537139781147E-07  0.571232793803E-07  0.607489737593E-07
  0.646047960246E-07  0.687053527141E-07  0.730661774629E-07  0.777037898478E-07  0.826357579658E-07
  0.878807649855E-07  0.934586799223E-07  0.993906329055E-07  0.105699095223E-06  0.112407964446E-06
  0.119542654959E-06  0.127130194232E-06  0.135199325205E-06  0.143780615174E-06  0.152906571581E-06
  0.162611765163E-06  0.172932960908E-06  0.183909257328E-06  0.195582234573E-06  0.207996111941E-06
  0.221197915390E-06  0.235237655681E-06  0.250168517826E-06  0.266047062561E-06  0.282933440613E-06
  0.300891620554E-06  0.319989631132E-06  0.340299818970E-06  0.361899122630E-06  0.384869364070E-06
  0.409297558598E-06  0.435276244501E-06  0.462903833597E-06  0.492284984034E-06  0.523530996752E-06
  0.556760237114E-06  0.592098583288E-06  0.629679903099E-06  0.669646561139E-06  0.712149958071E-06
  0.757351104157E-06  0.805421229191E-06  0.856542431149E-06  0.910908365999E-06  0.968724981308E-06
  0.103021129640E-05  0.109560023203E-05  0.116513949275E-05  0.123909250522E-05  0.131773941611E-05
  0.140137815338E-05  0.149032555482E-05  0.158491856832E-05  0.168551552827E-05  0.179249751297E-05
  0.190626978821E-05  0.202726334249E-05  0.215593651965E-05  0.229277675516E-05  0.243830242256E-05
  0.259306479715E-05  0.275765014428E-05  0.293268194023E-05  0.311882323394E-05  0.331677915882E-05
  0.352729960377E-05  0.375118205394E-05  0.398927461162E-05  0.424247920898E-05  0.451175502465E-05
  0.479812211718E-05  0.510266528916E-05  0.542653819646E-05  0.577096771844E-05  0.613725860540E-05
  0.652679842111E-05  0.694106279892E-05  0.738162103157E-05  0.785014201573E-05  0.834840057382E-05
  0.887828417707E-05  0.944180009531E-05  0.100410830005E-04  0.106784030528E-04  0.113561745000E-04
  0.120769648224E-04  0.128435044586E-04  0.136586971481E-04  0.145256309301E-04  0.154475898413E-04
  0.164280663552E-04  0.174707746109E-04  0.185796644821E-04  0.197589365384E-04  0.210130579560E-04
  0.223467794389E-04  0.237651532131E-04  0.252735521630E-04  0.268776901827E-04  0.285836438179E-04
  0.303978752822E-04  0.323272569329E-04  0.343790973011E-04  0.365611687725E-04  0.388817370257E-04
  0.413495923379E-04  0.439740828772E-04  0.467651501075E-04  0.497333664398E-04  0.528899752727E-04
  0.562469335732E-04  0.598169571591E-04  0.636135688548E-04  0.676511497021E-04  0.719449934200E-04
  0.765113643192E-04  0.813675588912E-04  0.865319713044E-04  0.920241630544E-04  0.978649370331E-04
  0.104076416295E-03  0.110682127823E-03  0.117707091599E-03  0.125177915334E-03  0.133122895200E-03
  0.141572122947E-03  0.150557599820E-03  0.160113357695E-03  0.170275587895E-03  0.181082778173E-03
  0.192575858386E-03  0.204798355389E-03  0.217796557764E-03  0.231619690975E-03  0.246320103636E-03
  0.261953465570E-03  0.278578978429E-03  0.296259599650E-03  0.315062280603E-03  0.335058219818E-03
  0.356323132255E-03  0.378937535623E-03  0.402987054822E-03  0.428562745666E-03  0.455761439090E-03
  0.484686107136E-03  0.515446252101E-03  0.548158320297E-03  0.582946141982E-03  0.619941399101E-03
  0.659284122599E-03  0.701123221161E-03  0.745617043359E-03  0.792933975297E-03  0.843253076002E-03
  0.896764752916E-03  0.953671480001E-03  0.101418856116E-02  0.107854494174E-02  0.114698407128E-02
  0.121976482045E-02  0.129716245587E-02  0.137946967621E-02  0.146699771341E-02  0.156007750323E-02
  0.165906092922E-02  0.176432214488E-02  0.187625897867E-02  0.199529442718E-02  0.212187824179E-02
  0.225648861458E-02  0.239963396977E-02  0.255185486695E-02  0.271372602313E-02  0.288585846082E-02
  0.306890178989E-02  0.326354663125E-02  0.347052719110E-02  0.369062399481E-02  0.392466679009E-02
  0.417353762962E-02  0.443817414395E-02  0.471957301603E-02  0.501879366933E-02  0.533696218230E-02
  0.567527544247E-02  0.603500555427E-02  0.641750451538E-02  0.682420917723E-02  0.725664650606E-02
  0.771643916171E-02  0.820531141230E-02  0.872509540374E-02  0.927773780395E-02  0.986530684262E-02
  0.104899997682E-01  0.111541507450E-01  0.118602392138E-01  0.126108987407E-01  0.134089263801E-01
  0.142572925781E-01  0.151591516438E-01  0.161178528164E-01  0.171369519591E-01  0.182202239074E-01
  0.193716755044E-01  0.205955593537E-01  0.218963883218E-01  0.232789508226E-01  0.247483269158E-01
  0.263099052532E-01  0.279694009027E-01  0.297328740839E-01  0.316067498460E-01  0.335978387164E-01
  0.357133583497E-01  0.379609562036E-01  0.403487332639E-01  0.428852688407E-01  0.455796464527E-01
  0.484414808110E-01  0.514809459116E-01  0.547088042361E-01  0.581364370557E-01  0.617758758255E-01
  0.656398346448E-01  0.697417437521E-01  0.740957840104E-01  0.787169223245E-01  0.836209479227E-01
  0.888245094151E-01  0.943451525289E-01  0.100201358401E+00  0.106412582293E+00  0.112999292571E+00
  0.119983009784E+00  0.127386345635E+00  0.135233041653E+00  0.143548007321E+00  0.152357357433E+00
  0.161688448430E+00  0.171569913443E+00  0.182031695815E+00  0.193105080837E+00  0.204822725487E+00
  0.217218685991E+00  0.230328443055E+00  0.244188924746E+00  0.258838527022E+00  0.274317132128E+00
  0.290666125161E+00  0.307928409376E+00  0.326148421018E+00  0.345372144785E+00  0.365647131381E+00
  0.387022519055E+00  0.409549061477E+00  0.433279164885E+00  0.458266938014E+00  0.484568259012E+00
  0.512240864216E+00  0.541344464400E+00  0.571940894800E+00  0.604094305836E+00  0.637871401978E+00
  0.673341736465E+00  0.710578069529E+00  0.749656797302E+00  0.790658457353E+00  0.833668314849E+00
  0.878777030158E+00  0.926081404196E+00  0.975685191588E+00  0.102769996336E+01  0.108224599010E+01
  0.113945310298E+01  0.119946147334E+01  0.126242223145E+01  0.132849782195E+01  0.139786196669E+01
  0.147069907700E+01  0.154720292676E+01  0.162757436790E+01  0.171201784271E+01  0.180073642719E+01
  0.189392513081E+01  0.199176218669E+01  0.209439843751E+01  0.220199046886E+01  0.231476530812E+01
  0.243297201266E+01  0.000000000000E+00  0.000000000000E+00  0.000000000000E+00  0.000000000000E+00
  0.000000000000E+00  0.000000000000E+00  0.000000000000E+00
 ae wavefunction
  0.156129193110E-08  0.167471969820E-08  0.179374313658E-08  0.191874928226E-08  0.205014431376E-08
  0.218835752479E-08  0.233383899029E-08  0.248706852523E-08  0.264855047021E-08  0.281882172533E-08
  0.299844420032E-08  0.318801835329E-08  0.338817819307E-08  0.359959350817E-08  0.382297633410E-08
  0.405908139977E-08  0.430870465052E-08  0.457269481425E-08  0.485195220172E-08  0.514742673695E-08
  0.546012710894E-08  0.579112972789E-08  0.614156739323E-08  0.651265230789E-08  0.690566372839E-08
  0.732196401425E-08  0.776299217947E-08  0.823028688741E-08  0.872546972858E-08  0.925028356912E-08
  0.980654150301E-08  0.103962155119E-07  0.110213600048E-07  0.116841845903E-07  0.123870319376E-07
  0.131323666810E-07  0.139228438409E-07  0.147612524651E-07  0.156505764128E-07  0.165939817838E-07
  0.175948183015E-07  0.186566669596E-07  0.197833164151E-07  0.209788007610E-07  0.222474146697E-07
  0.235936948046E-07  0.250224908914E-07  0.265389446593E-07  0.281485253022E-07  0.298570325914E-07
  0.316706501238E-07  0.335959429357E-07  0.356398799915E-07  0.378098787849E-07  0.401138174555E-07
  0.425600778971E-07  0.451575610818E-07  0.479157327820E-07  0.508446575767E-07  0.539550226940E-07
  0.572582050135E-07  0.607662866454E-07  0.644921186936E-07  0.684493597679E-07  0.726525273084E-07
  0.771170589717E-07  0.818593507297E-07  0.868968890434E-07  0.922481860298E-07  0.979329662648E-07
  0.103972192543E-06  0.110388142873E-06  0.117204541670E-06  0.124446549927E-06  0.132140968020E-06
  0.140316262851E-06  0.149002713907E-06  0.158232524253E-06  0.168039887055E-06  0.178461212952E-06
  0.189535179929E-06  0.201302922335E-06  0.213808184301E-06  0.227097465336E-06  0.241220201736E-06
  0.256228974055E-06  0.272179676165E-06  0.289131738503E-06  0.307148356643E-06  0.326296720431E-06
  0.346648285410E-06  0.368279007957E-06  0.391269666362E-06  0.415706146819E-06  0.441679779253E-06
  0.469287668582E-06  0.498633066359E-06  0.529825763445E-06  0.562982504910E-06  0.598227425721E-06
  0.635692520777E-06  0.675518141408E-06  0.717853530627E-06  0.762857388480E-06  0.810698445133E-06
  0.861556139184E-06  0.915621278975E-06  0.973096754285E-06  0.103419825977E-05  0.109915522188E-05
  0.116821154660E-05  0.124162664411E-05  0.131967631281E-05  0.140265385638E-05  0.149087112126E-05
  0.158465974213E-05  0.168437234718E-05  0.179038391549E-05  0.190309317628E-05  0.202292413440E-05
  0.215032763217E-05  0.228578311155E-05  0.242980035774E-05  0.258292147382E-05  0.274572291404E-05
  0.291881763557E-05  0.310285744938E-05  0.329853545929E-05  0.350658868643E-05  0.372780084523E-05
  0.396300530717E-05  0.421308824295E-05  0.447899197448E-05  0.476171850601E-05  0.506233334431E-05
  0.538196949575E-05  0.572183174711E-05  0.608320120898E-05  0.646744015127E-05  0.687599714616E-05
  0.731041252893E-05  0.777232420701E-05  0.826347384528E-05  0.878571343987E-05  0.934101228733E-05
  0.993146439367E-05  0.105592964272E-04  0.112268760757E-04  0.119367209440E-04  0.126915081297E-04
  0.134940842165E-04  0.143474760727E-04  0.152549022137E-04  0.162197849362E-04  0.172457632522E-04
  0.183367065298E-04  0.194967291111E-04  0.207302057797E-04  0.220417882595E-04  0.234364226952E-04
  0.249193682707E-04  0.264962170353E-04  0.281729148931E-04  0.299557839892E-04  0.318515465048E-04
  0.338673499058E-04  0.360107938188E-04  0.382899586077E-04  0.407134357207E-04  0.432903599758E-04
  0.460304438587E-04  0.489440140060E-04  0.520420499664E-04  0.553362254012E-04  0.588389518893E-04
  0.625634254771E-04  0.665236761707E-04  0.707346205138E-04  0.752121175117E-04  0.799730279837E-04
  0.850352778242E-04  0.904179249792E-04  0.961412308489E-04  0.102226736082E-03  0.108697341112E-03
  0.115577391737E-03  0.122892770144E-03  0.130670991590E-03  0.138941307051E-03  0.147734812453E-03
  0.157084564634E-03  0.167025704620E-03  0.177595588540E-03  0.188833926777E-03  0.200782931826E-03
  0.213487475331E-03  0.226995254949E-03  0.241356971616E-03  0.256626517870E-03  0.272861177927E-03
  0.290121840160E-03  0.308473222832E-03  0.327984113873E-03  0.348727625559E-03  0.370781465007E-03
  0.394228221438E-03  0.419155671211E-03  0.445657101928E-03  0.473831656458E-03  0.503784698193E-03
  0.535628199174E-03  0.569481151767E-03  0.605470006212E-03  0.643729134743E-03  0.684401324594E-03
  0.727638301181E-03  0.773601283502E-03  0.822461573726E-03  0.874401182845E-03  0.929613494760E-03
  0.988303970860E-03  0.105069089806E-02  0.111700618206E-02  0.118749618936E-02  0.126242264053E-02
  0.134206355724E-02  0.142671426831E-02  0.151668847463E-02  0.161231938096E-02  0.171396089420E-02
  0.182198889551E-02  0.193680258768E-02  0.205882592581E-02  0.218850913101E-02  0.232633029797E-02
  0.247279709658E-02  0.262844857576E-02  0.279385707599E-02  0.296963025469E-02  0.315641323123E-02
  0.335489086061E-02  0.356579014125E-02  0.378988276394E-02  0.402798781109E-02  0.428097461611E-02
  0.454976578681E-02  0.483534040945E-02  0.513873743598E-02  0.546105926992E-02  0.580347555949E-02
  0.616722720804E-02  0.655363061962E-02  0.696408218089E-02  0.740006300714E-02  0.786314395198E-02
  0.835499090638E-02  0.887737038987E-02  0.943215547103E-02  0.100213319958E-01  0.106470051965E-01
  0.113114066244E-01  0.120169015238E-01  0.127659965432E-01  0.135613479394E-01  0.144057701645E-01
  0.153022449693E-01  0.162539309664E-01  0.172641737190E-01  0.183365163721E-01  0.194747108158E-01
  0.206827294967E-01  0.219647777721E-01  0.233253069736E-01  0.247690280862E-01  0.263009261950E-01
  0.279262755752E-01  0.296506556303E-01  0.314799675852E-01  0.334204519851E-01  0.354787071067E-01
  0.376617082253E-01  0.399768277987E-01  0.424318566793E-01  0.450350262414E-01  0.477950315890E-01
  0.507210558482E-01  0.538227955120E-01  0.571104869927E-01  0.605949342810E-01  0.642875379032E-01
  0.682003250481E-01  0.723459810417E-01  0.767378821101E-01  0.813901295144E-01  0.863175850601E-01
  0.915359080696E-01  0.970615937396E-01  0.102912013062E+00  0.109105454230E+00  0.115661165538E+00
  0.122599399952E+00  0.129941461278E+00  0.137709751696E+00  0.145927821472E+00  0.154620419709E+00
  0.163813547346E+00  0.173534511342E+00  0.183811981229E+00  0.194676046741E+00  0.206158277610E+00
  0.218291785302E+00  0.231111285812E+00  0.244653165461E+00  0.258955547394E+00  0.274058360952E+00
  0.290003412020E+00  0.306834456562E+00  0.324597274865E+00  0.343339749134E+00  0.363111942441E+00
  0.383966180451E+00  0.405957135504E+00  0.429141912959E+00  0.453580141175E+00  0.479334063520E+00
  0.506468634141E+00  0.535051617718E+00  0.565153692202E+00  0.596848556805E+00  0.630213044573E+00
  0.665327240551E+00  0.702274605488E+00  0.741142107651E+00  0.782020361249E+00  0.825003775130E+00
  0.870190709861E+00  0.917683647717E+00  0.967589375296E+00  0.102001918070E+01  0.107508906802E+01
  0.113291999068E+01  0.119363810728E+01  0.125737506164E+01  0.132426829259E+01  0.139446137480E+01
  0.146810439728E+01  0.154535438475E+01  0.162637576604E+01  0.171134089743E+01  0.180043064949E+01
  0.189383506419E+01  0.199175409507E+01  0.209439843751E+01  0.220199046886E+01  0.231476530812E+01
  0.243297201266E+01  0.000000000000E+00  0.000000000000E+00  0.000000000000E+00  0.000000000000E+00
  0.000000000000E+00  0.000000000000E+00  0.000000000000E+00
 End of Dataset
  PAW_PBE F 08Apr2002                    
   7.00000000000000     
 parameters from PSCTR are:
   VRHFIN =F: s2p5
   LEXCH  = PE
   EATOM  =   659.6475 eV,   48.4827 Ry

   TITEL  = PAW_PBE F 08Apr2002
   LULTRA =        F    use ultrasoft PP ?
   IUNSCR =        1    unscreen: 0-lin 1-nonlin 2-no
   RPACOR =    1.200    partial core radius
   POMASS =   18.998; ZVAL   =    7.000    mass and valenz
   RCORE  =    1.520    outmost cutoff radius
   RWIGS  =    1.500; RWIGS  =    0.794    wigner-seitz radius (au A)
   ENMAX  =  400.000; ENMIN  =  300.000 eV
   ICORE  =        2    local potential
   LCOR   =        T    correct aug charges
   LPAW   =        T    paw PP
   EAUG   =  613.614
   RMAX   =    1.555    core radius for proj-oper
   RAUG   =    1.300    factor for augmentation sphere
   RDEP   =    1.539    radius for radial grids
   RDEPT  =    1.299    core radius for aug-charge
 
   Atomic configuration
    4 entries
     n  l   j            E        occ.
     1  0  0.50      -663.3661   2.0000
     2  0  0.50       -29.8995   2.0000
     2  1  0.50       -11.1114   5.0000
     3  2  1.50       -10.8847   0.0000
   Description
     l       E           TYP  RCUT    TYP  RCUT
     0    -29.8995018     23  1.200
     0     -9.5240782     23  1.200
     1    -11.1113914     23  1.520
     1      1.3605826     23  1.520
     2    -10.8846608      7  1.500
   Error from kinetic energy argument (eV)
   NDATA  =      100
   STEP   =   20.000   1.050
  215.      212.      211.      207.      206.      202.      199.      197.
  193.      189.      187.      183.      179.      175.      170.      166.
  161.      157.      152.      146.      141.      137.      130.      126.
  121.      115.      108.      104.      98.0      92.1      86.3      80.7
  75.3      70.2      65.2      60.5      54.6      50.3      45.1      41.4
  36.8      32.6      28.7      25.2      22.0      19.1      16.6      13.7
  11.7      9.58      7.75      6.49      5.16      4.05      2.99      2.29
  1.73      1.21     0.832     0.558     0.367     0.236     0.151     0.907E-01
 0.615E-01 0.435E-01 0.353E-01 0.317E-01 0.295E-01 0.276E-01 0.247E-01 0.211E-01
 0.173E-01 0.135E-01 0.997E-02 0.755E-02 0.567E-02 0.452E-02 0.381E-02 0.343E-02
 0.308E-02 0.270E-02 0.227E-02 0.177E-02 0.134E-02 0.102E-02 0.833E-03 0.740E-03
 0.706E-03 0.671E-03 0.599E-03 0.499E-03 0.373E-03 0.276E-03 0.214E-03 0.191E-03
 0.189E-03 0.185E-03 0.165E-03 0.134E-03
END of PSCTR-controll parameters
 local part
   122.832189257630     
  0.25090202E+02  0.25090478E+02  0.25086782E+02  0.25080622E+02  0.25072000E+02
  0.25060915E+02  0.25047367E+02  0.25031354E+02  0.25012870E+02  0.24991910E+02
  0.24968463E+02  0.24942515E+02  0.24914050E+02  0.24883048E+02  0.24849487E+02
  0.24813339E+02  0.24774576E+02  0.24733168E+02  0.24689080E+02  0.24642276E+02
  0.24592717E+02  0.24540362E+02  0.24485165E+02  0.24427080E+02  0.24366054E+02
  0.24302033E+02  0.24234960E+02  0.24164772E+02  0.24091405E+02  0.24014790E+02
  0.23934857E+02  0.23851531E+02  0.23764737E+02  0.23674396E+02  0.23580428E+02
  0.23482751E+02  0.23381282E+02  0.23275937E+02  0.23166632E+02  0.23053282E+02
  0.22935804E+02  0.22814114E+02  0.22688130E+02  0.22557775E+02  0.22422970E+02
  0.22283642E+02  0.22139723E+02  0.21991149E+02  0.21837859E+02  0.21679801E+02
  0.21516929E+02  0.21349202E+02  0.21176589E+02  0.20999068E+02  0.20816623E+02
  0.20629250E+02  0.20436954E+02  0.20239753E+02  0.20037672E+02  0.19830751E+02
  0.19619042E+02  0.19402607E+02  0.19181522E+02  0.18955876E+02  0.18725772E+02
  0.18491324E+02  0.18252660E+02  0.18009923E+02  0.17763266E+02  0.17512858E+02
  0.17258879E+02  0.17001522E+02  0.16740993E+02  0.16477510E+02  0.16211302E+02
  0.15942607E+02  0.15671677E+02  0.15398771E+02  0.15124158E+02  0.14848114E+02
  0.14570924E+02  0.14292879E+02  0.14014274E+02  0.13735411E+02  0.13456594E+02
  0.13178130E+02  0.12900329E+02  0.12623499E+02  0.12347950E+02  0.12073988E+02
  0.11801919E+02  0.11532042E+02  0.11264654E+02  0.11000045E+02  0.10738497E+02
  0.10480285E+02  0.10225675E+02  0.99749224E+01  0.97282726E+01  0.94859588E+01
  0.92482015E+01  0.90152082E+01  0.87871720E+01  0.85642717E+01  0.83466706E+01
  0.81345163E+01  0.79279402E+01  0.77270571E+01  0.75319649E+01  0.73427448E+01
  0.71594605E+01  0.69821585E+01  0.68108684E+01  0.66456025E+01  0.64863563E+01
  0.63331086E+01  0.61858221E+01  0.60444435E+01  0.59089040E+01  0.57791201E+01
  0.56549941E+01  0.55364146E+01  0.54232573E+01  0.53153860E+01  0.52126533E+01
  0.51149011E+01  0.50219623E+01  0.49336607E+01  0.48498131E+01  0.47702292E+01
  0.46947132E+01  0.46230649E+01  0.45550801E+01  0.44905522E+01  0.44292730E+01
  0.43710335E+01  0.43156253E+01  0.42628409E+01  0.42124753E+01  0.41643264E+01
  0.41181961E+01  0.40738910E+01  0.40312231E+01  0.39900106E+01  0.39500785E+01
  0.39112594E+01  0.38733936E+01  0.38363302E+01  0.37999268E+01  0.37640507E+01
  0.37285785E+01  0.36933967E+01  0.36584017E+01  0.36235001E+01  0.35886087E+01
  0.35536544E+01  0.35185741E+01  0.34833148E+01  0.34478330E+01  0.34120950E+01
  0.33760763E+01  0.33397613E+01  0.33031428E+01  0.32662221E+01  0.32290078E+01
  0.31915159E+01  0.31537690E+01  0.31157960E+01  0.30776312E+01  0.30393140E+01
  0.30008882E+01  0.29624013E+01  0.29239041E+01  0.28854502E+01  0.28470948E+01
  0.28088949E+01  0.27709082E+01  0.27331928E+01  0.26958063E+01  0.26588058E+01
  0.26222470E+01  0.25861838E+01  0.25506681E+01  0.25157490E+01  0.24814729E+01
  0.24478825E+01  0.24150172E+01  0.23829127E+01  0.23516002E+01  0.23211069E+01
  0.22914557E+01  0.22626647E+01  0.22347478E+01  0.22077139E+01  0.21815677E+01
  0.21563092E+01  0.21319340E+01  0.21084332E+01  0.20857940E+01  0.20639994E+01
  0.20430287E+01  0.20228577E+01  0.20034587E+01  0.19848013E+01  0.19668520E+01
  0.19495750E+01  0.19329326E+01  0.19168850E+01  0.19013910E+01  0.18864085E+01
  0.18718943E+01  0.18578049E+01  0.18440967E+01  0.18307263E+01  0.18176507E+01
  0.18048279E+01  0.17922167E+01  0.17797776E+01  0.17674725E+01  0.17552652E+01
  0.17431217E+01  0.17310101E+01  0.17189011E+01  0.17067677E+01  0.16945858E+01
  0.16823342E+01  0.16699942E+01  0.16575505E+01  0.16449904E+01  0.16323041E+01
  0.16194850E+01  0.16065292E+01  0.15934356E+01  0.15802058E+01  0.15668441E+01
  0.15533571E+01  0.15397538E+01  0.15260454E+01  0.15122451E+01  0.14983678E+01
  0.14844302E+01  0.14704503E+01  0.14564472E+01  0.14424412E+01  0.14284533E+01
  0.14145048E+01  0.14006178E+01  0.13868141E+01  0.13731156E+01  0.13595440E+01
  0.13461203E+01  0.13328649E+01  0.13197974E+01  0.13069365E+01  0.12942994E+01
  0.12819023E+01  0.12697598E+01  0.12578851E+01  0.12462897E+01  0.12349834E+01
  0.12239743E+01  0.12132685E+01  0.12028704E+01  0.11927826E+01  0.11830059E+01
  0.11735390E+01  0.11643791E+01  0.11555216E+01  0.11469602E+01  0.11386871E+01
  0.11306929E+01  0.11229669E+01  0.11154971E+01  0.11082703E+01  0.11012722E+01
  0.10944879E+01  0.10879013E+01  0.10814960E+01  0.10752551E+01  0.10691613E+01
  0.10631972E+01  0.10573452E+01  0.10515880E+01  0.10459085E+01  0.10402900E+01
  0.10347161E+01  0.10291713E+01  0.10236408E+01  0.10181106E+01  0.10125675E+01
  0.10069995E+01  0.10013958E+01  0.99574650E+00  0.99004312E+00  0.98427836E+00
  0.97844624E+00  0.97254208E+00  0.96656252E+00  0.96050550E+00  0.95437025E+00
  0.94815729E+00  0.94186833E+00  0.93550629E+00  0.92907520E+00  0.92258015E+00
  0.91602724E+00  0.90942345E+00  0.90277659E+00  0.89609521E+00  0.88938849E+00
  0.88266614E+00  0.87593829E+00  0.86921542E+00  0.86250823E+00  0.85582751E+00
  0.84918409E+00  0.84258871E+00  0.83605192E+00  0.82958400E+00  0.82319486E+00
  0.81689394E+00  0.81069016E+00  0.80459183E+00  0.79860658E+00  0.79274129E+00
  0.78700207E+00  0.78139418E+00  0.77592203E+00  0.77058911E+00  0.76539802E+00
  0.76035042E+00  0.75544705E+00  0.75068774E+00  0.74607138E+00  0.74159601E+00
  0.73725881E+00  0.73305613E+00  0.72898355E+00  0.72503591E+00  0.72120741E+00
  0.71749159E+00  0.71388149E+00  0.71036963E+00  0.70694816E+00  0.70360887E+00
  0.70034329E+00  0.69714279E+00  0.69399861E+00  0.69090196E+00  0.68784411E+00
  0.68481644E+00  0.68181050E+00  0.67881812E+00  0.67583143E+00  0.67284296E+00
  0.66984566E+00  0.66683299E+00  0.66379894E+00  0.66073806E+00  0.65764555E+00
  0.65451722E+00  0.65134956E+00  0.64813974E+00  0.64488561E+00  0.64158573E+00
  0.63823935E+00  0.63484639E+00  0.63140746E+00  0.62792381E+00  0.62439732E+00
  0.62083048E+00  0.61722632E+00  0.61358840E+00  0.60992076E+00  0.60622788E+00
  0.60251461E+00  0.59878612E+00  0.59504788E+00  0.59130556E+00  0.58756498E+00
  0.58383209E+00  0.58011287E+00  0.57641330E+00  0.57273929E+00  0.56909663E+00
  0.56549095E+00  0.56192764E+00  0.55841184E+00  0.55494838E+00  0.55154171E+00
  0.54819592E+00  0.54491467E+00  0.54170116E+00  0.53855815E+00  0.53548788E+00
  0.53249208E+00  0.52957201E+00  0.52672837E+00  0.52396137E+00  0.52127069E+00
  0.51865552E+00  0.51611456E+00  0.51364602E+00  0.51124768E+00  0.50891690E+00
  0.50665063E+00  0.50444546E+00  0.50229766E+00  0.50020322E+00  0.49815785E+00
  0.49615709E+00  0.49419628E+00  0.49227065E+00  0.49037537E+00  0.48850553E+00
  0.48665627E+00  0.48482274E+00  0.48300021E+00  0.48118405E+00  0.47936984E+00
  0.47755332E+00  0.47573050E+00  0.47389765E+00  0.47205133E+00  0.47018842E+00
  0.46830617E+00  0.46640216E+00  0.46447436E+00  0.46252113E+00  0.46054122E+00
  0.45853378E+00  0.45649835E+00  0.45443488E+00  0.45234368E+00  0.45022548E+00
  0.44808134E+00  0.44591268E+00  0.44372124E+00  0.44150909E+00  0.43927854E+00
  0.43703219E+00  0.43477285E+00  0.43250352E+00  0.43022736E+00  0.42794768E+00
  0.42566786E+00  0.42339137E+00  0.42112170E+00  0.41886233E+00  0.41661671E+00
  0.41438823E+00  0.41218018E+00  0.40999571E+00  0.40783783E+00  0.40570935E+00
  0.40361289E+00  0.40155084E+00  0.39952533E+00  0.39753825E+00  0.39559119E+00
  0.39368547E+00  0.39182211E+00  0.39000182E+00  0.38822501E+00  0.38649179E+00
  0.38480197E+00  0.38315505E+00  0.38155027E+00  0.37998655E+00  0.37846258E+00
  0.37697680E+00  0.37552741E+00  0.37411238E+00  0.37272953E+00  0.37137648E+00
  0.37005073E+00  0.36874964E+00  0.36747048E+00  0.36621046E+00  0.36496674E+00
  0.36373647E+00  0.36251680E+00  0.36130491E+00  0.36009805E+00  0.35889355E+00
  0.35768885E+00  0.35648151E+00  0.35526923E+00  0.35404989E+00  0.35282155E+00
  0.35158246E+00  0.35033109E+00  0.34906610E+00  0.34778640E+00  0.34649113E+00
  0.34517968E+00  0.34385163E+00  0.34250686E+00  0.34114544E+00  0.33976768E+00
  0.33837413E+00  0.33696554E+00  0.33554285E+00  0.33410723E+00  0.33265998E+00
  0.33120258E+00  0.32973668E+00  0.32826400E+00  0.32678641E+00  0.32530586E+00
  0.32382436E+00  0.32234396E+00  0.32086676E+00  0.31939484E+00  0.31793030E+00
  0.31647517E+00  0.31503145E+00  0.31360106E+00  0.31218584E+00  0.31078753E+00
  0.30940772E+00  0.30804789E+00  0.30670938E+00  0.30539336E+00  0.30410083E+00
  0.30283262E+00  0.30158941E+00  0.30037164E+00  0.29917962E+00  0.29801345E+00
  0.29687304E+00  0.29575813E+00  0.29466828E+00  0.29360288E+00  0.29256115E+00
  0.29154216E+00  0.29054485E+00  0.28956802E+00  0.28861034E+00  0.28767040E+00
  0.28674667E+00  0.28583758E+00  0.28494148E+00  0.28405667E+00  0.28318145E+00
  0.28231408E+00  0.28145285E+00  0.28059606E+00  0.27974203E+00  0.27888915E+00
  0.27803589E+00  0.27718077E+00  0.27632242E+00  0.27545957E+00  0.27459105E+00
  0.27371584E+00  0.27283302E+00  0.27194182E+00  0.27104162E+00  0.27013194E+00
  0.26921242E+00  0.26828289E+00  0.26734331E+00  0.26639377E+00  0.26543452E+00
  0.26446596E+00  0.26348859E+00  0.26250305E+00  0.26151011E+00  0.26051062E+00
  0.25950556E+00  0.25849596E+00  0.25748295E+00  0.25646771E+00  0.25545148E+00
  0.25443552E+00  0.25342114E+00  0.25240964E+00  0.25140233E+00  0.25040050E+00
  0.24940541E+00  0.24841829E+00  0.24744031E+00  0.24647259E+00  0.24551616E+00
  0.24457199E+00  0.24364093E+00  0.24272377E+00  0.24182117E+00  0.24093369E+00
  0.24006177E+00  0.23920574E+00  0.23836582E+00  0.23754208E+00  0.23673451E+00
  0.23594297E+00  0.23516718E+00  0.23440677E+00  0.23366128E+00  0.23293011E+00
  0.23221260E+00  0.23150798E+00  0.23081541E+00  0.23013399E+00  0.22946275E+00
  0.22880066E+00  0.22814667E+00  0.22749970E+00  0.22685862E+00  0.22622234E+00
  0.22558972E+00  0.22495969E+00  0.22433114E+00  0.22370305E+00  0.22307440E+00
  0.22244426E+00  0.22181173E+00  0.22117599E+00  0.22053630E+00  0.21989200E+00
  0.21924251E+00  0.21858734E+00  0.21792610E+00  0.21725851E+00  0.21658436E+00
  0.21590356E+00  0.21521611E+00  0.21452212E+00  0.21382178E+00  0.21311538E+00
  0.21240330E+00  0.21168601E+00  0.21096404E+00  0.21023800E+00  0.20950858E+00
  0.20877650E+00  0.20804255E+00  0.20730756E+00  0.20657238E+00  0.20583789E+00
  0.20510498E+00  0.20437456E+00  0.20364751E+00  0.20292473E+00  0.20220708E+00
  0.20149539E+00  0.20079046E+00  0.20009303E+00  0.19940380E+00  0.19872342E+00
  0.19805244E+00  0.19739139E+00  0.19674067E+00  0.19610065E+00  0.19547159E+00
  0.19485368E+00  0.19424701E+00  0.19365162E+00  0.19306741E+00  0.19249426E+00
  0.19193192E+00  0.19138008E+00  0.19083835E+00  0.19030629E+00  0.18978336E+00
  0.18926899E+00  0.18876253E+00  0.18826331E+00  0.18777059E+00  0.18728362E+00
  0.18680161E+00  0.18632376E+00  0.18584927E+00  0.18537730E+00  0.18490707E+00
  0.18443776E+00  0.18396860E+00  0.18349884E+00  0.18302777E+00  0.18255472E+00
  0.18207906E+00  0.18160022E+00  0.18111770E+00  0.18063103E+00  0.18013985E+00
  0.17964383E+00  0.17914273E+00  0.17863640E+00  0.17812472E+00  0.17760770E+00
  0.17708538E+00  0.17655790E+00  0.17602546E+00  0.17548833E+00  0.17494684E+00
  0.17440140E+00  0.17385247E+00  0.17330054E+00  0.17274619E+00  0.17219001E+00
  0.17163264E+00  0.17107472E+00  0.17051695E+00  0.16996003E+00  0.16940466E+00
  0.16885156E+00  0.16830141E+00  0.16775491E+00  0.16721273E+00  0.16667552E+00
  0.16614388E+00  0.16561838E+00  0.16509957E+00  0.16458791E+00  0.16408384E+00
  0.16358772E+00  0.16309987E+00  0.16262053E+00  0.16214988E+00  0.16168805E+00
  0.16123506E+00  0.16079092E+00  0.16035552E+00  0.15992872E+00  0.15951030E+00
  0.15909998E+00  0.15869741E+00  0.15830220E+00  0.15791390E+00  0.15753203E+00
  0.15715604E+00  0.15678535E+00  0.15641937E+00  0.15605746E+00  0.15569897E+00
  0.15534324E+00  0.15498960E+00  0.15463737E+00  0.15428590E+00  0.15393454E+00
  0.15358264E+00  0.15322959E+00  0.15287483E+00  0.15251779E+00  0.15215799E+00
  0.15179495E+00  0.15142826E+00  0.15105757E+00  0.15068257E+00  0.15030303E+00
  0.14991874E+00  0.14952960E+00  0.14913554E+00  0.14873656E+00  0.14833272E+00
  0.14792415E+00  0.14751103E+00  0.14709360E+00  0.14667216E+00  0.14624706E+00
  0.14581869E+00  0.14538750E+00  0.14495396E+00  0.14451859E+00  0.14408193E+00
  0.14364456E+00  0.14320705E+00  0.14277001E+00  0.14233404E+00  0.14189976E+00
  0.14146776E+00  0.14103863E+00  0.14061296E+00  0.14019130E+00  0.13977417E+00
  0.13936208E+00  0.13895548E+00  0.13855479E+00  0.13816040E+00  0.13777262E+00
  0.13739172E+00  0.13701794E+00  0.13665144E+00  0.13629233E+00  0.13594066E+00
  0.13559643E+00  0.13525958E+00  0.13492998E+00  0.13460745E+00  0.13429179E+00
  0.13398269E+00  0.13367983E+00  0.13338285E+00  0.13309132E+00  0.13280478E+00
  0.13252276E+00  0.13224473E+00  0.13197016E+00  0.13169849E+00  0.13142915E+00
  0.13116156E+00  0.13089514E+00  0.13062931E+00  0.13036350E+00  0.13009715E+00
  0.12982974E+00  0.12956074E+00  0.12928966E+00  0.12901606E+00  0.12873952E+00
  0.12845965E+00  0.12817614E+00  0.12788869E+00  0.12759707E+00  0.12730109E+00
  0.12700063E+00  0.12669559E+00  0.12638595E+00  0.12607175E+00  0.12575306E+00
  0.12543002E+00  0.12510280E+00  0.12477165E+00  0.12443684E+00  0.12409869E+00
  0.12375757E+00  0.12341387E+00  0.12306803E+00  0.12272051E+00  0.12237179E+00
  0.12202238E+00  0.12167278E+00  0.12132353E+00  0.12097516E+00  0.12062820E+00
  0.12028317E+00  0.11994059E+00  0.11960095E+00  0.11926474E+00  0.11893240E+00
  0.11860437E+00  0.11828104E+00  0.11796276E+00  0.11764986E+00  0.11734260E+00
  0.11704123E+00  0.11674592E+00  0.11645681E+00  0.11617398E+00  0.11589749E+00
  0.11562730E+00  0.11536337E+00  0.11510558E+00  0.11485377E+00  0.11460774E+00
  0.11436724E+00  0.11413197E+00  0.11390162E+00  0.11367582E+00  0.11345416E+00
  0.11323624E+00  0.11302159E+00  0.11280975E+00  0.11260023E+00  0.11239255E+00
  0.11218620E+00  0.11198068E+00  0.11177548E+00  0.11157013E+00  0.11136413E+00
  0.11115703E+00  0.11094838E+00  0.11073777E+00  0.11052480E+00  0.11030911E+00
  0.11009038E+00  0.10986834E+00  0.10964272E+00  0.10941333E+00  0.10918001E+00
  0.10894265E+00  0.10870117E+00  0.10845555E+00  0.10820583E+00  0.10795206E+00
  0.10769436E+00  0.10743290E+00  0.10716786E+00  0.10689949E+00  0.10662806E+00
  0.10635389E+00  0.10607733E+00  0.10579872E+00  0.10551849E+00  0.10523703E+00
  0.10495479E+00  0.10467220E+00  0.10438972E+00  0.10410780E+00  0.10382690E+00
  0.10354748E+00  0.10326997E+00  0.10299481E+00  0.10272241E+00  0.10245316E+00
  0.10218744E+00  0.10192557E+00  0.10166789E+00  0.10141465E+00  0.10116611E+00
  0.10092246E+00  0.10068388E+00  0.10045048E+00  0.10022236E+00  0.99999537E-01
  0.99782023E-01  0.99569769E-01  0.99362688E-01  0.99160654E-01  0.98963499E-01
  0.98771019E-01  0.98582973E-01  0.98399089E-01  0.98219061E-01  0.98042558E-01
  0.97869224E-01  0.97698683E-01  0.97530539E-01  0.97364385E-01  0.97199802E-01
  0.97036367E-01  0.96873654E-01  0.96711239E-01  0.96548702E-01  0.96385635E-01
  0.96221642E-01  0.96056344E-01  0.95889380E-01  0.95720416E-01  0.95549143E-01
  0.95375279E-01  0.95198577E-01  0.95018820E-01  0.94835828E-01  0.94649459E-01
  0.94459607E-01  0.94266204E-01  0.94069223E-01  0.93868675E-01  0.93664608E-01
  0.93457110E-01  0.93246304E-01  0.93032352E-01  0.92815445E-01  0.92595811E-01
  0.92373703E-01  0.92149403E-01  0.91923219E-01  0.91695477E-01  0.91466522E-01
  0.91236715E-01  0.91006428E-01  0.90776038E-01  0.90545930E-01  0.90316487E-01
  0.90088090E-01  0.89861115E-01  0.89635925E-01  0.89412873E-01  0.89192294E-01
  0.88974503E-01  0.88759795E-01  0.88548437E-01  0.88340670E-01  0.88136708E-01
  0.87936730E-01  0.87740885E-01  0.87549287E-01  0.87362015E-01  0.87179115E-01
  0.87000595E-01  0.86826430E-01  0.86656557E-01  0.86490881E-01  0.86329275E-01
  0.86171577E-01  0.86017597E-01  0.85867117E-01  0.85719892E-01  0.85575652E-01
  0.85434110E-01  0.85294957E-01  0.85157870E-01  0.85022514E-01  0.84888546E-01
  0.84755615E-01  0.84623368E-01  0.84491453E-01  0.84359522E-01  0.84227234E-01
 gradient corrections used for XC
           5
 core charge-density (partial)
  0.64232593E-03  0.64214317E-03  0.64159519E-03  0.64068282E-03  0.63940744E-03
  0.63777098E-03  0.63577595E-03  0.63342534E-03  0.63072273E-03  0.62767219E-03
  0.62427831E-03  0.62054621E-03  0.61648147E-03  0.61209017E-03  0.60737886E-03
  0.60235452E-03  0.59702459E-03  0.59139693E-03  0.58547978E-03  0.57928178E-03
  0.57281193E-03  0.56607958E-03  0.55909439E-03  0.55186635E-03  0.54440570E-03
  0.53672296E-03  0.52882888E-03  0.52073442E-03  0.51245073E-03  0.50398913E-03
  0.49536108E-03  0.48657817E-03  0.47765208E-03  0.46859455E-03  0.45941737E-03
  0.45013238E-03  0.44075140E-03  0.43128621E-03  0.42174860E-03  0.41215023E-03
  0.40250272E-03  0.39281755E-03  0.38310609E-03  0.37337955E-03  0.36364896E-03
  0.35392518E-03  0.34421884E-03  0.33454038E-03  0.32489995E-03  0.31530748E-03
  0.30577262E-03  0.29630472E-03  0.28691284E-03  0.27760574E-03  0.26839184E-03
  0.25927922E-03  0.25027565E-03  0.24138852E-03  0.23262486E-03  0.22399136E-03
  0.21549432E-03  0.20713967E-03  0.19893297E-03  0.19087938E-03  0.18298371E-03
  0.17525035E-03  0.16768335E-03  0.16028633E-03  0.15306257E-03  0.14601497E-03
  0.13914604E-03  0.13245793E-03  0.12595244E-03  0.11963100E-03  0.11349469E-03
  0.10754427E-03  0.10178013E-03  0.96202374E-04  0.90810764E-04  0.85604767E-04
  0.80583551E-04  0.75746001E-04  0.71090728E-04  0.66616080E-04  0.62320155E-04
  0.58200812E-04  0.54255683E-04  0.50482189E-04  0.46877547E-04  0.43438787E-04
  0.40162761E-04  0.37046162E-04  0.34085529E-04  0.31277266E-04  0.28617653E-04
  0.26102856E-04  0.23728944E-04  0.21491897E-04  0.19387622E-04  0.17411962E-04
  0.15560708E-04  0.13829612E-04  0.12214398E-04  0.10710770E-04  0.93144266E-05
  0.80210675E-05  0.68264050E-05  0.57261728E-05  0.47161350E-05  0.37920947E-05
  0.29499019E-05  0.21854611E-05  0.14947386E-05  0.87376925E-06  0.31866260E-06
 -0.17439120E-06 -0.60911603E-06 -0.98914487E-06 -0.13180153E-05 -0.15991656E-05
 -0.18359309E-05 -0.20315405E-05 -0.21891145E-05 -0.23116620E-05 -0.24020793E-05
 -0.24631478E-05 -0.24975336E-05 -0.25077862E-05 -0.24963386E-05 -0.24655069E-05
 -0.24174911E-05 -0.23543752E-05 -0.22781284E-05 -0.21906066E-05 -0.20935534E-05
 -0.19886023E-05 -0.18772784E-05 -0.17610010E-05 -0.16410854E-05 -0.15187465E-05
 -0.13951005E-05 -0.12711687E-05 -0.11478803E-05 -0.10260754E-05 -0.90650881E-06
 -0.78985290E-06 -0.67670155E-06 -0.56757348E-06 -0.46291588E-06 -0.36310806E-06
 -0.26846506E-06 -0.17924134E-06 -0.95634381E-07 -0.17788312E-07  0.54202486E-07
  0.12028985E-06  0.18046833E-06  0.23477179E-06  0.28327002E-06  0.32606545E-06
  0.36329000E-06  0.39510196E-06  0.42168298E-06  0.44323521E-06  0.45997848E-06
  0.47214767E-06  0.47999017E-06  0.48376341E-06  0.48373261E-06  0.48016858E-06
  0.47334567E-06  0.46353989E-06  0.45102706E-06  0.43608121E-06  0.41897300E-06
  0.39996834E-06  0.37932710E-06  0.35730194E-06  0.33413729E-06  0.31006840E-06
  0.28532055E-06  0.26010835E-06  0.23463514E-06  0.20909249E-06  0.18365986E-06
  0.15850422E-06  0.13377994E-06  0.10962860E-06  0.86178970E-07  0.63547050E-07
  0.41836180E-07  0.21137200E-07  0.15286930E-08 -0.16922733E-07 -0.34162101E-07
 -0.50145685E-07 -0.64840577E-07 -0.78224230E-07 -0.90283961E-07 -0.10101643E-06
 -0.11042709E-06 -0.11852965E-06 -0.12534545E-06 -0.13090292E-06 -0.13523696E-06
 -0.13838837E-06 -0.14040322E-06 -0.14133227E-06 -0.14123040E-06 -0.14015603E-06
 -0.13817053E-06 -0.13533771E-06 -0.13172325E-06 -0.12739424E-06 -0.12241862E-06
 -0.11686476E-06 -0.11080100E-06 -0.10429522E-06 -0.97414476E-07 -0.90224580E-07
 -0.82789800E-07 -0.75172534E-07 -0.67433020E-07 -0.59629084E-07 -0.51815911E-07
 -0.44045839E-07 -0.36368191E-07 -0.28829123E-07 -0.21471507E-07 -0.14334839E-07
 -0.74551615E-08 -0.86502811E-09  0.54065250E-08  0.11333976E-07  0.16895299E-07
  0.22071920E-07  0.26848659E-07  0.31213655E-07  0.35158270E-07  0.38676984E-07
  0.41767276E-07  0.44429488E-07  0.46666682E-07  0.48484491E-07  0.49890958E-07
  0.50896366E-07  0.51513067E-07  0.51755309E-07  0.51639052E-07  0.51181792E-07
  0.50402374E-07  0.49320816E-07  0.47958128E-07  0.46336133E-07  0.44477298E-07
  0.42404561E-07  0.40141167E-07  0.37710514E-07  0.35135995E-07  0.32440857E-07
  0.29648063E-07  0.26780161E-07  0.23859166E-07  0.20906444E-07  0.17942611E-07
  0.14987440E-07  0.12059773E-07  0.91774463E-08  0.63572275E-08  0.36147550E-08
  0.96449291E-09 -0.15803081E-08 -0.40076396E-08 -0.63067558E-08 -0.84681856E-08
 -0.10483736E-07 -0.12346489E-07 -0.14050788E-07 -0.15592221E-07 -0.16967593E-07
 -0.18174896E-07 -0.19213270E-07 -0.20082963E-07 -0.20785277E-07 -0.21322524E-07
 -0.21697962E-07 -0.21915740E-07 -0.21980835E-07 -0.21898986E-07 -0.21676630E-07
 -0.21320827E-07 -0.20839201E-07 -0.20239859E-07 -0.19531331E-07 -0.18722492E-07
 -0.17822500E-07 -0.16840724E-07 -0.15786679E-07 -0.14669958E-07 -0.13500178E-07
 -0.12286909E-07 -0.11039624E-07 -0.97676415E-08 -0.84800750E-08 -0.71857830E-08
 -0.58933255E-08 -0.46109220E-08 -0.33464143E-08 -0.21072319E-08 -0.90036246E-09
  0.26767487E-09  0.13908518E-08  0.24636494E-08  0.34810732E-08  0.44386641E-08
  0.53325058E-08  0.61592287E-08  0.69160103E-08  0.76005723E-08  0.82111741E-08
  0.87466045E-08  0.92061685E-08  0.95896738E-08  0.98974125E-08  0.10130142E-07
  0.10289065E-07  0.10375801E-07  0.10392367E-07  0.10341149E-07  0.10224871E-07
  0.10046569E-07  0.98095607E-08  0.95174142E-08  0.91739178E-08  0.87830482E-08
  0.83489398E-08  0.78758532E-08  0.73681447E-08  0.68302363E-08  0.62665855E-08
  0.56816571E-08  0.50798951E-08  0.44656964E-08  0.38433846E-08  0.32171867E-08
  0.25912096E-08  0.19694194E-08  0.13556215E-08  0.75344263E-09  0.16631466E-09
 -0.40254013E-09 -0.95012171E-09 -0.14736634E-08 -0.19706410E-08 -0.24387803E-08
 -0.28760628E-08 -0.32807296E-08 -0.36512835E-08 -0.39864898E-08 -0.42853751E-08
 -0.45472246E-08 -0.47715784E-08 -0.49582255E-08 -0.51071973E-08 -0.52187594E-08
 -0.52934024E-08 -0.53318317E-08 -0.53349558E-08 -0.53038748E-08 -0.52398669E-08
 -0.51443752E-08 -0.50189933E-08 -0.48654510E-08 -0.46855989E-08 -0.44813935E-08
 -0.42548817E-08 -0.40081855E-08 -0.37434862E-08 -0.34630095E-08 -0.31690104E-08
 -0.28637580E-08 -0.25495215E-08 -0.22285561E-08 -0.19030897E-08 -0.15753097E-08
 -0.12473511E-08 -0.92128483E-09 -0.59910699E-09 -0.28272890E-09  0.26032104E-10
  0.32546100E-09  0.61395252E-09  0.89001769E-09  0.11522895E-08  0.13995276E-08
  0.16306222E-08  0.18445968E-08  0.20406107E-08  0.22179593E-08  0.23760753E-08
  0.25145274E-08  0.26330194E-08  0.27313876E-08  0.28095983E-08  0.28677443E-08
  0.29060399E-08  0.29248168E-08  0.29245184E-08  0.29056935E-08  0.28689905E-08
  0.28151498E-08  0.27449974E-08  0.26594366E-08  0.25594407E-08  0.24460450E-08
  0.23203384E-08  0.21834554E-08  0.20365677E-08  0.18808763E-08  0.17176026E-08
  0.15479812E-08  0.13732511E-08  0.11946486E-08  0.10133994E-08  0.83071156E-09
  0.64776863E-09  0.46572284E-09  0.28568906E-09  0.10873897E-09 -0.64104355E-10
 -0.23187137E-09 -0.39365053E-09 -0.54859230E-09 -0.69591267E-09 -0.83489617E-09
 -0.96489840E-09 -0.10853480E-08 -0.11957483E-08 -0.12956783E-08 -0.13847929E-08
 -0.14628235E-08 -0.15295774E-08 -0.15849365E-08 -0.16288568E-08 -0.16613660E-08
 -0.16825618E-08 -0.16926096E-08 -0.16917389E-08 -0.16802412E-08 -0.16584659E-08
 -0.16268168E-08 -0.15857484E-08 -0.15357613E-08 -0.14773986E-08 -0.14112408E-08
 -0.13379016E-08 -0.12580233E-08 -0.11722720E-08 -0.10813330E-08 -0.98590594E-09
 -0.88670032E-09 -0.78443079E-09 -0.67981267E-09 -0.57355757E-09 -0.46636908E-09
 -0.35893869E-09 -0.25194184E-09 -0.14603423E-09 -0.41848238E-10  0.60010292E-10
  0.15896515E-09  0.25447252E-09  0.34602349E-09  0.43314632E-09  0.51540836E-09
  0.59241777E-09  0.66382487E-09  0.72932323E-09  0.78865052E-09  0.84158895E-09
  0.88796556E-09  0.92765214E-09  0.96056496E-09  0.98666411E-09  0.10059527E-08
  0.10184759E-08  0.10243195E-08  0.10236083E-08  0.10165046E-08  0.10032064E-08
  0.98394493E-09  0.95898265E-09  0.92861098E-09  0.89314769E-09  0.85293432E-09
  0.80833358E-09  0.75972659E-09  0.70751010E-09  0.65209369E-09  0.59389699E-09
  0.53334683E-09  0.47087448E-09  0.40691288E-09  0.34189400E-09  0.27624616E-09
  0.21039155E-09  0.14474375E-09  0.79705414E-10  0.15666056E-10 -0.47000012E-10
 -0.10793563E-09 -0.16680257E-09 -0.22328316E-09 -0.27708179E-09 -0.32792614E-09
 -0.37556837E-09 -0.41978607E-09 -0.46038297E-09 -0.49718964E-09 -0.53006383E-09
 -0.55889075E-09 -0.58358315E-09 -0.60408123E-09 -0.62035237E-09 -0.63239071E-09
 -0.64021658E-09 -0.64387581E-09 -0.64343885E-09 -0.63899976E-09 -0.63067519E-09
 -0.61860304E-09 -0.60294126E-09 -0.58386634E-09 -0.56157188E-09 -0.53626700E-09
 -0.50817470E-09 -0.47753024E-09 -0.44457937E-09 -0.40957665E-09 -0.37278363E-09
 -0.33446719E-09 -0.29489770E-09 -0.25434736E-09 -0.21308845E-09 -0.17139169E-09
 -0.12952459E-09 -0.87749935E-10 -0.46324230E-10 -0.54962931E-11  0.34494101E-10
  0.73417494E-10  0.11105592E-09  0.14720400E-09  0.18166992E-09  0.21427630E-09
  0.24486098E-09  0.27327771E-09  0.29939666E-09  0.32310487E-09  0.34430662E-09
  0.36292363E-09  0.37889512E-09  0.39217789E-09  0.40274617E-09  0.41059140E-09
  0.41572196E-09  0.41816270E-09  0.41795452E-09  0.41515373E-09  0.40983138E-09
  0.40207257E-09  0.39197558E-09  0.37965102E-09  0.36522091E-09  0.34881768E-09
  0.33058315E-09  0.31066747E-09  0.28922803E-09  0.26642837E-09  0.24243700E-09
  0.21742635E-09  0.19157155E-09  0.16504937E-09  0.13803709E-09  0.11071137E-09
  0.83247247E-10  0.55817044E-10  0.28589407E-10  0.17283296E-11 -0.24607742E-10
 -0.50266774E-10 -0.75103936E-10 -0.98982347E-10 -0.12177375E-09 -0.14335912E-09
 -0.16362921E-09 -0.18248501E-09 -0.19983818E-09 -0.21561134E-09 -0.22973834E-09
 -0.24216445E-09 -0.25284644E-09 -0.26175266E-09 -0.26886296E-09 -0.27416861E-09
 -0.27767215E-09 -0.27938709E-09 -0.27933768E-09 -0.27755851E-09 -0.27409410E-09
 -0.26899846E-09 -0.26233455E-09 -0.25417374E-09 -0.24459520E-09 -0.23368524E-09
 -0.22153671E-09 -0.20824825E-09 -0.19392360E-09 -0.17867085E-09 -0.16260173E-09
 -0.14583083E-09 -0.12847486E-09 -0.11065187E-09 -0.92480543E-10 -0.74079447E-10
 -0.55566293E-10 -0.37057254E-10 -0.18666277E-10 -0.50443197E-12  0.17320712E-10
  0.34705678E-10  0.51551632E-10  0.67764904E-10  0.83257458E-10  0.97947323E-10
  0.11175899E-09  0.12462372E-09  0.13647989E-09  0.14727319E-09  0.15695683E-09
  0.16549170E-09  0.17284644E-09  0.17899753E-09  0.18392923E-09  0.18763359E-09
  0.19011032E-09  0.19136664E-09  0.19141713E-09  0.19028351E-09  0.18799433E-09
  0.18458472E-09  0.18009602E-09  0.17457544E-09  0.16807564E-09  0.16065434E-09
  0.15237385E-09  0.14330061E-09  0.13350473E-09  0.12305948E-09  0.11204077E-09
  0.10052667E-09  0.88596893E-10  0.76332243E-10  0.63814145E-10  0.51124114E-10
  0.38343265E-10  0.25551818E-10  0.12828634E-10  0.25074992E-12 -0.12107053E-10
 -0.24172669E-10 -0.35877056E-10 -0.47154608E-10 -0.57943488E-10 -0.68185942E-10
 -0.77828580E-10 -0.86822623E-10 -0.95124119E-10 -0.10269413E-09 -0.10949886E-09
 -0.11550983E-09 -0.12070387E-09 -0.12506324E-09 -0.12857563E-09 -0.13123410E-09
 -0.13303708E-09 -0.13398826E-09 -0.13409648E-09 -0.13337557E-09 -0.13184423E-09
 -0.12952578E-09 -0.12644795E-09 -0.12264266E-09 -0.11814571E-09 -0.11299656E-09
 -0.10723794E-09 -0.10091562E-09 -0.94078019E-10 -0.86775885E-10 -0.79061953E-10
 -0.70990579E-10 -0.62617387E-10 -0.53998905E-10 -0.45192205E-10 -0.36254548E-10
 -0.27243033E-10 -0.18214245E-10 -0.92239281E-11 -0.32665120E-12  0.84244992E-11
  0.16978220E-10  0.25285274E-10  0.33298755E-10  0.40974335E-10  0.48270492E-10
  0.55148715E-10  0.61573691E-10  0.67513463E-10  0.72939572E-10  0.77827174E-10
  0.82155126E-10  0.85906061E-10  0.89066424E-10  0.91626499E-10  0.93580397E-10
  0.94926038E-10  0.95665093E-10  0.95802918E-10  0.95348456E-10  0.94314130E-10
  0.92715706E-10  0.90572142E-10  0.87905422E-10  0.84740376E-10  0.81104475E-10
  0.77027627E-10  0.72541954E-10  0.67681559E-10  0.62482285E-10  0.56981472E-10
  0.51217705E-10  0.45230554E-10  0.39060325E-10  0.32747794E-10  0.26333958E-10
  0.19859777E-10  0.13365928E-10  0.68925605E-11  0.47905903E-12 -0.58361823E-11
 -0.12015979E-10 -0.18024565E-10 -0.23827785E-10 -0.29393280E-10 -0.34690654E-10
 -0.39691630E-10 -0.44370187E-10 -0.48702684E-10 -0.52667968E-10 -0.56247459E-10
 -0.59425231E-10 -0.62188057E-10 -0.64525456E-10 -0.66429711E-10 -0.67895872E-10
 -0.68921743E-10 -0.69507854E-10 -0.69657414E-10 -0.69376251E-10 -0.68672734E-10
 -0.67557686E-10 -0.66044277E-10 -0.64147908E-10 -0.61886083E-10 -0.59278272E-10
 -0.56345759E-10 -0.53111486E-10 -0.49599888E-10 -0.45836720E-10 -0.41848882E-10
 -0.37664236E-10 -0.33311422E-10 -0.28819670E-10 -0.24218619E-10 -0.19538121E-10
 -0.14808064E-10 -0.10058184E-10 -0.53178904E-11 -0.61608878E-12  0.40189864E-11
  0.85599339E-11  0.12980340E-10  0.17254923E-10  0.21359674E-10  0.25271980E-10
  0.28970743E-10  0.32436484E-10  0.35651439E-10  0.38599643E-10  0.41266994E-10
  0.43641320E-10  0.45712417E-10  0.47472087E-10  0.48914153E-10  0.50034472E-10
  0.50830927E-10  0.51303411E-10  0.51453794E-10  0.51285892E-10  0.50805403E-10
  0.50019853E-10  0.48938522E-10  0.47572359E-10  0.45933891E-10  0.44037128E-10
  0.41897450E-10  0.39531498E-10  0.36957052E-10  0.34192904E-10  0.31258736E-10
  0.28174979E-10  0.24962682E-10  0.21643374E-10  0.18238927E-10  0.14771415E-10
  0.11262980E-10  0.77356949E-11  0.42114280E-11  0.71171617E-12 -0.27423635E-11
 -0.61303148E-11 -0.94323394E-11 -0.12629447E-10 -0.15703559E-10 -0.18637606E-10
 -0.21415617E-10 -0.24022804E-10 -0.26445628E-10 -0.28671871E-10 -0.30690688E-10
 -0.32492655E-10 -0.34069803E-10 -0.35415651E-10 -0.36525220E-10 -0.37395044E-10
 -0.38023171E-10 -0.38409151E-10 -0.38554018E-10 -0.38460263E-10 -0.38131802E-10
 -0.37573925E-10 -0.36793250E-10 -0.35797664E-10 -0.34596254E-10 -0.33199237E-10
 -0.31617882E-10 -0.29864426E-10 -0.27951986E-10 -0.25894470E-10 -0.23706475E-10
 -0.21403195E-10 -0.19000315E-10 -0.16513914E-10 -0.13960357E-10 -0.11356192E-10
 -0.87180522E-11 -0.60625448E-11 -0.34061572E-11 -0.76515536E-12  0.18445118E-11
  0.44073050E-11  0.69081836E-11  0.93326902E-11  0.11667031E-10  0.13898151E-10
  0.16013801E-10  0.18002606E-10  0.19854118E-10  0.21558869E-10  0.23108414E-10
  0.24495371E-10  0.25713449E-10  0.26757474E-10  0.27623402E-10  0.28308332E-10
  0.28810506E-10  0.29129304E-10  0.29265235E-10  0.29219915E-10  0.28996047E-10
  0.28597385E-10  0.28028700E-10  0.27295737E-10  0.26405167E-10  0.25364533E-10
  0.24182194E-10  0.22867262E-10  0.21429536E-10  0.19879436E-10  0.18227928E-10
  0.16486453E-10  0.14666848E-10  0.12781271E-10  0.10842123E-10  0.88619658E-11
  0.68534487E-11  0.48292259E-11  0.28018819E-11  0.78385450E-12 -0.12126380E-11
 -0.31756690E-11 -0.50936719E-11 -0.69555061E-11 -0.87505192E-11 -0.10468605E-10
 -0.12100259E-10 -0.13636627E-10 -0.15069551E-10 -0.16391611E-10 -0.17596158E-10
 -0.18677348E-10 -0.19630164E-10 -0.20450437E-10 -0.21134859E-10 -0.21680997E-10
 -0.22087289E-10 -0.22353049E-10 -0.22478455E-10 -0.22464540E-10 -0.22313174E-10
 -0.22027039E-10 -0.21609609E-10 -0.21065110E-10 -0.20398491E-10 -0.19615384E-10
 -0.18722056E-10 -0.17725371E-10 -0.16632732E-10 -0.15452036E-10 -0.14191616E-10
 -0.12860184E-10 -0.11466777E-10 -0.10020695E-10 -0.85314403E-11 -0.70086599E-11
 -0.54620831E-11 -0.39014616E-11 -0.23365103E-11 -0.77684783E-12  0.76805993E-12
  0.22889561E-11  0.37768461E-11  0.52230496E-11  0.66192490E-11  0.79575354E-11
  0.92304522E-11  0.10431034E-10  0.11552844E-10  0.12590006E-10  0.13537231E-10
  0.14389847E-10  0.15143815E-10  0.15795750E-10  0.16342927E-10  0.16783297E-10
  0.17115487E-10  0.17338799E-10  0.17453211E-10  0.17459360E-10  0.17358541E-10
  0.17152682E-10  0.16844328E-10  0.16436618E-10  0.15933260E-10  0.15338497E-10
  0.14657079E-10  0.13894228E-10  0.13055594E-10  0.12147226E-10  0.11175520E-10
  0.10147183E-10  0.90691837E-11  0.79487104E-11  0.67931228E-11  0.56099052E-11
  0.44066200E-11  0.31908604E-11  0.19702038E-11  0.75216613E-12 -0.45584354E-12
 -0.16465664E-11 -0.28129363E-11 -0.39481209E-11 -0.50455597E-11 -0.60990012E-11
 -0.71025371E-11 -0.80506341E-11 -0.89381632E-11 -0.97604257E-11 -0.10513177E-10
 kinetic energy density (partial)
  0.52274132E+00  0.52259281E+00  0.52214749E+00  0.52140604E+00  0.52036958E+00
  0.51903970E+00  0.51741839E+00  0.51550812E+00  0.51331177E+00  0.51083264E+00
  0.50807448E+00  0.50504141E+00  0.50173797E+00  0.49816910E+00  0.49434010E+00
  0.49025665E+00  0.48592478E+00  0.48135085E+00  0.47654157E+00  0.47150394E+00
  0.46624527E+00  0.46077314E+00  0.45509539E+00  0.44922013E+00  0.44315567E+00
  0.43691054E+00  0.43049347E+00  0.42391336E+00  0.41717926E+00  0.41030036E+00
  0.40328596E+00  0.39614547E+00  0.38888837E+00  0.38152419E+00  0.37406252E+00
  0.36651296E+00  0.35888510E+00  0.35118854E+00  0.34343282E+00  0.33562743E+00
  0.32778181E+00  0.31990528E+00  0.31200708E+00  0.30409632E+00  0.29618196E+00
  0.28827283E+00  0.28037757E+00  0.27250466E+00  0.26466236E+00  0.25685875E+00
  0.24910166E+00  0.24139870E+00  0.23375726E+00  0.22618443E+00  0.21868709E+00
  0.21127180E+00  0.20394489E+00  0.19671238E+00  0.18957999E+00  0.18255317E+00
  0.17563705E+00  0.16883646E+00  0.16215594E+00  0.15559970E+00  0.14917165E+00
  0.14287539E+00  0.13671420E+00  0.13069107E+00  0.12480866E+00  0.11906935E+00
  0.11347519E+00  0.10802795E+00  0.10272911E+00  0.97579839E-01  0.92581044E-01
  0.87733344E-01  0.83037088E-01  0.78492363E-01  0.74098996E-01  0.69856568E-01
  0.65764418E-01  0.61821655E-01  0.58027162E-01  0.54379610E-01  0.50877468E-01
  0.47519006E-01  0.44302313E-01  0.41225303E-01  0.38285725E-01  0.35481175E-01
  0.32809104E-01  0.30266833E-01  0.27851557E-01  0.25560361E-01  0.23390227E-01
  0.21338047E-01  0.19400628E-01  0.17574710E-01  0.15856968E-01  0.14244027E-01
  0.12732469E-01  0.11318844E-01  0.99996748E-02  0.87714726E-02  0.76307396E-02
  0.65739801E-02  0.55977075E-02  0.46984522E-02  0.38727687E-02  0.31172424E-02
  0.24284966E-02  0.18031982E-02  0.12380642E-02  0.72986635E-03  0.27543710E-03
 -0.12832609E-03 -0.48445622E-03 -0.79591272E-03 -0.10655778E-02 -0.12962531E-02
 -0.14906569E-02 -0.16514212E-02 -0.17810900E-02 -0.18821168E-02 -0.19568635E-02
 -0.20075989E-02 -0.20364979E-02 -0.20456410E-02 -0.20370136E-02 -0.20125063E-02
 -0.19739151E-02 -0.19229418E-02 -0.18611948E-02 -0.17901899E-02 -0.17113520E-02
 -0.16260161E-02 -0.15354288E-02 -0.14407506E-02 -0.13430575E-02 -0.12433431E-02
 -0.11425212E-02 -0.10414278E-02 -0.94082385E-03 -0.84139766E-03 -0.74376784E-03
 -0.64848592E-03 -0.55603920E-03 -0.46685363E-03 -0.38129677E-03 -0.29968069E-03
 -0.22226495E-03 -0.14925960E-03 -0.80828082E-04 -0.17090215E-04  0.41874890E-04
  0.96025950E-04  0.14535666E-03  0.18989290E-03  0.22969000E-03  0.26483007E-03
  0.29541937E-03  0.32158583E-03  0.34347658E-03  0.36125556E-03  0.37510131E-03
  0.38520474E-03  0.39176709E-03  0.39499791E-03  0.39511322E-03  0.39233369E-03
  0.38688301E-03  0.37898629E-03  0.36886858E-03  0.35675357E-03  0.34286227E-03
  0.32741187E-03  0.31061473E-03  0.29267736E-03  0.27379962E-03  0.25417394E-03
  0.23398462E-03  0.21340733E-03  0.19260856E-03  0.17174522E-03  0.15096434E-03
  0.13040283E-03  0.11018727E-03  0.90433814E-04  0.71248200E-04  0.52725716E-04
  0.34951313E-04  0.17999737E-04  0.19357133E-05 -0.13185822E-04 -0.27319445E-04
 -0.40428934E-04 -0.52486924E-04 -0.63474528E-04 -0.73380942E-04 -0.82203014E-04
 -0.89944804E-04 -0.96617127E-04 -0.10223708E-03 -0.10682757E-03 -0.11041681E-03
 -0.11303787E-03 -0.11472816E-03 -0.11552893E-03 -0.11548484E-03 -0.11464348E-03
 -0.11305485E-03 -0.11077099E-03 -0.10784549E-03 -0.10433312E-03 -0.10028936E-03
 -0.95770073E-04 -0.90831120E-04 -0.85528007E-04 -0.79915568E-04 -0.74047665E-04
 -0.67976900E-04 -0.61754364E-04 -0.55429400E-04 -0.49049388E-04 -0.42659563E-04
 -0.36302842E-04 -0.30019686E-04 -0.23847975E-04 -0.17822910E-04 -0.11976933E-04
 -0.63396730E-05 -0.93790255E-06  0.42044777E-05  0.90664417E-05  0.13629821E-04
  0.17879274E-04  0.21802237E-04  0.25388862E-04  0.28631943E-04  0.31526829E-04
  0.34071326E-04  0.36265589E-04  0.38112005E-04  0.39615071E-04  0.40781259E-04
  0.41618887E-04  0.42137970E-04  0.42350082E-04  0.42268209E-04  0.41906597E-04
  0.41280610E-04  0.40406575E-04  0.39301642E-04  0.37983634E-04  0.36470907E-04
  0.34782213E-04  0.32936562E-04  0.30953093E-04  0.28850954E-04  0.26649175E-04
  0.24366563E-04  0.22021589E-04  0.19632296E-04  0.17216198E-04  0.14790203E-04
  0.12370529E-04  0.99726409E-05  0.76111804E-05  0.52999179E-05  0.30517028E-05
  0.87842485E-06 -0.12090177E-05 -0.32007421E-05 -0.50878988E-05 -0.68626807E-05
 -0.85183277E-05 -0.10049123E-04 -0.11450383E-04 -0.12718444E-04 -0.13850641E-04
 -0.14845282E-04 -0.15701616E-04 -0.16419801E-04 -0.17000860E-04 -0.17446646E-04
 -0.17759790E-04 -0.17943654E-04 -0.18002280E-04 -0.17940340E-04 -0.17763076E-04
 -0.17476247E-04 -0.17086074E-04 -0.16599181E-04 -0.16022535E-04 -0.15363395E-04
 -0.14629250E-04 -0.13827766E-04 -0.12966733E-04 -0.12054006E-04 -0.11097462E-04
 -0.10104943E-04 -0.90842147E-05 -0.80429164E-05 -0.69885223E-05 -0.59283003E-05
 -0.48692750E-05 -0.38181941E-05 -0.27814970E-05 -0.17652870E-05 -0.77530634E-06
  0.18308550E-06  0.11049303E-05  0.19856866E-05  0.28212419E-05  0.36079222E-05
  0.43424979E-05  0.50221873E-05  0.56446571E-05  0.62080198E-05  0.67108293E-05
  0.71520733E-05  0.75311635E-05  0.78479236E-05  0.81025756E-05  0.82957234E-05
  0.84283357E-05  0.85017262E-05  0.85175337E-05  0.84776995E-05  0.83844450E-05
  0.82402479E-05  0.80478175E-05  0.78100699E-05  0.75301026E-05  0.72111691E-05
  0.68566531E-05  0.64700429E-05  0.60549066E-05  0.56148670E-05  0.51535775E-05
  0.46746981E-05  0.41818733E-05  0.36787093E-05  0.31687537E-05  0.26554755E-05
  0.21422463E-05  0.16323226E-05  0.11288303E-05  0.63474908E-06  0.15289961E-06
 -0.31406880E-06 -0.76368868E-06 -0.11936835E-05 -0.16019752E-05 -0.19866907E-05
 -0.23461661E-05 -0.26789504E-05 -0.29838072E-05 -0.32597153E-05 -0.35058678E-05
 -0.37216702E-05 -0.39067368E-05 -0.40608866E-05 -0.41841376E-05 -0.42766999E-05
 -0.43389687E-05 -0.43715157E-05 -0.43750795E-05 -0.43505564E-05 -0.42989892E-05
 -0.42215562E-05 -0.41195599E-05 -0.39944148E-05 -0.38476351E-05 -0.36808225E-05
 -0.34956532E-05 -0.32938654E-05 -0.30772468E-05 -0.28476217E-05 -0.26068390E-05
 -0.23567597E-05 -0.20992455E-05 -0.18361468E-05 -0.15692922E-05 -0.13004773E-05
 -0.10314553E-05 -0.76392709E-06 -0.49953260E-06 -0.23984240E-06  0.13649710E-07
  0.25953362E-06  0.49648905E-06  0.72329094E-06  0.93881410E-06  0.11420372E-05
  0.13320458E-05  0.15080349E-05  0.16693107E-05  0.18152913E-05  0.19455071E-05
  0.20596004E-05  0.21573243E-05  0.22385407E-05  0.23032184E-05  0.23514299E-05
  0.23833476E-05  0.23992406E-05  0.23994695E-05  0.23844818E-05  0.23548068E-05
  0.23110496E-05  0.22538857E-05  0.21840544E-05  0.21023525E-05  0.20096279E-05
  0.19067728E-05  0.17947171E-05  0.16744215E-05  0.15468708E-05  0.14130669E-05
  0.12740226E-05  0.11307549E-05  0.98427839E-06  0.83559945E-06  0.68571006E-06
  0.53558223E-06  0.38616252E-06  0.23836697E-06  0.93076304E-07 -0.48868489E-07
 -0.18667023E-06 -0.31957923E-06 -0.44689661E-06 -0.56797718E-06 -0.68223193E-06
 -0.78913012E-06 -0.88820097E-06 -0.97903491E-06 -0.10612844E-05 -0.11346645E-05
 -0.11989526E-05 -0.12539888E-05 -0.12996744E-05 -0.13359714E-05 -0.13629009E-05
 -0.13805414E-05 -0.13890269E-05 -0.13885446E-05 -0.13793321E-05 -0.13616750E-05
 -0.13359035E-05 -0.13023894E-05 -0.12615429E-05 -0.12138087E-05 -0.11596626E-05
 -0.10996076E-05 -0.10341705E-05 -0.96389768E-06 -0.88935119E-06 -0.81110521E-06
 -0.72974205E-06 -0.64584835E-06 -0.56001142E-06 -0.47281560E-06 -0.38483876E-06
 -0.29664894E-06 -0.20880109E-06 -0.12183400E-06 -0.36267444E-07  0.47400571E-07
  0.12869627E-06  0.20717243E-06  0.28241043E-06  0.35402212E-06  0.42165142E-06
  0.48497573E-06  0.54370701E-06  0.59759275E-06  0.64641662E-06  0.68999886E-06
  0.72819653E-06  0.76090344E-06  0.78804991E-06  0.80960229E-06  0.82556230E-06
  0.83596615E-06  0.84088345E-06  0.84041599E-06  0.83469635E-06  0.82388630E-06
  0.80817514E-06  0.78777784E-06  0.76293316E-06  0.73390152E-06  0.70096300E-06
  0.66441506E-06  0.62457035E-06  0.58175441E-06  0.53630339E-06  0.48856173E-06
  0.43887984E-06  0.38761185E-06  0.33511330E-06  0.28173898E-06  0.22784075E-06
  0.17376547E-06  0.11985297E-06  0.66434166E-07  0.13829207E-07 -0.37654199E-07
 -0.87722397E-07 -0.13609725E-06 -0.18251749E-06 -0.22673992E-06 -0.26854046E-06
 -0.30771514E-06 -0.34408083E-06 -0.37747587E-06 -0.40776065E-06 -0.43481786E-06
 -0.45855276E-06 -0.47889322E-06 -0.49578968E-06 -0.50921488E-06 -0.51916358E-06
 -0.52565205E-06 -0.52871753E-06 -0.52841748E-06 -0.52482881E-06 -0.51804695E-06
 -0.50818488E-06 -0.49537200E-06 -0.47975301E-06 -0.46148669E-06 -0.44074457E-06
 -0.41770964E-06 -0.39257495E-06 -0.36554224E-06 -0.33682048E-06 -0.30662444E-06
 -0.27517326E-06 -0.24268902E-06 -0.20939529E-06 -0.17551576E-06 -0.14127283E-06
 -0.10688633E-06 -0.72572209E-07 -0.38541275E-07 -0.49980502E-08  0.27860355E-07
  0.59845287E-07  0.90777522E-07  0.12048815E-06  0.14881941E-06  0.17562536E-06
  0.20077260E-06  0.22414073E-06  0.24562288E-06  0.26512602E-06  0.28257130E-06
  0.29789414E-06  0.31104440E-06  0.32198637E-06  0.33069863E-06  0.33717394E-06
  0.34141896E-06  0.34345391E-06  0.34331220E-06  0.34103988E-06  0.33669517E-06
  0.33034779E-06  0.32207835E-06  0.31197758E-06  0.30014560E-06  0.28669108E-06
  0.27173045E-06  0.25538697E-06  0.23778989E-06  0.21907350E-06  0.19937620E-06
  0.17883963E-06  0.15760765E-06  0.13582550E-06  0.11363882E-06  0.91192793E-07
  0.68631251E-07  0.46095823E-07  0.23725119E-07  0.16539422E-08 -0.19987455E-07
 -0.41074079E-07 -0.61486849E-07 -0.81113205E-07 -0.99847670E-07 -0.11759234E-06
 -0.13425736E-06 -0.14976126E-06 -0.16403135E-06 -0.17700392E-06 -0.18862452E-06
 -0.19884805E-06 -0.20763890E-06 -0.21497093E-06 -0.22082748E-06 -0.22520128E-06
 -0.22809429E-06 -0.22951753E-06 -0.22949082E-06 -0.22804250E-06 -0.22520906E-06
 -0.22103480E-06 -0.21557139E-06 -0.20887739E-06 -0.20101779E-06 -0.19206348E-06
 -0.18209069E-06 -0.17118044E-06 -0.15941793E-06 -0.14689196E-06 -0.13369432E-06
 -0.11991916E-06 -0.10566236E-06 -0.91020935E-07 -0.76092419E-07 -0.60974244E-07
 -0.45763157E-07 -0.30554642E-07 -0.15442358E-07 -0.51760752E-09  0.14131182E-07
  0.28418939E-07  0.42264407E-07  0.55590568E-07  0.68325031E-07  0.80400389E-07
  0.91754534E-07  0.10233094E-06  0.11207891E-06  0.12095375E-06  0.12891697E-06
  0.13593638E-06  0.14198615E-06  0.14704690E-06  0.15110565E-06  0.15415581E-06
  0.15619710E-06  0.15723541E-06  0.15728269E-06  0.15635674E-06  0.15448099E-06
  0.15168426E-06  0.14800051E-06  0.14346851E-06  0.13813150E-06  0.13203690E-06
  0.12523590E-06  0.11778309E-06  0.10973606E-06  0.10115502E-06  0.92102362E-07
  0.82642232E-07  0.72840134E-07  0.62762487E-07  0.52476209E-07  0.42048300E-07
  0.31545430E-07  0.21033540E-07  0.10577453E-07  0.24049679E-09 -0.99158547E-08
 -0.19832323E-07 -0.29452150E-07 -0.38721394E-07 -0.47589216E-07 -0.56008132E-07
 -0.63934238E-07 -0.71327426E-07 -0.78151551E-07 -0.84374588E-07 -0.89968753E-07
 -0.94910599E-07 -0.99181081E-07 -0.10276560E-06 -0.10565401E-06 -0.10784060E-06
 -0.10932405E-06 -0.11010740E-06 -0.11019788E-06 -0.10960687E-06 -0.10834970E-06
 -0.10644555E-06 -0.10391719E-06 -0.10079084E-06 -0.97095953E-07 -0.92864918E-07
 -0.88132877E-07 -0.82937432E-07 -0.77318383E-07 -0.71317444E-07 -0.64977957E-07
 -0.58344602E-07 -0.51463099E-07 -0.44379913E-07 -0.37141958E-07 -0.29796304E-07
 -0.22389886E-07 -0.14969221E-07 -0.75801309E-08 -0.26747570E-09  0.69251047E-08
  0.13955436E-07  0.20783041E-07  0.27369359E-07  0.33677950E-07  0.39674678E-07
  0.45327884E-07  0.50608536E-07  0.55490363E-07  0.59949970E-07  0.63966931E-07
  0.67523866E-07  0.70606495E-07  0.73203677E-07  0.75307423E-07  0.76912894E-07
  0.78018378E-07  0.78625250E-07  0.78737914E-07  0.78363724E-07  0.77512893E-07
  0.76198382E-07  0.74435779E-07  0.72243158E-07  0.69640933E-07  0.66651690E-07
  0.63300018E-07  0.59612324E-07  0.55616646E-07  0.51342454E-07  0.46820445E-07
  0.42082340E-07  0.37160673E-07  0.32088577E-07  0.26899578E-07  0.21627377E-07
  0.16305649E-07  0.10967833E-07  0.56469365E-08  0.37533572E-09 -0.48154069E-08
 -0.98947242E-08 -0.14833214E-07 -0.19602802E-07 -0.24176888E-07 -0.28530487E-07
 -0.32640357E-07 -0.36485111E-07 -0.40045318E-07 -0.43303595E-07 -0.46244674E-07
 -0.48855465E-07 -0.51125105E-07 -0.53044983E-07 -0.54608763E-07 -0.55812382E-07
 -0.56654044E-07 -0.57134193E-07 -0.57255475E-07 -0.57022690E-07 -0.56442727E-07
 -0.55524492E-07 -0.54278820E-07 -0.52718381E-07 -0.50857574E-07 -0.48712412E-07
 -0.46300402E-07 -0.43640410E-07 -0.40752533E-07 -0.37657950E-07 -0.34378782E-07
 -0.30937940E-07 -0.27358972E-07 -0.23665916E-07 -0.19883138E-07 -0.16035184E-07
 -0.12146628E-07 -0.82419167E-08 -0.43452280E-08 -0.48032520E-09  0.33295812E-08
  0.70619663E-08  0.10695118E-07  0.14208256E-07  0.17581646E-07  0.20796704E-07
  0.23836090E-07  0.26683798E-07  0.29325231E-07  0.31747271E-07  0.33938336E-07
  0.35888427E-07  0.37589165E-07  0.39033821E-07  0.40217328E-07  0.41136291E-07
  0.41788980E-07  0.42175319E-07  0.42296859E-07  0.42156746E-07  0.41759679E-07
  0.41111856E-07  0.40220917E-07  0.39095875E-07  0.37747041E-07  0.36185942E-07
  0.34425233E-07  0.32478606E-07  0.30360685E-07  0.28086930E-07  0.25673529E-07
  0.23137285E-07  0.20495510E-07  0.17765910E-07  0.14966470E-07  0.12115341E-07
  0.92307296E-08  0.63307839E-08  0.34334841E-08  0.55653552E-09 -0.22827347E-08
 -0.50674784E-08 -0.77814217E-08 -0.10408956E-07 -0.12935223E-07 -0.15346197E-07
 -0.17628753E-07 -0.19770741E-07 -0.21761038E-07 -0.23589610E-07 -0.25247549E-07
 -0.26727118E-07 -0.28021777E-07 -0.29126209E-07 -0.30036332E-07 -0.30749310E-07
 -0.31263548E-07 -0.31578691E-07 -0.31695600E-07 -0.31616339E-07 -0.31344137E-07
 -0.30883357E-07 -0.30239453E-07 -0.29418921E-07 -0.28429243E-07 -0.27278830E-07
 -0.25976959E-07 -0.24533701E-07 -0.22959849E-07 -0.21266846E-07 -0.19466702E-07
 -0.17571915E-07 -0.15595389E-07 -0.13550348E-07 -0.11450250E-07 -0.93087074E-08
 -0.71393943E-08 -0.49559684E-08 -0.27719851E-08 -0.60081753E-09  0.15444229E-08
  0.36509626E-08  0.57064388E-08  0.76989695E-08  0.96172188E-08  0.11450459E-07
  0.13188628E-07  0.14822378E-07  0.16343130E-07  0.17743108E-07  0.19015378E-07
  0.20153883E-07  0.21153460E-07  0.22009866E-07  0.22719790E-07  0.23280857E-07
  0.23691635E-07  0.23951627E-07  0.24061264E-07  0.24021886E-07  0.23835729E-07
  0.23505892E-07  0.23036309E-07  0.22431716E-07  0.21697609E-07  0.20840201E-07
  0.19866375E-07  0.18783632E-07  0.17600039E-07  0.16324172E-07  0.14965055E-07
  0.13532100E-07  0.12035048E-07  0.10483899E-07  0.88888541E-08  0.72602455E-08
  0.56084753E-08  0.39439500E-08  0.22770168E-08  0.61790219E-09 -0.10233493E-08
 -0.26369338E-08 -0.42133442E-08 -0.57434248E-08 -0.72184218E-08 -0.86300320E-08
 -0.99704467E-08 -0.11232394E-07 -0.12409173E-07 -0.13494693E-07 -0.14483497E-07
 -0.15370788E-07 -0.16152451E-07 -0.16825071E-07 -0.17385939E-07 -0.17833064E-07
 -0.18165176E-07 -0.18381720E-07 -0.18482856E-07 -0.18469445E-07 -0.18343036E-07
 -0.18105846E-07 -0.17760742E-07 -0.17311211E-07 -0.16761332E-07 -0.16115745E-07
 -0.15379616E-07 -0.14558595E-07 -0.13658780E-07 -0.12686670E-07 -0.11649124E-07
 -0.10553314E-07 -0.94066746E-08 -0.82168576E-08 -0.69916810E-08 -0.57390798E-08
 -0.44670563E-08 -0.31836303E-08 -0.18967903E-08 -0.61444494E-09  0.65562371E-09
  0.19058062E-08  0.31287098E-08  0.43172007E-08  0.54644443E-08  0.65639430E-08
  0.76095715E-08  0.85956095E-08  0.95167714E-08  0.10368233E-07  0.11145656E-07
  0.11845205E-07  0.12463571E-07  0.12997978E-07  0.13446198E-07  0.13806556E-07
  0.14077933E-07  0.14259766E-07  0.14352048E-07  0.14355314E-07  0.14270638E-07
  0.14099616E-07  0.13844353E-07  0.13507440E-07  0.13091933E-07  0.12601334E-07
  0.12039555E-07  0.11410899E-07  0.10720020E-07  0.99718989E-08  0.91718019E-08
  0.83252493E-08  0.74379775E-08  0.65159014E-08  0.55650763E-08  0.45916596E-08
  0.36018719E-08  0.26019581E-08  0.15981499E-08  0.59662694E-09 -0.39651920E-09
 -0.13753216E-08 -0.23339725E-08 -0.32668569E-08 -0.41685845E-08 -0.50340193E-08
 -0.58583087E-08 -0.66369085E-08 -0.73656080E-08 -0.80405506E-08 -0.86582540E-08
 atomic pseudo charge-density
  0.70000000E+01  0.69924858E+01  0.69700205E+01  0.69328344E+01  0.68813043E+01
  0.68159438E+01  0.67373899E+01  0.66463874E+01  0.65437714E+01  0.64304484E+01
  0.63073776E+01  0.61755525E+01  0.60359830E+01  0.58896797E+01  0.57376393E+01
  0.55808324E+01  0.54201934E+01  0.52566119E+01  0.50909269E+01  0.49239221E+01
  0.47563232E+01  0.45887964E+01  0.44219483E+01  0.42563269E+01  0.40924227E+01
  0.39306713E+01  0.37714560E+01  0.36151104E+01  0.34619221E+01  0.33121354E+01
  0.31659549E+01  0.30235486E+01  0.28850510E+01  0.27505664E+01  0.26201712E+01
  0.24939173E+01  0.23718340E+01  0.22539312E+01  0.21402007E+01  0.20306189E+01
  0.19251484E+01  0.18237399E+01  0.17263337E+01  0.16328612E+01  0.15432460E+01
  0.14574055E+01  0.13752518E+01  0.12966924E+01  0.12216317E+01  0.11499712E+01
  0.10816104E+01  0.10164477E+01  0.95438060E+00  0.89530635E+00  0.83912242E+00
  0.78572685E+00  0.73501856E+00  0.68689769E+00  0.64126582E+00  0.59802619E+00
  0.55708390E+00  0.51834603E+00  0.48172180E+00  0.44712263E+00  0.41446225E+00
  0.38365676E+00  0.35462464E+00  0.32728682E+00  0.30156665E+00  0.27738994E+00
  0.25468494E+00  0.23338231E+00  0.21341511E+00  0.19471875E+00  0.17723100E+00
  0.16089189E+00  0.14564370E+00  0.13143089E+00  0.11820010E+00  0.10590002E+00
  0.94481399E-01  0.83896964E-01  0.74101369E-01  0.65051136E-01  0.56704606E-01
  0.49021877E-01  0.41964753E-01  0.35496688E-01  0.29582733E-01  0.24189483E-01
  0.19285026E-01  0.14838892E-01  0.10822002E-01  0.72066235E-02  0.39663196E-02
  0.10759060E-02 -0.14885947E-02 -0.37499960E-02 -0.57299891E-02 -0.74491843E-02
 -0.89271498E-02 -0.10182450E-01 -0.11232684E-01 -0.12094520E-01 -0.12783729E-01
 -0.13315222E-01 -0.13703081E-01 -0.13960591E-01 -0.14100269E-01 -0.14133896E-01
 -0.14072547E-01 -0.13926614E-01 -0.13705839E-01 -0.13419338E-01 -0.13075626E-01
 -0.12682643E-01 -0.12247778E-01 -0.11777891E-01 -0.11279340E-01 -0.10757998E-01
 -0.10219278E-01 -0.96681542E-02 -0.91091796E-02 -0.85465091E-02 -0.79839172E-02
 -0.74248170E-02 -0.68722789E-02 -0.63290482E-02 -0.57975626E-02 -0.52799689E-02
 -0.47781395E-02 -0.42936884E-02 -0.38279864E-02 -0.33821767E-02 -0.29571889E-02
 -0.25537534E-02 -0.21724152E-02 -0.18135472E-02 -0.14773627E-02 -0.11639282E-02
 -0.87317513E-03 -0.60491172E-03 -0.35883381E-03 -0.13453575E-03  0.68479340E-04
  0.25078971E-03  0.41304550E-03  0.55595973E-03  0.68029964E-03  0.78687852E-03
  0.87654787E-03  0.95019002E-03  0.10087112E-02  0.10530347E-02  0.10840952E-02
  0.11028323E-02  0.11101857E-02  0.11070897E-02  0.10944689E-02  0.10732337E-02
  0.10442766E-02  0.10084681E-02  0.96665415E-03  0.91965281E-03  0.86825182E-03
  0.81320638E-03  0.75523714E-03  0.69502862E-03  0.63322785E-03  0.57044325E-03
  0.50724386E-03  0.44415878E-03  0.38167680E-03  0.32024638E-03  0.26027569E-03
  0.20213302E-03  0.14614721E-03  0.92608401E-04  0.41768856E-04 -0.61560273E-05
 -0.50986581E-04 -0.92577602E-04 -0.13081698E-03 -0.16562421E-03 -0.19694886E-03
 -0.22476891E-03 -0.24908910E-03 -0.26993912E-03 -0.28737189E-03 -0.30146172E-03
 -0.31230249E-03 -0.32000581E-03 -0.32469922E-03 -0.32652433E-03 -0.32563505E-03
 -0.32219584E-03 -0.31637994E-03 -0.30836773E-03 -0.29834508E-03 -0.28650179E-03
 -0.27303006E-03 -0.25812306E-03 -0.24197358E-03 -0.22477273E-03 -0.20670872E-03
 -0.18796575E-03 -0.16872295E-03 -0.14915346E-03 -0.12942352E-03 -0.10969175E-03
 -0.90108409E-04 -0.70814832E-04 -0.51942905E-04 -0.33614650E-04 -0.15941880E-04
  0.97405264E-06  0.17042429E-04  0.32183264E-04  0.46327325E-04  0.59416082E-04
  0.71401593E-04  0.82246319E-04  0.91922884E-04  0.10041378E-03  0.10771101E-03
  0.11381571E-03  0.11873768E-03  0.12249496E-03  0.12511325E-03  0.12662546E-03
  0.12707106E-03  0.12649557E-03  0.12494993E-03  0.12248990E-03  0.11917548E-03
  0.11507023E-03  0.11024073E-03  0.10475595E-03  0.98686643E-04  0.92104786E-04
  0.85082998E-04  0.77694005E-04  0.70010116E-04  0.62102723E-04  0.54041830E-04
  0.45895612E-04  0.37730005E-04  0.29608325E-04  0.21590920E-04  0.13734865E-04
  0.60936819E-05 -0.12829004E-05 -0.83491496E-05 -0.15063499E-04 -0.21388680E-04
 -0.27291819E-04 -0.32744505E-04 -0.37722814E-04 -0.42207307E-04 -0.46183000E-04
 -0.49639295E-04 -0.52569891E-04 -0.54972662E-04 -0.56849516E-04 -0.58206224E-04
 -0.59052235E-04 -0.59400470E-04 -0.59267092E-04 -0.58671274E-04 -0.57634942E-04
 -0.56182516E-04 -0.54340641E-04 -0.52137908E-04 -0.49604573E-04 -0.46772279E-04
 -0.43673770E-04 -0.40342614E-04 -0.36812925E-04 -0.33119092E-04 -0.29295520E-04
 -0.25376371E-04 -0.21395325E-04 -0.17385344E-04 -0.13378460E-04 -0.94055632E-05
 -0.54962180E-05 -0.16784877E-05  0.20212220E-05  0.55783023E-05  0.89700628E-05
  0.12175836E-04  0.15177062E-04  0.17957357E-04  0.20502564E-04  0.22800782E-04
  0.24842381E-04  0.26620003E-04  0.28128538E-04  0.29365092E-04  0.30328936E-04
  0.31021442E-04  0.31446007E-04  0.31607962E-04  0.31514467E-04  0.31174408E-04
  0.30598269E-04  0.29798006E-04  0.28786911E-04  0.27579472E-04  0.26191225E-04
  0.24638610E-04  0.22938812E-04  0.21109615E-04  0.19169250E-04  0.17136242E-04
  0.15029261E-04  0.12866981E-04  0.10667934E-04  0.84503804E-05  0.62321745E-05
  0.40306442E-05  0.18624751E-05 -0.25639648E-06 -0.23108821E-05 -0.42868303E-05
 -0.61711067E-05 -0.79516640E-05 -0.96176014E-05 -0.11159215E-04 -0.12568036E-04
 -0.13836860E-04 -0.14959768E-04 -0.15932132E-04 -0.16750614E-04 -0.17413158E-04
 -0.17918965E-04 -0.18268470E-04 -0.18463299E-04 -0.18506228E-04 -0.18401127E-04
 -0.18152902E-04 -0.17767430E-04 -0.17251486E-04 -0.16612670E-04 -0.15859322E-04
 -0.15000443E-04 -0.14045608E-04 -0.13004874E-04 -0.11888696E-04 -0.10707831E-04
 -0.94732514E-05 -0.81960552E-05 -0.68873769E-05 -0.55583019E-05 -0.42197831E-05
 -0.28825604E-05 -0.15570843E-05 -0.25344324E-06  0.10187041E-05  0.22501919E-05
  0.34324047E-05  0.45573293E-05  0.56176012E-05  0.66065439E-05  0.75182034E-05
  0.83473753E-05  0.90896262E-05  0.97413081E-05  0.10299567E-04  0.10762345E-04
  0.11128376E-04  0.11397178E-04  0.11569033E-04  0.11644972E-04  0.11626742E-04
  0.11516783E-04  0.11318185E-04  0.11034653E-04  0.10670462E-04  0.10230409E-04
  0.97197690E-05  0.91442356E-05  0.85098724E-05  0.78230555E-05  0.70904176E-05
  0.63187903E-05  0.55151472E-05  0.46865467E-05  0.38400758E-05  0.29827944E-05
  0.21216820E-05  0.12635854E-05  0.41516919E-06 -0.41713149E-06 -0.12271553E-05
 -0.20090559E-05 -0.27573398E-05 -0.34669008E-05 -0.41330504E-05 -0.47515445E-05
 -0.53186063E-05 -0.58309445E-05 -0.62857681E-05 -0.66807964E-05 -0.70142653E-05
 -0.72849295E-05 -0.74920602E-05 -0.76354395E-05 -0.77153505E-05 -0.77325642E-05
 -0.76883227E-05 -0.75843191E-05 -0.74226746E-05 -0.72059128E-05 -0.69369311E-05
 -0.66189703E-05 -0.62555822E-05 -0.58505951E-05 -0.54080784E-05 -0.49323058E-05
 -0.44277180E-05 -0.38988844E-05 -0.33504657E-05 -0.27871749E-05 -0.22137406E-05
 -0.16348697E-05 -0.10552114E-05 -0.47932269E-06  0.88365189E-07  0.64357823E-06
  0.11822294E-05  0.17004466E-05  0.21945975E-05  0.26613133E-05  0.30975089E-05
  0.35004010E-05  0.38675232E-05  0.41967386E-05  0.44862495E-05  0.47346043E-05
  0.49407016E-05  0.51037912E-05  0.52234733E-05  0.52996938E-05  0.53327378E-05
  0.53232207E-05  0.52720763E-05  0.51805434E-05  0.50501497E-05  0.48826945E-05
  0.46802288E-05  0.44450348E-05  0.41796031E-05  0.38866097E-05  0.35688909E-05
  0.32294191E-05  0.28712759E-05  0.24976271E-05  0.21116958E-05  0.17167366E-05
  0.13160099E-05  0.91275624E-06  0.51017189E-06  0.11138481E-06 -0.28056811E-06
 -0.66276276E-06 -0.10324083E-05 -0.13868659E-05 -0.17236665E-05 -0.20405264E-05
 -0.23353612E-05 -0.26062982E-05 -0.28516866E-05 -0.30701062E-05 -0.32603735E-05
 -0.34215467E-05 -0.35529277E-05 -0.36540634E-05 -0.37247442E-05 -0.37650006E-05
 -0.37750989E-05 -0.37555342E-05 -0.37070221E-05 -0.36304893E-05 -0.35270620E-05
 -0.33980536E-05 -0.32449508E-05 -0.30693989E-05 -0.28731859E-05 -0.26582262E-05
 -0.24265432E-05 -0.21802516E-05 -0.19215393E-05 -0.16526492E-05 -0.13758608E-05
 -0.10934717E-05 -0.80777982E-06 -0.52106544E-06 -0.23557392E-06  0.46500925E-07
  0.32303285E-06  0.59197830E-06  0.85139064E-06  0.10994334E-05  0.13343923E-05
  0.15546863E-05  0.17588773E-05  0.19456785E-05  0.21139616E-05  0.22627623E-05
  0.23912852E-05  0.24989062E-05  0.25851744E-05  0.26498126E-05  0.26927156E-05
  0.27139485E-05  0.27137426E-05  0.26924904E-05  0.26507403E-05  0.25891886E-05
  0.25086721E-05  0.24101587E-05  0.22947374E-05  0.21636081E-05  0.20180699E-05
  0.18595095E-05  0.16893889E-05  0.15092324E-05  0.13206143E-05  0.11251453E-05
  0.92445967E-06  0.72020236E-06  0.51401584E-06  0.30752769E-06  0.10233826E-06
 -0.99991124E-07 -0.29794950E-06 -0.49008694E-06 -0.67502464E-06 -0.85146425E-06
 -0.10181963E-05 -0.11741082E-05 -0.13181904E-05 -0.14495431E-05 -0.15673805E-05
 -0.16710353E-05 -0.17599613E-05 -0.18337354E-05 -0.18920592E-05 -0.19347581E-05
 -0.19617812E-05 -0.19731992E-05 -0.19692015E-05 -0.19500928E-05 -0.19162885E-05
 -0.18683098E-05 -0.18067775E-05 -0.17324055E-05 -0.16459937E-05 -0.15484203E-05
 -0.14406337E-05 -0.13236439E-05 -0.11985135E-05 -0.10663488E-05 -0.92829045E-06
 -0.78550407E-06 -0.63917086E-06 -0.49047826E-06 -0.34061073E-06 -0.19074072E-06
 -0.42019840E-07  0.10442952E-06  0.24752233E-06  0.38621856E-06  0.51953036E-06
  0.64652869E-06  0.76634940E-06  0.87819869E-06  0.98135793E-06  0.10751879E-05
  0.11591321E-05  0.12327198E-05  0.12955680E-05  0.13473825E-05  0.13879592E-05
  0.14171835E-05  0.14350299E-05  0.14415605E-05  0.14369229E-05  0.14213480E-05
  0.13951458E-05  0.13587028E-05  0.13124768E-05  0.12569925E-05  0.11928363E-05
  0.11206506E-05  0.10411280E-05  0.95500518E-06  0.86305628E-06  0.76608647E-06
  0.66492522E-06  0.56041950E-06  0.45342705E-06  0.34480960E-06  0.23542620E-06
  0.12612677E-06  0.17745696E-07 -0.88904232E-07 -0.19303765E-06 -0.29390214E-06
 -0.39078338E-06 -0.48300997E-06 -0.56995775E-06 -0.65105375E-06 -0.72577969E-06
 -0.79367495E-06 -0.85433907E-06 -0.90743376E-06 -0.95268441E-06 -0.98988101E-06
 -0.10188787E-05 -0.10395976E-05 -0.10520226E-05 -0.10562017E-05 -0.10522455E-05
 -0.10403243E-05 -0.10206663E-05 -0.99355476E-06 -0.95932486E-06 -0.91836022E-06
 -0.87108912E-06 -0.81798051E-06 -0.75953971E-06 -0.69630391E-06 -0.62883757E-06
 -0.55772759E-06 -0.48357851E-06 -0.40700758E-06 -0.32863980E-06 -0.24910313E-06
 -0.16902355E-06 -0.89020418E-07 -0.97018281E-08  0.68339806E-07  0.14453198E-06
  0.21832612E-06  0.28920131E-06  0.35666782E-06  0.42027024E-06  0.47959038E-06
  0.53424980E-06  0.58391199E-06  0.62828421E-06  0.66711896E-06  0.70021507E-06
  0.72741845E-06  0.74862243E-06  0.76376777E-06  0.77284229E-06  0.77588014E-06
  0.77296077E-06  0.76420754E-06  0.74978601E-06  0.72990200E-06  0.70479930E-06
  0.67475721E-06  0.64008777E-06  0.60113288E-06  0.55826115E-06  0.51186469E-06
  0.46235571E-06  0.41016305E-06  0.35572868E-06  0.29950409E-06  0.24194669E-06
  0.18351632E-06  0.12467163E-06  0.65866695E-07  0.75476033E-08 -0.49850753E-07
 -0.10590780E-06 -0.16022023E-06 -0.21240475E-06 -0.26210065E-06 -0.30897217E-06
 -0.35271061E-06 -0.39303620E-06 -0.42969975E-06 -0.46248402E-06 -0.49120482E-06
 -0.51571185E-06 -0.53588926E-06 -0.55165599E-06 -0.56296574E-06 -0.56980680E-06
 -0.57220151E-06 -0.57020555E-06 -0.56390695E-06 -0.55342491E-06 -0.53890833E-06
 -0.52053425E-06 -0.49850599E-06 -0.47305120E-06 -0.44441975E-06 -0.41288143E-06
 -0.37872362E-06 -0.34224881E-06 -0.30377206E-06 -0.26361842E-06 -0.22212030E-06
 -0.17961482E-06 -0.13644122E-06 -0.92938246E-07 -0.49441571E-07 -0.62813459E-08
  0.36220228E-07  0.77751197E-07  0.11801205E-06  0.15671777E-06  0.19359977E-06
  0.22840763E-06  0.26091073E-06  0.29089963E-06  0.31818734E-06  0.34261035E-06
  0.36402952E-06  0.38233069E-06  0.39742518E-06  0.40925001E-06  0.41776801E-06
  0.42296766E-06  0.42486277E-06  0.42349194E-06  0.41891795E-06  0.41122681E-06
  0.40052680E-06  0.38694727E-06  0.37063733E-06  0.35176443E-06  0.33051278E-06
  0.30708170E-06  0.28168388E-06  0.25454355E-06  0.22589462E-06  0.19597876E-06
  0.16504344E-06  0.13333995E-06  0.10112149E-06  0.68641207E-07  0.36150251E-07
  0.38959502E-08 -0.27880020E-07 -0.58943373E-07 -0.89068862E-07 -0.11804185E-06
 -0.14565977E-06 -0.17173346E-06 -0.19608839E-06 -0.21856577E-06 -0.23902350E-06
 -0.25733696E-06 -0.27339976E-06 -0.28712418E-06 -0.29844161E-06 -0.30730276E-06
 -0.31367773E-06 -0.31755596E-06 -0.31894599E-06 -0.31787515E-06 -0.31438905E-06
 -0.30855092E-06 -0.30044096E-06 -0.29015539E-06 -0.27780552E-06 -0.26351670E-06
 -0.24742712E-06 -0.22968662E-06 -0.21045535E-06 -0.18990241E-06 -0.16820446E-06
 -0.14554424E-06 -0.12210911E-06 -0.98089586E-07 -0.73677807E-07 -0.49066089E-07
 -0.24445452E-07 -0.41939543E-11  0.24073497E-07  0.47608878E-07  0.70429932E-07
  0.92372570E-07  0.11328177E-06  0.13301260E-06  0.15143121E-06  0.16841567E-06
  0.18385670E-06  0.19765838E-06  0.20973863E-06  0.22002967E-06  0.22847833E-06
  0.23504624E-06  0.23970991E-06  0.24246073E-06  0.24330479E-06  0.24226266E-06
  0.23936901E-06  0.23467217E-06  0.22823355E-06  0.22012704E-06  0.21043822E-06
  0.19926359E-06  0.18670968E-06  0.17289208E-06  0.15793447E-06  0.14196754E-06
  0.12512795E-06  0.10755713E-06  0.89400221E-07  0.70804865E-07  0.51920075E-07
  0.32895073E-07  0.13878150E-07 -0.49844489E-08 -0.23549612E-07 -0.41678414E-07
 -0.59237115E-07 -0.76098116E-07 -0.92140850E-07 -0.10725261E-06 -0.12132931E-06
 -0.13427617E-06 -0.14600829E-06 -0.15645123E-06 -0.16554139E-06 -0.17322637E-06
 -0.17946526E-06 -0.18422875E-06 -0.18749927E-06 -0.18927091E-06 -0.18954938E-06
 -0.18835178E-06 -0.18570634E-06 -0.18165207E-06 -0.17623831E-06 -0.16952425E-06
 -0.16157835E-06 -0.15247766E-06 -0.14230720E-06 -0.13115913E-06 -0.11913203E-06
 -0.10633003E-06 -0.92861916E-07 -0.78840313E-07 -0.64380715E-07 -0.49600587E-07
 -0.34618443E-07 -0.19552918E-07 -0.45218588E-08  0.10358569E-07  0.24974756E-07
  0.39216488E-07  0.52977753E-07  0.66157507E-07  0.78660392E-07  0.90397402E-07
  0.10128649E-06  0.11125313E-06  0.12023078E-06  0.12816134E-06  0.13499544E-06
  0.14069281E-06  0.14522239E-06  0.14856254E-06  0.15070105E-06  0.15163516E-06
  0.15137146E-06  0.14992574E-06  0.14732277E-06  0.14359598E-06  0.13878716E-06
  0.13294600E-06  0.12612963E-06  0.11840213E-06  0.10983390E-06  0.10050111E-06
  0.90485010E-07  0.79871263E-07  0.68749236E-07  0.57211265E-07  0.45351917E-07
  0.33267232E-07  0.21053967E-07  0.88088409E-08 -0.33722127E-08 -0.15394778E-07
 -0.27166669E-07 -0.38598625E-07 -0.49604960E-07 -0.60104199E-07 -0.70019657E-07
 -0.79279986E-07 -0.87819671E-07 -0.95579478E-07 -0.10250685E-06 -0.10855624E-06
 -0.11368939E-06 -0.11787559E-06 -0.12109177E-06 -0.12332267E-06 -0.12456084E-06
 -0.12480663E-06 -0.12406813E-06 -0.12236100E-06 -0.11970827E-06 -0.11614014E-06
 -0.11169362E-06 -0.10641221E-06 -0.10034547E-06 -0.93548608E-07 -0.86081985E-07
 -0.78010591E-07 -0.69403503E-07 -0.60333308E-07 -0.50875506E-07 -0.41107897E-07
 -0.31109955E-07 -0.20962195E-07 -0.10745538E-07 -0.54067884E-09  0.95725367E-08
  0.19515727E-07  0.29212568E-07  0.38589368E-07  0.47575614E-07  0.56104493E-07
  0.64113376E-07  0.71544266E-07  0.78344206E-07  0.84465648E-07  0.89866768E-07
  0.94511747E-07  0.98370988E-07  0.10142129E-06  0.10364599E-06  0.10503500E-06
  0.10558486E-06  0.10529867E-06  0.10418606E-06  0.10226301E-06  0.99551690E-07
  0.96080225E-07  0.91882438E-07  0.86997523E-07  0.81469703E-07  0.75347834E-07
  0.68684992E-07  0.61538020E-07  0.53967051E-07  0.46035019E-07  0.37807137E-07
  0.29350375E-07  0.20732923E-07  0.12023650E-07  0.32915582E-08 -0.53947484E-08
 -0.13967600E-07 -0.22360778E-07 -0.30510018E-07 -0.38353495E-07 -0.45832283E-07
 -0.52890793E-07 -0.59477172E-07 -0.65543682E-07 -0.71047033E-07 -0.75948687E-07
 -0.80215118E-07 -0.83818029E-07 -0.86734535E-07 -0.88947292E-07 -0.90444589E-07
 -0.91220395E-07 -0.91274357E-07 -0.90611759E-07 -0.89243433E-07 -0.87185633E-07
 -0.84459863E-07 -0.81092667E-07 -0.77115385E-07 -0.72563866E-07 -0.67478158E-07
 -0.61902159E-07 -0.55883246E-07 -0.49471880E-07 -0.42721187E-07 -0.35686524E-07
 -0.28425031E-07 -0.20995172E-07 -0.13456269E-07 -0.58680349E-08  0.17098951E-08
   24.7554104503839      T
 Non local Part
           0           2  0.822761192440682     
  -3.76715725881036        6.23614448151379        6.23614448151379     
  -9.65940704683246     
 Reciprocal Space Part
  0.14049099E+02  0.13996368E+02  0.13838635E+02  0.13577281E+02  0.13214595E+02
  0.12753759E+02  0.12198825E+02  0.11554682E+02  0.10827024E+02  0.10022298E+02
  0.91476612E+01  0.82109151E+01  0.72204431E+01  0.61851357E+01  0.51143110E+01
  0.40176277E+01  0.29049926E+01  0.17864624E+01  0.67214108E+00 -0.42792627E+00
 -0.15038619E+01 -0.25460651E+01 -0.35453216E+01 -0.44929107E+01 -0.53807098E+01
 -0.62012926E+01 -0.69480211E+01 -0.76151294E+01 -0.81977964E+01 -0.86922077E+01
 -0.90956040E+01 -0.94063155E+01 -0.96237811E+01 -0.97485519E+01 -0.97822779E+01
 -0.97276788E+01 -0.95884983E+01 -0.93694427E+01 -0.90761046E+01 -0.87148726E+01
 -0.82928287E+01 -0.78176354E+01 -0.72974136E+01 -0.67406140E+01 -0.61558844E+01
 -0.55519350E+01 -0.49374040E+01 -0.43207269E+01 -0.37100106E+01 -0.31129154E+01
 -0.25365475E+01 -0.19873625E+01 -0.14710828E+01 -0.99263023E+00 -0.55607435E+00
 -0.16459760E+00  0.17952231E+00  0.47491295E+00  0.72109086E+00  0.91842916E+00
  0.10681101E+01  0.11720639E+01  0.12328955E+01  0.12538010E+01  0.12384760E+01
  0.11910175E+01  0.11158229E+01  0.10174863E+01  0.90069605E+00  0.77013572E+00
  0.63038888E+00  0.48585153E+00  0.34065255E+00  0.19858413E+00  0.63043147E-01
 -0.63015684E-01 -0.17711430E+00 -0.27727322E+00 -0.36202102E+00 -0.43039171E+00
 -0.48191064E+00 -0.51656989E+00 -0.53479421E+00 -0.53739885E+00 -0.52554067E+00
 -0.50066411E+00 -0.46444363E+00 -0.41872414E+00 -0.36546115E+00 -0.30666202E+00
 -0.24432984E+00 -0.18041107E+00 -0.11674822E+00 -0.55038396E-01  0.32015738E-02
  0.56662845E-01  0.10426487E+00  0.14516817E+00  0.17877979E+00  0.20475161E+00
 Real Space Part
 -0.18147141E+03 -0.18129490E+03 -0.18076607E+03 -0.17988701E+03 -0.17866116E+03
 -0.17709333E+03 -0.17518965E+03 -0.17295752E+03 -0.17040558E+03 -0.16754364E+03
 -0.16438263E+03 -0.16093454E+03 -0.15721232E+03 -0.15322982E+03 -0.14900171E+03
 -0.14454338E+03 -0.13987087E+03 -0.13500078E+03 -0.12995015E+03 -0.12473642E+03
 -0.11937729E+03 -0.11389069E+03 -0.10829462E+03 -0.10260714E+03 -0.96846258E+02
 -0.91029844E+02 -0.85175587E+02 -0.79300914E+02 -0.73422933E+02 -0.67558382E+02
 -0.61723574E+02 -0.55934361E+02 -0.50206093E+02 -0.44553585E+02 -0.38991098E+02
 -0.33532313E+02 -0.28190315E+02 -0.22977591E+02 -0.17906013E+02 -0.12986847E+02
 -0.82307496E+01 -0.36477739E+01  0.75262084E+00  0.49615600E+01  0.89707414E+01
  0.12772423E+02  0.16359409E+02  0.19725037E+02  0.22863168E+02  0.25768168E+02
  0.28434908E+02  0.30858750E+02  0.33035543E+02  0.34961623E+02  0.36633811E+02
  0.38049418E+02  0.39206253E+02  0.40102631E+02  0.40737388E+02  0.41109899E+02
  0.41220094E+02  0.41068478E+02  0.40656158E+02  0.39984865E+02  0.39056975E+02
  0.37875537E+02  0.36444293E+02  0.34767698E+02  0.32850940E+02  0.30699950E+02
  0.28321415E+02  0.25722778E+02  0.22912238E+02  0.19898749E+02  0.16692136E+02
  0.13303714E+02  0.97383972E+01  0.58929839E+01  0.40055972E+01  0.26183641E+01
  0.13587512E+01  0.20235520E+00 -0.83938208E+00 -0.17572344E+01 -0.25438973E+01
 -0.31933150E+01 -0.37006265E+01 -0.40621501E+01 -0.42753531E+01 -0.43388137E+01
 -0.42521824E+01 -0.40161360E+01 -0.36322808E+01 -0.31031162E+01 -0.24337141E+01
 -0.16203515E+01 -0.66153330E+00  0.68177801E-01 -0.10107558E-01  0.00000000E+00
 Reciprocal Space Part
  0.89447909E+01  0.89055426E+01  0.87881425E+01  0.85936222E+01  0.83236940E+01
  0.79807396E+01  0.75677944E+01  0.70885266E+01  0.65472121E+01  0.59487037E+01
  0.52983946E+01  0.46021766E+01  0.38663934E+01  0.30977864E+01  0.23034368E+01
  0.14907007E+01  0.66713973E+00 -0.15955312E+00 -0.98163224E+00 -0.17913813E+01
 -0.25811977E+01 -0.33436792E+01 -0.40717099E+01 -0.47585467E+01 -0.53979027E+01
 -0.59840271E+01 -0.65117811E+01 -0.69767059E+01 -0.73750842E+01 -0.77039922E+01
 -0.79613406E+01 -0.81459055E+01 -0.82573461E+01 -0.82962098E+01 -0.82639239E+01
 -0.81627739E+01 -0.79958681E+01 -0.77670889E+01 -0.74810324E+01 -0.71429353E+01
 -0.67585922E+01 -0.63342634E+01 -0.58765752E+01 -0.53924148E+01 -0.48888210E+01
 -0.43728736E+01 -0.38515827E+01 -0.33317805E+01 -0.28200176E+01 -0.23224658E+01
 -0.18448286E+01 -0.13922625E+01 -0.96930823E+00 -0.57983609E+00 -0.22700348E+00
  0.86772836E-01  0.35983033E+00  0.59125975E+00  0.78089010E+00  0.92926003E+00
  0.10375767E+01  0.11076629E+01  0.11418943E+01  0.11431280E+01  0.11146243E+01
  0.10599634E+01  0.98295938E+00  0.88757231E+00  0.77782210E+00  0.65770431E+00
  0.53111061E+00  0.40175505E+00  0.27310788E+00  0.14833769E+00  0.30263200E-01
 -0.78684872E-01 -0.17649128E+00 -0.26157296E+00 -0.33278509E+00 -0.38941681E+00
 -0.43117720E+00 -0.45817234E+00 -0.47087439E+00 -0.47008390E+00 -0.45688649E+00
 -0.43260539E+00 -0.39875107E+00 -0.35696948E+00 -0.30899021E+00 -0.25657585E+00
 -0.20147381E+00 -0.14537166E+00 -0.89856983E-01 -0.36382383E-01  0.13763552E-01
  0.59479077E-01  0.99865600E-01  0.13423745E+00  0.16212525E+00  0.18327315E+00
 Real Space Part
 -0.14926142E+03 -0.14913025E+03 -0.14873722E+03 -0.14808367E+03 -0.14717190E+03
 -0.14600504E+03 -0.14458715E+03 -0.14292308E+03 -0.14101854E+03 -0.13888002E+03
 -0.13651475E+03 -0.13393067E+03 -0.13113640E+03 -0.12814118E+03 -0.12495480E+03
 -0.12158760E+03 -0.11805037E+03 -0.11435433E+03 -0.11051105E+03 -0.10653242E+03
 -0.10243058E+03 -0.98217871E+02 -0.93906799E+02 -0.89509962E+02 -0.85040018E+02
 -0.80509636E+02 -0.75931451E+02 -0.71318030E+02 -0.66681828E+02 -0.62035162E+02
 -0.57390172E+02 -0.52758802E+02 -0.48152770E+02 -0.43583550E+02 -0.39062353E+02
 -0.34600113E+02 -0.30207473E+02 -0.25894779E+02 -0.21672069E+02 -0.17549070E+02
 -0.13535194E+02 -0.96395348E+01 -0.58708682E+01 -0.22376502E+01  0.12519825E+01
  0.45902135E+01  0.77695472E+01  0.10782811E+02  0.13623159E+02  0.16284074E+02
  0.18759378E+02  0.21043238E+02  0.23130178E+02  0.25015090E+02  0.26693254E+02
  0.28160353E+02  0.29412497E+02  0.30446243E+02  0.31258624E+02  0.31847173E+02
  0.32209958E+02  0.32345605E+02  0.32253333E+02  0.31932985E+02  0.31385057E+02
  0.30610726E+02  0.29611877E+02  0.28391127E+02  0.26951844E+02  0.25298162E+02
  0.23434991E+02  0.21368022E+02  0.19103720E+02  0.16649327E+02  0.14012957E+02
  0.11204111E+02  0.82269791E+01  0.49940825E+01  0.34068124E+01  0.22349937E+01
  0.11638961E+01  0.17393777E+00 -0.72397852E+00 -0.15207495E+01 -0.22088475E+01
 -0.27817722E+01 -0.32340276E+01 -0.35611290E+01 -0.37595969E+01 -0.38269419E+01
 -0.37616477E+01 -0.35631465E+01 -0.32317459E+01 -0.27686097E+01 -0.21772832E+01
 -0.14534521E+01 -0.59488984E+00  0.61345734E-01 -0.90946839E-02  0.00000000E+00
 Non local Part
           1           2  0.822761192440682     
   11.3210669830020       -16.0555808873410       -16.0555808873410     
   22.4496493562910     
 Reciprocal Space Part
  0.00000000E+00  0.89638238E+00  0.17764352E+01  0.26241421E+01  0.34241072E+01
  0.41618485E+01  0.48240726E+01  0.53989249E+01  0.58762095E+01  0.62475745E+01
  0.65066598E+01  0.66492034E+01  0.66731051E+01  0.65784461E+01  0.63674648E+01
  0.60444899E+01  0.56158314E+01  0.50896344E+01  0.44756973E+01  0.37852594E+01
  0.30307629E+01  0.22255945E+01  0.13838128E+01  0.51986596E+00 -0.35169188E+00
 -0.12164816E+01 -0.20605704E+01 -0.28707283E+01 -0.36346645E+01 -0.43412393E+01
 -0.49806475E+01 -0.55445697E+01 -0.60262894E+01 -0.64207749E+01 -0.67247232E+01
 -0.69365683E+01 -0.70564532E+01 -0.70861673E+01 -0.70290528E+01 -0.68898810E+01
 -0.66747041E+01 -0.63906857E+01 -0.60459135E+01 -0.56492005E+01 -0.52098785E+01
 -0.47375888E+01 -0.42420748E+01 -0.37329816E+01 -0.32196653E+01 -0.27110182E+01
 -0.22153106E+01 -0.17400542E+01 -0.12918878E+01 -0.87648799E+00 -0.49850506E+00
 -0.16152474E+00  0.13194439E+00  0.38045887E+00  0.58360514E+00  0.74194295E+00
  0.85692984E+00  0.93082939E+00  0.96660619E+00  0.96781068E+00  0.93845726E+00
  0.88289873E+00  0.80570057E+00  0.71151788E+00  0.60497799E+00  0.49057128E+00
  0.37255244E+00  0.25485407E+00  0.14101406E+00  0.34117790E-01 -0.63244255E-01
 -0.14900326E+00 -0.22162352E+00 -0.28009916E+00 -0.32393715E+00 -0.35312785E+00
 -0.36810470E+00 -0.36969481E+00 -0.35906231E+00 -0.33764653E+00 -0.30709698E+00
 -0.26920716E+00 -0.22584913E+00 -0.17891058E+00 -0.13023607E+00 -0.81573809E-01
 -0.34529187E-01  0.94741198E-02  0.49224732E-01  0.83745545E-01  0.11230699E+00
  0.13443176E+00  0.14989136E+00  0.15869523E+00  0.16107313E+00  0.15745174E+00
 Real Space Part
  0.00000000E+00 -0.33236046E+01 -0.66342244E+01 -0.99189466E+01 -0.13165002E+02
 -0.16359834E+02 -0.19491167E+02 -0.22547074E+02 -0.25516033E+02 -0.28386988E+02
 -0.31149403E+02 -0.33793312E+02 -0.36309355E+02 -0.38688828E+02 -0.40923704E+02
 -0.43006669E+02 -0.44931136E+02 -0.46691267E+02 -0.48281978E+02 -0.49698949E+02
 -0.50938620E+02 -0.51998186E+02 -0.52875593E+02 -0.53569521E+02 -0.54079369E+02
 -0.54405239E+02 -0.54547912E+02 -0.54508827E+02 -0.54290054E+02 -0.53894277E+02
 -0.53324759E+02 -0.52585325E+02 -0.51680332E+02 -0.50614652E+02 -0.49393643E+02
 -0.48023130E+02 -0.46509390E+02 -0.44859126E+02 -0.43079459E+02 -0.41177906E+02
 -0.39162373E+02 -0.37041137E+02 -0.34822839E+02 -0.32516469E+02 -0.30131362E+02
 -0.27677177E+02 -0.25163896E+02 -0.22601803E+02 -0.20001471E+02 -0.17373745E+02
 -0.14729720E+02 -0.12080715E+02 -0.94382458E+01 -0.68139910E+01 -0.42197495E+01
 -0.16673979E+01  0.83116202E+00  0.32640612E+01  0.56195271E+01  0.78859546E+01
  0.10051983E+02  0.12106577E+02  0.14039118E+02  0.15839495E+02  0.17498199E+02
  0.19006426E+02  0.20356179E+02  0.21540363E+02  0.22552894E+02  0.23388789E+02
  0.24044266E+02  0.24516830E+02  0.24805348E+02  0.24910129E+02  0.24832976E+02
  0.24577238E+02  0.24147845E+02  0.23551321E+02  0.22795797E+02  0.21890988E+02
  0.20848168E+02  0.19680125E+02  0.18401090E+02  0.17026663E+02  0.15573708E+02
  0.14060256E+02  0.12505359E+02  0.10928973E+02  0.93517953E+01  0.77951167E+01
  0.62806542E+01  0.48303864E+01  0.34663422E+01  0.22104452E+01  0.10858741E+01
  0.10693564E+00 -0.71133142E+00 -0.10183016E+01 -0.12448517E+00  0.00000000E+00
 Reciprocal Space Part
  0.00000000E+00  0.57863690E+00  0.11450104E+01  0.16871025E+01  0.21933803E+01
  0.26530259E+01  0.30561508E+01  0.33939908E+01  0.36590761E+01  0.38453756E+01
  0.39484095E+01  0.39653297E+01  0.38949666E+01  0.37378406E+01  0.34961387E+01
  0.31736574E+01  0.27757131E+01  0.23090218E+01  0.17815521E+01  0.12023538E+01
  0.58136639E+00 -0.70787267E-01 -0.74301923E+00 -0.14240004E+01 -0.21023857E+01
 -0.27670362E+01 -0.34072326E+01 -0.40128760E+01 -0.45746723E+01 -0.50842963E+01
 -0.55345318E+01 -0.59193863E+01 -0.62341777E+01 -0.64755914E+01 -0.66417089E+01
 -0.67320056E+01 -0.67473205E+01 -0.66897985E+01 -0.65628075E+01 -0.63708319E+01
 -0.61193475E+01 -0.58146785E+01 -0.54638424E+01 -0.50743856E+01 -0.46542138E+01
 -0.42114208E+01 -0.37541199E+01 -0.32902821E+01 -0.28275828E+01 -0.23732617E+01
 -0.19339979E+01 -0.15158023E+01 -0.11239295E+01 -0.76280951E+00 -0.43600124E+00
 -0.14616691E+00  0.10493246E+00  0.31642150E+00  0.48827599E+00  0.62127115E+00
  0.71691474E+00  0.77736720E+00  0.80535137E+00  0.80405446E+00  0.77702489E+00
  0.72806684E+00  0.66113508E+00  0.58023271E+00  0.48931396E+00  0.39219434E+00
  0.29246989E+00  0.19344700E+00  0.98083904E-01  0.89448483E-02 -0.71832886E-01
 -0.14255882E+00 -0.20199638E+00 -0.24935768E+00 -0.28428711E+00 -0.30683452E+00
 -0.31741969E+00 -0.31678924E+00 -0.30596789E+00 -0.28620555E+00 -0.25892203E+00
 -0.22565103E+00 -0.18798503E+00 -0.14752243E+00 -0.10581852E+00 -0.64341144E-01
 -0.24432310E-01  0.12723823E-01  0.46125833E-01  0.74972653E-01  0.98673845E-01
  0.11685268E+00  0.12934244E+00  0.13617641E+00  0.13757236E+00  0.13391230E+00
 Real Space Part
  0.00000000E+00 -0.33376808E+01 -0.66624142E+01 -0.99613274E+01 -0.13221697E+02
 -0.16431021E+02 -0.19577088E+02 -0.22648049E+02 -0.25632477E+02 -0.28519427E+02
 -0.31298493E+02 -0.33959860E+02 -0.36494342E+02 -0.38893430E+02 -0.41149316E+02
 -0.43254926E+02 -0.45203939E+02 -0.46990801E+02 -0.48610734E+02 -0.50059743E+02
 -0.51334608E+02 -0.52432880E+02 -0.53352870E+02 -0.54093631E+02 -0.54654939E+02
 -0.55037272E+02 -0.55241782E+02 -0.55270268E+02 -0.55125149E+02 -0.54809430E+02
 -0.54326677E+02 -0.53680981E+02 -0.52876931E+02 -0.51919582E+02 -0.50814432E+02
 -0.49567388E+02 -0.48184750E+02 -0.46673176E+02 -0.45039674E+02 -0.43291571E+02
 -0.41436502E+02 -0.39482394E+02 -0.37437449E+02 -0.35310130E+02 -0.33109154E+02
 -0.30843477E+02 -0.28522280E+02 -0.26154963E+02 -0.23751125E+02 -0.21320557E+02
 -0.18873219E+02 -0.16419225E+02 -0.13968818E+02 -0.11532347E+02 -0.91202338E+01
 -0.67429407E+01 -0.44109300E+01 -0.21346187E+01  0.75671386E-01  0.22097693E+01
  0.42577164E+01  0.62098327E+01  0.80567882E+01  0.97896787E+01  0.11400105E+02
  0.12880256E+02  0.14222994E+02  0.15421937E+02  0.16471550E+02  0.17367221E+02
  0.18105350E+02  0.18683422E+02  0.19100078E+02  0.19355180E+02  0.19449864E+02
  0.19386592E+02  0.19169176E+02  0.18802806E+02  0.18294062E+02  0.17650900E+02
  0.16882639E+02  0.15999924E+02  0.15014674E+02  0.13940029E+02  0.12790254E+02
  0.11580671E+02  0.10327533E+02  0.90479275E+01  0.77596420E+01  0.64810368E+01
  0.52309037E+01  0.40283255E+01  0.28924937E+01  0.18425732E+01  0.89886897E+00
  0.74129205E-01 -0.61821428E+00 -0.87656930E+00 -0.10707909E+00  0.00000000E+00
 PAW radial sets
         371  0.716670123244029     
(5E20.12)                                
 augmentation charges (non sperical)
 -0.154768725463E+00  0.199154045064E+00  0.117161181707E+00 -0.138952201597E+00  0.199154045064E+00
 -0.257064360564E+00 -0.144859544145E+00  0.172387103373E+00  0.117161181707E+00 -0.144859544145E+00
  0.299794760835E+00 -0.379750918414E+00 -0.138952201597E+00  0.172387103373E+00 -0.379750918414E+00
  0.482645478405E+00
 uccopancies in atom
  0.199999999989E+01  0.000000000000E+00  0.000000000000E+00  0.000000000000E+00  0.000000000000E+00
  0.000000000000E+00  0.000000000000E+00  0.000000000000E+00  0.000000000000E+00  0.000000000000E+00
  0.166666666611E+01  0.000000000000E+00  0.000000000000E+00  0.000000000000E+00  0.000000000000E+00
  0.000000000000E+00
 grid
  0.310118979148E-04  0.320203274698E-04  0.330615486382E-04  0.341366277214E-04  0.352466656944E-04
  0.363927993331E-04  0.375762023785E-04  0.387980867387E-04  0.400597037301E-04  0.413623453586E-04
  0.427073456433E-04  0.440960819818E-04  0.455299765616E-04  0.470104978159E-04  0.485391619281E-04
  0.501175343836E-04  0.517472315738E-04  0.534299224510E-04  0.551673302377E-04  0.569612341914E-04
  0.588134714264E-04  0.607259387955E-04  0.627005948325E-04  0.647394617576E-04  0.668446275487E-04
  0.690182480797E-04  0.712625493277E-04  0.735798296536E-04  0.759724621547E-04  0.784428970958E-04
  0.809936644183E-04  0.836273763307E-04  0.863467299842E-04  0.891545102345E-04  0.920535924941E-04
  0.950469456763E-04  0.981376352366E-04  0.101328826311E-03  0.104623786958E-03  0.108025891506E-03
  0.111538624006E-03  0.115165581804E-03  0.118910479221E-03  0.122777151360E-03  0.126769558030E-03
  0.130891787806E-03  0.135148062211E-03  0.139542740041E-03  0.144080321830E-03  0.148765454460E-03
  0.153602935914E-03  0.158597720198E-03  0.163754922406E-03  0.169079823964E-03  0.174577878036E-03
  0.180254715112E-03  0.186116148766E-03  0.192168181621E-03  0.198417011487E-03  0.204869037710E-03
  0.211530867731E-03  0.218409323845E-03  0.225511450191E-03  0.232844519969E-03  0.240416042883E-03
  0.248233772833E-03  0.256305715858E-03  0.264640138333E-03  0.273245575435E-03  0.282130839884E-03
  0.291305030966E-03  0.300777543856E-03  0.310558079234E-03  0.320656653223E-03  0.331083607645E-03
  0.341849620614E-03  0.352965717465E-03  0.364443282056E-03  0.376294068413E-03  0.388530212779E-03
  0.401164246034E-03  0.414209106533E-03  0.427678153352E-03  0.441585179973E-03  0.455944428405E-03
  0.470770603775E-03  0.486078889380E-03  0.501884962244E-03  0.518205009167E-03  0.535055743302E-03
  0.552454421273E-03  0.570418860847E-03  0.588967459181E-03  0.608119211660E-03  0.627893731351E-03
  0.648311269091E-03  0.669392734223E-03  0.691159716010E-03  0.713634505742E-03  0.736840119568E-03
  0.760800322065E-03  0.785539650574E-03  0.811083440329E-03  0.837457850403E-03  0.864689890496E-03
  0.892807448597E-03  0.921839319544E-03  0.951815234507E-03  0.982765891445E-03  0.101472298653E-02
  0.104771924663E-02  0.108178846279E-02  0.111696552487E-02  0.115328645725E-02  0.119078845574E-02
  0.122950992567E-02  0.126949052120E-02  0.131077118596E-02  0.135339419495E-02  0.139740319787E-02
  0.144284326377E-02  0.148976092725E-02  0.153820423610E-02  0.158822280051E-02  0.163986784385E-02
  0.169319225517E-02  0.174825064331E-02  0.180509939287E-02  0.186379672196E-02  0.192440274175E-02
  0.198697951812E-02  0.205159113514E-02  0.211830376076E-02  0.218718571454E-02  0.225830753761E-02
  0.233174206495E-02  0.240756449991E-02  0.248585249131E-02  0.256668621289E-02  0.265014844543E-02
  0.273632466157E-02  0.282530311326E-02  0.291717492224E-02  0.301203417325E-02  0.310997801046E-02
  0.321110673691E-02  0.331552391726E-02  0.342333648383E-02  0.353465484611E-02  0.364959300382E-02
  0.376826866368E-02  0.389080335994E-02  0.401732257884E-02  0.414795588711E-02  0.428283706467E-02
  0.442210424164E-02  0.456590003978E-02  0.471437171855E-02  0.486767132592E-02  0.502595585408E-02
  0.518938740023E-02  0.535813333255E-02  0.553236646161E-02  0.571226521738E-02  0.589801383189E-02
  0.608980252796E-02  0.628782771397E-02  0.649229218501E-02  0.670340533058E-02  0.692138334898E-02
  0.714644946875E-02  0.737883417726E-02  0.761877545677E-02  0.786651902810E-02  0.812231860233E-02
  0.838643614057E-02  0.865914212226E-02  0.894071582216E-02  0.923144559634E-02  0.953162917749E-02
  0.984157397984E-02  0.101615974139E-01  0.104920272118E-01  0.108332017623E-01  0.111854704581E-01
  0.115491940530E-01  0.119247450319E-01  0.123125079917E-01  0.127128800357E-01  0.131262711797E-01
  0.135531047724E-01  0.139938179287E-01  0.144488619775E-01  0.149187029235E-01  0.154038219249E-01
  0.159047157861E-01  0.164218974661E-01  0.169558966040E-01  0.175072600618E-01  0.180765524837E-01
  0.186643568750E-01  0.192712751987E-01  0.198979289922E-01  0.205449600038E-01  0.212130308497E-01
  0.219028256929E-01  0.226150509436E-01  0.233504359826E-01  0.241097339086E-01  0.248937223088E-01
  0.257032040561E-01  0.265390081303E-01  0.274019904680E-01  0.282930348384E-01  0.292130537489E-01
  0.301629893791E-01  0.311438145463E-01  0.321565337010E-01  0.332021839562E-01  0.342818361492E-01
  0.353965959380E-01  0.365476049342E-01  0.377360418716E-01  0.389631238133E-01  0.402301073986E-01
  0.415382901294E-01  0.428890116990E-01  0.442836553645E-01  0.457236493627E-01  0.472104683734E-01
  0.487456350292E-01  0.503307214749E-01  0.519673509775E-01  0.536571995886E-01  0.554019978608E-01
  0.572035326202E-01  0.590636487956E-01  0.609842513087E-01  0.629673070242E-01  0.650148467644E-01
  0.671289673889E-01  0.693118339421E-01  0.715656818701E-01  0.738928193099E-01  0.762956294539E-01
  0.787765729894E-01  0.813381906195E-01  0.839831056645E-01  0.867140267484E-01  0.895337505733E-01
  0.924451647825E-01  0.954512509188E-01  0.985550874769E-01  0.101759853057E+00  0.105068829618E+00
  0.108485405843E+00  0.112013080603E+00  0.115655466546E+00  0.119416293793E+00  0.123299413760E+00
  0.127308803101E+00  0.131448567781E+00  0.135722947281E+00  0.140136318939E+00  0.144693202434E+00
  0.149398264412E+00  0.154256323267E+00  0.159272354077E+00  0.164451493696E+00  0.169799046015E+00
  0.175320487394E+00  0.181021472273E+00  0.186907838958E+00  0.192985615603E+00  0.199261026382E+00
  0.205740497865E+00  0.212430665596E+00  0.219338380891E+00  0.226470717855E+00  0.233834980625E+00
  0.241438710848E+00  0.249289695408E+00  0.257395974401E+00  0.265765849364E+00  0.274407891781E+00
  0.283330951858E+00  0.292544167588E+00  0.302056974109E+00  0.311879113368E+00  0.322020644091E+00
  0.332491952094E+00  0.343303760910E+00  0.354467142776E+00  0.365993529972E+00  0.377894726525E+00
  0.390182920299E+00  0.402870695480E+00  0.415971045457E+00  0.429497386135E+00  0.443463569667E+00
  0.457883898646E+00  0.472773140750E+00  0.488146543862E+00  0.504019851692E+00  0.520409319893E+00
  0.537331732714E+00  0.554804420183E+00  0.572845275859E+00  0.591472775156E+00  0.610705994260E+00
  0.630564629668E+00  0.651069018359E+00  0.672240158617E+00  0.694099731541E+00  0.716670123244E+00
  0.739974447779E+00  0.764036570810E+00  0.788881134055E+00  0.814533580516E+00  0.841020180542E+00
  0.868368058724E+00  0.896605221681E+00  0.925760586733E+00  0.955864011524E+00  0.986946324589E+00
  0.101903935694E+01  0.105217597463E+01  0.108639011247E+01  0.112171680871E+01  0.115819224099E+01
  0.119585376333E+01  0.123473994443E+01  0.127489060712E+01  0.131634686920E+01  0.135915118550E+01
  0.140334739139E+01  0.144898074763E+01  0.149609798678E+01  0.154474736100E+01  0.159497869151E+01
  0.164684341957E+01  0.170039465920E+01  0.175568725155E+01  0.181277782107E+01  0.187172483348E+01
  0.193258865569E+01  0.199543161755E+01  0.206031807576E+01  0.212731447972E+01  0.219648943960E+01
  0.226791379660E+01  0.234166069552E+01  0.241780565961E+01  0.249642666797E+01  0.257760423539E+01
  0.266142149479E+01  0.274796428236E+01  0.283732122549E+01  0.292958383350E+01  0.302484659134E+01
  0.312320705642E+01  0.322476595845E+01  0.332962730261E+01  0.343789847609E+01  0.354969035802E+01
  0.366511743307E+01  0.378429790865E+01  0.390735383597E+01  0.403441123506E+01  0.416560022379E+01
  0.430105515117E+01
 aepotential
  0.321357268519E+05  0.313846253069E+05  0.306050596025E+05  0.298015016441E+05  0.289784496679E+05
  0.281401248676E+05  0.272907214765E+05  0.264340449567E+05  0.255741410421E+05  0.247143384139E+05
  0.238580188320E+05  0.230082176925E+05  0.221677173252E+05  0.213389801825E+05  0.205242634186E+05
  0.197255055835E+05  0.189443929329E+05  0.181823639202E+05  0.174405986162E+05  0.167200557609E+05
  0.160214750827E+05  0.153453956427E+05  0.146921737957E+05  0.140619991522E+05  0.134549118464E+05
  0.128708192022E+05  0.123095118550E+05  0.117706797737E+05  0.112539253168E+05  0.107587805977E+05
  0.102847137586E+05  0.983114883111E+04  0.939746879000E+04  0.898303169937E+04  0.858717105491E+04
  0.820921262181E+04  0.784847117144E+04  0.750426808798E+04  0.717592442743E+04  0.686276482661E+04
  0.656414135774E+04  0.627939716095E+04  0.600792167917E+04  0.574908761386E+04  0.550232738047E+04
  0.526705360341E+04  0.504273414216E+04  0.482882983272E+04  0.462485066112E+04  0.443030391142E+04
  0.424473289163E+04  0.406769786365E+04  0.389877791024E+04  0.373757190654E+04  0.358370167537E+04
  0.343680416670E+04  0.329653552140E+04  0.316256738101E+04  0.303459182319E+04  0.291231347227E+04
  0.279545075203E+04  0.268374192423E+04  0.257693278545E+04  0.247478301912E+04  0.237707617043E+04
  0.228358473964E+04  0.219411290463E+04  0.210846980054E+04  0.202646334891E+04  0.194793421082E+04
  0.187270483246E+04  0.180062860359E+04  0.173155344907E+04  0.166533911096E+04  0.160185644571E+04
  0.154097472487E+04  0.148257703305E+04  0.142654988783E+04  0.137278324227E+04  0.132117766258E+04
  0.127163354624E+04  0.122405932221E+04  0.117836787632E+04  0.113447508502E+04  0.109230179989E+04
  0.105177284416E+04  0.101281605148E+04  0.975363737934E+03  0.939350499104E+03  0.904715088087E+03
  0.871398113735E+03  0.839344045557E+03  0.808499422381E+03  0.778813207633E+03  0.750237184971E+03
  0.722725093432E+03  0.696232822120E+03  0.670718393689E+03  0.646141939704E+03  0.622464845372E+03
  0.599651120416E+03  0.577665512721E+03  0.556474429424E+03  0.536047151667E+03  0.516352073189E+03
  0.497360881084E+03  0.479045681513E+03  0.461379795271E+03  0.444337783160E+03  0.427895589439E+03
  0.412029529047E+03  0.396717764168E+03  0.381938750605E+03  0.367671938900E+03  0.353898029954E+03
  0.340598048724E+03  0.327754122848E+03  0.315348970017E+03  0.303366032118E+03  0.291789527941E+03
  0.280604102750E+03  0.269795279441E+03  0.259348957140E+03  0.249251661063E+03  0.239490513765E+03
  0.230053029700E+03  0.220927296361E+03  0.212101805745E+03  0.203565548577E+03  0.195307900473E+03
  0.187318650368E+03  0.179587967532E+03  0.172106400623E+03  0.164864866492E+03  0.157854578525E+03
  0.151067114326E+03  0.144494321307E+03  0.138128432934E+03  0.131961816344E+03  0.125987208738E+03
  0.120197666472E+03  0.114586333622E+03  0.109146748092E+03  0.103872554075E+03  0.987577234279E+02
  0.937963412485E+02  0.889827614436E+02  0.843114985839E+02  0.797772795819E+02  0.753749636463E+02
  0.710996334034E+02  0.669464881224E+02  0.629109192868E+02  0.589884415043E+02  0.551747427647E+02
  0.514656158688E+02  0.478570140917E+02  0.443450025651E+02  0.409257783805E+02  0.375956460438E+02
  0.343510346227E+02  0.311884704529E+02  0.281045924209E+02  0.250961360122E+02  0.221599303587E+02
  0.192929032318E+02  0.164920650625E+02  0.137545151963E+02  0.110774347866E+02  0.845808100854E+01
  0.589379197463E+01  0.338197426428E+01  0.920107961015E+00 -0.149426143121E+01 -0.386351994779E+01
 -0.618999658478E+01 -0.847594680805E+01 -0.107235883957E+02 -0.129350600869E+02 -0.151124581987E+02
 -0.172578300186E+02 -0.193731565022E+02 -0.214603845567E+02 -0.235214021717E+02 -0.255580569067E+02
 -0.275721475225E+02 -0.295654292101E+02 -0.315396153696E+02 -0.334963746022E+02 -0.354373368417E+02
 -0.373640898412E+02 -0.392781827313E+02 -0.411811261923E+02 -0.430743891548E+02 -0.449594074508E+02
 -0.468375766532E+02 -0.487102547967E+02 -0.505787651635E+02 -0.524443920602E+02 -0.543083850754E+02
 -0.561719561082E+02 -0.580362808532E+02 -0.599024982985E+02 -0.617717100335E+02 -0.636449815039E+02
 -0.655233395399E+02 -0.674077736211E+02 -0.692992344785E+02 -0.711986344961E+02 -0.731068453928E+02
 -0.750246997744E+02 -0.769529883590E+02 -0.788924603752E+02 -0.808438220964E+02 -0.828077360565E+02
 -0.847848198157E+02 -0.867756449557E+02 -0.887807355799E+02 -0.908005671641E+02 -0.928355647303E+02
 -0.948861014123E+02 -0.969524964515E+02 -0.990350132608E+02 -0.101133856883E+03 -0.103249171811E+03
 -0.105381038703E+03 -0.107529471282E+03 -0.109694412638E+03 -0.111875730782E+03 -0.114073213856E+03
 -0.116286564384E+03 -0.118515392700E+03 -0.120759209307E+03 -0.123017416112E+03 -0.125289296053E+03
 -0.127574001300E+03 -0.129870539432E+03 -0.132177757583E+03 -0.134494324269E+03 -0.136818708518E+03
 -0.139149156474E+03 -0.141483664963E+03 -0.143819952497E+03 -0.146155427712E+03 -0.148487155986E+03
 -0.150811825246E+03 -0.153125712556E+03 -0.155424653964E+03 -0.157704020895E+03 -0.159958707616E+03
 -0.162183135580E+03 -0.164371281917E+03 -0.166516740673E+03 -0.168612826823E+03 -0.170652733866E+03
 -0.172629756130E+03 -0.174537586132E+03 -0.176370694870E+03 -0.178124797710E+03 -0.179797398676E+03
 -0.181388385892E+03 -0.182900620542E+03 -0.184340393332E+03 -0.185717535493E+03 -0.187044826120E+03
 -0.188336193616E+03 -0.189603144976E+03 -0.190849078596E+03 -0.192061906565E+03 -0.193206847071E+03
 -0.194222907370E+03 -0.195027216098E+03 -0.195529525573E+03 -0.195654768652E+03 -0.195366599600E+03
 -0.194682283781E+03 -0.193670937006E+03 -0.192433550599E+03 -0.191072817798E+03 -0.189667174969E+03
 -0.188259988100E+03 -0.186864015849E+03 -0.185473279639E+03 -0.184074371761E+03 -0.182653571661E+03
 -0.181199871869E+03 -0.179705434944E+03 -0.178164928190E+03 -0.176574625745E+03 -0.174931684668E+03
 -0.173233706151E+03 -0.171478545683E+03 -0.169664292146E+03 -0.167789334934E+03 -0.165852459685E+03
 -0.163852938539E+03 -0.161790596663E+03 -0.159665850221E+03 -0.157479720077E+03 -0.155233821409E+03
 -0.152930340086E+03 -0.150571993817E+03 -0.148161988024E+03 -0.145703963626E+03 -0.143201943371E+03
 -0.140660273787E+03 -0.138083567971E+03 -0.135476646239E+03 -0.132844478049E+03 -0.130192123944E+03
 -0.127524678856E+03 -0.124847216149E+03 -0.122164735795E+03 -0.119482108736E+03 -0.116804029940E+03
 -0.114134970835E+03 -0.111479134415E+03 -0.108840415576E+03 -0.106222366197E+03 -0.103628167350E+03
 -0.101060610558E+03 -0.985220907487E+02 -0.960146132522E+02 -0.935398168605E+02 -0.910990138851E+02
 -0.886932464731E+02 -0.863233568120E+02 -0.839900660081E+02 -0.816940559168E+02 -0.794360462854E+02
 -0.772168601891E+02 -0.750374716178E+02 -0.728990308786E+02 -0.708028656319E+02 -0.687504575100E+02
 -0.667433961128E+02 -0.647833136330E+02 -0.628718045238E+02 -0.610103356205E+02 -0.592001531157E+02
 -0.574421937020E+02 -0.557370078366E+02 -0.540847030130E+02 -0.524849137790E+02 -0.509368027943E+02
 -0.494390936841E+02 -0.479901324270E+02 -0.465879703663E+02 -0.452304595031E+02 -0.439153499927E+02
 -0.426403807360E+02 -0.414033562105E+02 -0.402022055498E+02 -0.390350226969E+02 -0.379000887394E+02
 -0.367958790543E+02 -0.357210586397E+02 -0.346744691196E+02 -0.336551105925E+02 -0.326621209372E+02
 -0.316947545568E+02 -0.307523619398E+02 -0.298343709003E+02 -0.289402699555E+02 -0.280695940043E+02
 -0.272219122734E+02 -0.263968183744E+02 -0.255939222557E+02 -0.248128438049E+02 -0.240532078643E+02
 -0.233146404351E+02
 core charge-density
  0.101355665015E-04  0.108035613242E-04  0.115155680452E-04  0.122744851436E-04  0.130834018533E-04
  0.139456107051E-04  0.148646208899E-04  0.158441725010E-04  0.168882517092E-04  0.180011069354E-04
  0.191872660818E-04  0.204515548956E-04  0.217991165350E-04  0.232354324191E-04  0.247663444438E-04
  0.263980786546E-04  0.281372704693E-04  0.299909915540E-04  0.319667784589E-04  0.340726631293E-04
  0.363172054142E-04  0.387095277022E-04  0.412593518242E-04  0.439770383699E-04  0.468736285755E-04
  0.499608889507E-04  0.532513588218E-04  0.567584009825E-04  0.604962556528E-04  0.644800979617E-04
  0.687260991832E-04  0.732514919681E-04  0.780746398319E-04  0.832151111744E-04  0.886937581252E-04
  0.945328005267E-04  0.100755915389E-03  0.107388332169E-03  0.114456934254E-03  0.121990367040E-03
  0.130019153052E-03  0.138575814533E-03  0.147695004009E-03  0.157413643329E-03  0.167771071726E-03
  0.178809203488E-03  0.190572695852E-03  0.203109127776E-03  0.216469190289E-03  0.230706889158E-03
  0.245879760676E-03  0.262049101384E-03  0.279280212644E-03  0.297642660993E-03  0.317210555301E-03
  0.338062841788E-03  0.360283618043E-03  0.383962467261E-03  0.409194813969E-03  0.436082302608E-03
  0.464733200429E-03  0.495262826217E-03  0.527794006501E-03  0.562457560961E-03  0.599392818891E-03
  0.638748168635E-03  0.680681642117E-03  0.725361536619E-03  0.772967076140E-03  0.823689114848E-03
  0.877730885179E-03  0.935308793430E-03  0.996653265726E-03  0.106200964754E-02  0.113163916001E-02
  0.120581991662E-02  0.128484800392E-02  0.136903863013E-02  0.145872734601E-02  0.155427134212E-02
  0.165605082728E-02  0.176447049320E-02  0.187996107026E-02  0.200298098022E-02  0.213401809144E-02
  0.227359158290E-02  0.242225392338E-02  0.258059297279E-02  0.274923421269E-02  0.292884311380E-02
  0.312012764835E-02  0.332384095592E-02  0.354078417146E-02  0.377180942512E-02  0.401782302357E-02
  0.427978882326E-02  0.455873180660E-02  0.485574187242E-02  0.517197785291E-02  0.550867176944E-02
  0.586713334080E-02  0.624875475751E-02  0.665501573687E-02  0.708748887396E-02  0.754784530432E-02
  0.803786069526E-02  0.855942158275E-02  0.911453207218E-02  0.970532092177E-02  0.103340490281E-01
  0.110031173340E-01  0.117150751804E-01  0.124726291231E-01  0.132786522376E-01  0.141361939354E-01
  0.150484903154E-01  0.160189750753E-01  0.170512910082E-01  0.181493021111E-01  0.193171063305E-01
  0.205590489732E-01  0.218797368099E-01  0.232840528979E-01  0.247771721530E-01  0.263645776968E-01
  0.280520780084E-01  0.298458249086E-01  0.317523324028E-01  0.337784964110E-01  0.359316154096E-01
  0.382194120105E-01  0.406500555012E-01  0.432321853668E-01  0.459749358139E-01  0.488879613139E-01
  0.519814631787E-01  0.552662171803E-01  0.587536022198E-01  0.624556300478E-01  0.663849760329E-01
  0.705550109676E-01  0.749798338942E-01  0.796743059286E-01  0.846540850436E-01  0.899356617737E-01
  0.955363957807E-01  0.101474553218E+00  0.107769344811E+00  0.114440964555E+00  0.121510628922E+00
  0.129000616446E+00  0.136934307530E+00  0.145336224304E+00  0.154232070344E+00  0.163648770015E+00
  0.173614507199E+00  0.184158763119E+00  0.195312352942E+00  0.207107460815E+00  0.219577672938E+00
  0.232758008254E+00  0.246684946261E+00  0.261396451448E+00  0.276931993768E+00  0.293332564525E+00
  0.310640687013E+00  0.328900421141E+00  0.348157361275E+00  0.368458626423E+00  0.389852841833E+00
  0.412390111027E+00  0.436121977193E+00  0.461101372822E+00  0.487382556368E+00  0.515021034683E+00
  0.544073469877E+00  0.574597569190E+00  0.606651956426E+00  0.640296023404E+00  0.675589759847E+00
  0.712593560081E+00  0.751368004895E+00  0.791973616818E+00  0.834470587179E+00  0.878918473183E+00
  0.925375863359E+00  0.973900009717E+00  0.102454642505E+01  0.107736844393E+01  0.113241674591E+01
  0.118973884000E+01  0.124937850906E+01  0.131137521373E+01  0.137576345510E+01  0.144257209617E+01
  0.151182364241E+01  0.158353348188E+01  0.165770908646E+01  0.173434917570E+01  0.181344284603E+01
  0.189496866822E+01  0.197889375729E+01  0.206517281956E+01  0.215374718274E+01  0.224454381562E+01
  0.233747434549E+01  0.243243408205E+01  0.252930105808E+01  0.262793509826E+01  0.272817692877E+01
  0.282984734166E+01  0.293274642912E+01  0.303665290411E+01  0.314132352510E+01  0.324649264339E+01
  0.335187189304E+01  0.345715004379E+01  0.356199303820E+01  0.366604423470E+01  0.376892487831E+01
  0.387023482043E+01  0.396955350896E+01  0.406644126838E+01  0.416044088862E+01  0.425107953882E+01
  0.433787102025E+01  0.442031836869E+01  0.449791681338E+01  0.457015709477E+01  0.463652913822E+01
  0.469652607495E+01  0.474964859510E+01  0.479540961045E+01  0.483333919700E+01  0.486298977909E+01
  0.488394150856E+01  0.489580778358E+01  0.489824084310E+01  0.489093736407E+01  0.487364398063E+01
  0.484616263639E+01  0.480835567464E+01  0.476015056521E+01  0.470154416307E+01  0.463260639112E+01
  0.455348323953E+01  0.446439897635E+01  0.436565746879E+01  0.425764252286E+01  0.414081715977E+01
  0.401572176227E+01  0.388297104166E+01  0.374324979734E+01  0.359730746516E+01  0.344595147758E+01
  0.329003948800E+01  0.313047054262E+01  0.296817531422E+01  0.280410554342E+01  0.263922286161E+01
  0.247448719768E+01  0.231084498450E+01  0.214921740560E+01  0.199048891649E+01  0.183549627431E+01
  0.168501828836E+01  0.153976647155E+01  0.140037673167E+01  0.126740220197E+01  0.114130729205E+01
  0.102246306511E+01  0.911144125400E+00  0.807527303814E+00  0.711692492175E+00  0.623625914998E+00
  0.543225905943E+00  0.470310922309E+00  0.404629206370E+00  0.345869327358E+00  0.293670897006E+00
  0.247635001339E+00  0.207334172523E+00  0.172321886007E+00  0.142141579373E+00  0.116335122213E+00
  0.944506031279E-01  0.760492779827E-01  0.607115410273E-01  0.480418212422E-01  0.376723555673E-01
  0.292658394876E-01  0.225169992407E-01  0.171531666753E-01  0.129339666811E-01  0.965024781201E-02
  0.712239920821E-02  0.519820146847E-02  0.375035635297E-02  0.267383105051E-02  0.188313847535E-02
  0.130965710077E-02  0.899073705278E-03  0.609011573233E-03  0.406886469326E-03  0.268014177317E-03
  0.173977347289E-03  0.111246319858E-03  0.700386803728E-04  0.433954749555E-04  0.264480219458E-04
  0.158476636370E-04  0.933113186524E-05  0.539593366026E-05  0.306281223286E-05  0.170547676853E-05
  0.931074974490E-06  0.498046569813E-06  0.260870973853E-06  0.133710911365E-06  0.670190759371E-07
  0.328258424501E-07  0.157001717147E-07  0.732721231137E-08  0.333413381754E-08  0.147805334857E-08
  0.637825046952E-09  0.267699264110E-09  0.109180364074E-09  0.432313371706E-10  0.166035723157E-10
  0.617919034971E-11  0.222614338848E-11  0.775560976412E-12  0.261008428435E-12  0.847593421201E-13
  0.265287837404E-13  0.799335331072E-14  0.231574158325E-14  0.644243146642E-15  0.171885197186E-15
  0.439204696916E-16  0.107331247847E-16  0.250487718368E-17  0.557438649449E-18  0.118109791138E-18
  0.237880416940E-19  0.454672495743E-20  0.823314994127E-21  0.140992877797E-21  0.227931454135E-22
  0.347195728439E-23  0.497357647955E-24  0.668685966378E-25  0.842057534509E-26  0.991074309153E-27
  0.108783974635E-27  0.111105828755E-28  0.105343930081E-29  0.924992023013E-31  0.750315159014E-32
  0.560807086129E-33  0.385210627527E-34  0.242500152791E-35  0.139518123289E-36  0.731460110020E-38
  0.348408020597E-39  0.150306404701E-40  0.585423486479E-42  0.205179262568E-43  0.644895709415E-45
  0.181139730071E-46
 kinetic energy-density
  0.297512616948E+00  0.301284635111E+00  0.305198950911E+00  0.309263022897E+00  0.313482710627E+00
  0.317864926631E+00  0.322416330018E+00  0.327144866527E+00  0.332058115979E+00  0.337164407010E+00
  0.342472712991E+00  0.347992250567E+00  0.353732792023E+00  0.359704742310E+00  0.365919041962E+00
  0.372387131785E+00  0.379121215194E+00  0.386134023590E+00  0.393439034331E+00  0.401050447914E+00
  0.408983198368E+00  0.417253036144E+00  0.425876550506E+00  0.434871223050E+00  0.444255475511E+00
  0.454048724883E+00  0.464271437106E+00  0.474945195161E+00  0.486092760982E+00  0.497738130765E+00
  0.509906655879E+00  0.522625040966E+00  0.535921485593E+00  0.549825805344E+00  0.564369427351E+00
  0.579585597569E+00  0.595509364385E+00  0.612177822123E+00  0.629630220584E+00  0.647907875613E+00
  0.667054771666E+00  0.687116998896E+00  0.708143802710E+00  0.730186798453E+00  0.753300978475E+00
  0.777544320922E+00  0.802978365087E+00  0.829668029766E+00  0.857682249028E+00  0.887093991766E+00
  0.917980428664E+00  0.950423397423E+00  0.984509669347E+00  0.102033099883E+01  0.105798475098E+01
  0.109757407681E+01  0.113920835848E+01  0.118300344962E+01  0.122908226457E+01  0.127757510197E+01
  0.132862015714E+01  0.138236392121E+01  0.143896194845E+01  0.149857872233E+01  0.156138962459E+01
  0.162757995311E+01  0.169734632344E+01  0.177089819661E+01  0.184845647274E+01  0.193025687299E+01
  0.201654892412E+01  0.210759736470E+01  0.220368357672E+01  0.230510602148E+01  0.241218137550E+01
  0.252524623493E+01  0.264465742537E+01  0.277079422551E+01  0.290405899598E+01  0.304487901963E+01
  0.319370816565E+01  0.335102792638E+01  0.351734993927E+01  0.369321727113E+01  0.387920668083E+01
  0.407593057139E+01  0.428403909655E+01  0.450422285665E+01  0.473721497259E+01  0.498379406469E+01
  0.524478677711E+01  0.552107095421E+01  0.581357871047E+01  0.612329979436E+01  0.645128496885E+01
  0.679865003685E+01  0.716657961151E+01  0.755633126252E+01  0.796924026566E+01  0.840672401754E+01
  0.887028706157E+01  0.936152695600E+01  0.988213851341E+01  0.104339213878E+02  0.110187850423E+02
  0.116387560257E+02  0.122959848528E+02  0.129927532175E+02  0.137314820578E+02  0.145147395094E+02
  0.153452500160E+02  0.162259031480E+02  0.171597633934E+02  0.181500808886E+02  0.192003011217E+02
  0.203140775881E+02  0.214952827258E+02  0.227480213404E+02  0.240766430964E+02  0.254857572314E+02
  0.269802468640E+02  0.285652841953E+02  0.302463474161E+02  0.320292370603E+02  0.339200941051E+02
  0.359254189779E+02  0.380520905077E+02  0.403073871604E+02  0.426990080624E+02  0.452350953996E+02
  0.479242586668E+02  0.507755976947E+02  0.537987296142E+02  0.570038144295E+02  0.604015832775E+02
  0.640033665885E+02  0.678211241048E+02  0.718674762675E+02  0.761557360009E+02  0.806999393724E+02
  0.855148850321E+02  0.906161633842E+02  0.960201972254E+02  0.101744275684E+03  0.107806594727E+03
  0.114226293368E+03  0.121023495518E+03  0.128219348232E+03  0.135836063794E+03  0.143896959403E+03
  0.152426499122E+03  0.161450335591E+03  0.170995348900E+03  0.181089690020E+03  0.191762818876E+03
  0.203045543215E+03  0.214970057481E+03  0.227569977239E+03  0.240880373850E+03  0.254937805311E+03
  0.269780344612E+03  0.285447603628E+03  0.301980754275E+03  0.319422543160E+03  0.337817301423E+03
  0.357210948373E+03  0.377650987241E+03  0.399186493445E+03  0.421868092941E+03  0.445747931344E+03
  0.470879630667E+03  0.497318234536E+03  0.525120139282E+03  0.554343008752E+03  0.585045675325E+03
  0.617288019567E+03  0.651130832579E+03  0.686635658537E+03  0.723864605856E+03  0.762880150406E+03
  0.803744892482E+03  0.846521301913E+03  0.891271421848E+03  0.938056554248E+03  0.986936890483E+03
  0.103797113593E+04  0.109121606636E+04  0.114672607575E+04  0.120455265883E+04  0.126474387613E+04
  0.132734375359E+04  0.139239166576E+04  0.145992165101E+04  0.152996170368E+04  0.160253301617E+04
  0.167764917338E+04  0.175531532530E+04  0.183552730051E+04  0.191827070391E+04  0.200351997191E+04
  0.209123740426E+04  0.218137217948E+04  0.227385934727E+04  0.236861882378E+04  0.246555438078E+04
  0.256455264850E+04  0.266548214826E+04  0.276819234656E+04  0.287251277186E+04  0.297825218567E+04
  0.308519783945E+04  0.319311482310E+04  0.330174553572E+04  0.341080928594E+04  0.352000205278E+04
  0.362899641783E+04  0.373744170282E+04  0.384496431885E+04  0.395116836436E+04  0.405563648088E+04
  0.415793099196E+04  0.425759534594E+04  0.435415587103E+04  0.444712386825E+04  0.453599804413E+04
  0.462026729360E+04  0.469941384181E+04  0.477291673327E+04  0.484025567103E+04  0.490091518798E+04
  0.495438913086E+04  0.500018543357E+04  0.503783114278E+04  0.506687765525E+04  0.508690611861E+04
  0.509753293628E+04  0.509841531257E+04  0.508925676568E+04  0.506981252803E+04  0.503989474859E+04
  0.499937740725E+04  0.494820084370E+04  0.488637580643E+04  0.481398691821E+04  0.473119546379E+04
  0.463824140019E+04  0.453544449923E+04  0.442320453791E+04  0.430200045836E+04  0.417238843470E+04
  0.403499879492E+04  0.389053176391E+04  0.373975201215E+04  0.358348201841E+04  0.342259427744E+04
  0.325800241380E+04  0.309065129383E+04  0.292150625957E+04  0.275154164781E+04  0.258172879118E+04
  0.241302374530E+04  0.224635500034E+04  0.208261153208E+04  0.192263151052E+04  0.176719209306E+04
  0.161700071685E+04  0.147268830106E+04  0.133480465977E+04  0.120381616091E+04  0.108010521481E+04
  0.963970634847E+03  0.855627572660E+03  0.755205986828E+03  0.662747627381E+03  0.578202936416E+03
  0.501430281759E+03  0.432199876488E+03  0.370203465535E+03  0.315068868721E+03  0.266376769472E+03
  0.223676776182E+03  0.186500888634E+03  0.154374081128E+03  0.126822683754E+03  0.103381363758E+03
  0.835991881209E+02  0.670449105481E+02  0.533114410655E+02  0.420194096634E+02  0.328197631303E+02
  0.253953863682E+02  0.194617901126E+02  0.147669469287E+02  0.110903851106E+02  0.824166705890E+01
  0.605838667408E+01  0.440382074225E+01  0.316436348624E+01  0.224686255238E+01  0.157595984557E+01
  0.109152313964E+01  0.746235513706E+00  0.503390695640E+00  0.334924398150E+00  0.219695615346E+00
  0.142018216907E+00  0.904323818830E-01  0.566975341768E-01  0.349833403620E-01  0.212326982023E-01
  0.126700640398E-01  0.742946862680E-02  0.427868217401E-02  0.241877653158E-02  0.134142629680E-02
  0.729401468102E-03  0.388624142914E-03  0.202759730641E-03  0.103523382003E-03  0.516899754005E-04
  0.252221218985E-04  0.120185014301E-04  0.558840416444E-05  0.253371976783E-05  0.111922124505E-05
  0.481284328704E-06  0.201300986444E-06  0.818212893709E-07  0.322900143929E-07  0.123607251952E-07
  0.458534795576E-08  0.164671391527E-08  0.571915524705E-09  0.191888405596E-09  0.621281190431E-10
  0.193889105973E-10  0.582546222607E-11  0.168301299372E-11  0.466954500543E-12  0.124257486128E-12
  0.316696079721E-13  0.772015326700E-14  0.179739057999E-14  0.399062750029E-15  0.843624537509E-16
  0.169539663145E-16  0.323362456325E-17  0.584336279203E-18  0.998679409736E-19  0.161135025113E-19
  0.244985277475E-20  0.350296656289E-21  0.470122661185E-22  0.590978049902E-23  0.694374741597E-24
  0.760898944628E-25  0.775868849868E-26  0.734453473759E-27  0.643885727796E-28  0.521485401370E-29
  0.389179494481E-30  0.266920481098E-31  0.167784049718E-32  0.963897162823E-34  0.504611304175E-35
  0.240006949509E-36  0.103391219273E-37  0.402110845946E-39  0.140726250141E-40  0.441662891488E-42
  0.123869834582E-43
 mkinetic energy-density pseudized
  0.118955402101E-07  0.126817449899E-07  0.135199119285E-07  0.144134753294E-07  0.153660964778E-07
  0.163816786414E-07  0.174643830648E-07  0.186186460187E-07  0.198491969780E-07  0.211610779995E-07
  0.225596643818E-07  0.240506866899E-07  0.256402542353E-07  0.273348801088E-07  0.291415078666E-07
  0.310675399813E-07  0.331208681727E-07  0.353099057428E-07  0.376436220493E-07  0.401315792557E-07
  0.427839715120E-07  0.456116667236E-07  0.486262510818E-07  0.518400765370E-07  0.552663114091E-07
  0.589189943437E-07  0.628130918339E-07  0.669645595439E-07  0.713904076855E-07  0.761087707158E-07
  0.811389816412E-07  0.865016512323E-07  0.922187524742E-07  0.983137105986E-07  0.104811499066E-06
  0.111738741892E-06  0.119123822736E-06  0.126997001200E-06  0.135390536815E-06  0.144338821220E-06
  0.153878519078E-06  0.164048718303E-06  0.174891090225E-06  0.186450060327E-06  0.198772990275E-06
  0.211910371979E-06  0.225916034475E-06  0.240847364487E-06  0.256765541558E-06  0.273735788727E-06
  0.291827639777E-06  0.311115224134E-06  0.331677570609E-06  0.353598931207E-06  0.376969126339E-06
  0.401883912848E-06  0.428445376364E-06  0.456762349583E-06  0.486950858200E-06  0.519134596300E-06
  0.553445433186E-06  0.590023953693E-06  0.629020034212E-06  0.670593456790E-06  0.714914563811E-06
  0.762164955952E-06  0.812538236263E-06  0.866240803422E-06  0.923492697426E-06  0.984528501169E-06
  0.104959830160E-05  0.111896871442E-05  0.119292397649E-05  0.127176711044E-05  0.135582116623E-05
  0.144543054484E-05  0.154096240933E-05  0.164280818921E-05  0.175138518432E-05  0.186713827453E-05
  0.199054174258E-05  0.212210121737E-05  0.226235574559E-05  0.241188000039E-05  0.257128663592E-05
  0.274122879750E-05  0.292240279775E-05  0.311555096949E-05  0.332146470722E-05  0.354098770964E-05
  0.377501943638E-05  0.402451879326E-05  0.429050806102E-05  0.457407708377E-05  0.487638773413E-05
  0.519867867360E-05  0.554227042732E-05  0.590857079440E-05  0.629908061565E-05  0.671539992251E-05
  0.715923449229E-05  0.763240283669E-05  0.813684365196E-05  0.867462376156E-05  0.924794658356E-05
  0.985916115756E-05  0.105107717682E-04  0.112054482043E-04  0.119460366965E-04  0.127355715767E-04
  0.135772877086E-04  0.144746337394E-04  0.154312862271E-04  0.164511647008E-04  0.175384477166E-04
  0.186975899741E-04  0.199333405632E-04  0.212507624174E-04  0.226552530511E-04  0.241525666678E-04
  0.257488377278E-04  0.274506060737E-04  0.292648437146E-04  0.311989833801E-04  0.332609489599E-04
  0.354591879538E-04  0.378027060649E-04  0.403011040776E-04  0.429646171700E-04  0.458041568232E-04
  0.488313554968E-04  0.520586142552E-04  0.554991535369E-04  0.591670672762E-04  0.630773805969E-04
  0.672461113144E-04  0.716903354967E-04  0.764282573513E-04  0.814792837246E-04  0.868641035156E-04
  0.926047723292E-04  0.987248027132E-04  0.105249260346E-03  0.112204866571E-03  0.119620107682E-03
  0.127525351427E-03  0.135952971180E-03  0.144937478299E-03  0.154515663208E-03  0.164726745768E-03
  0.175612535553E-03  0.187217602683E-03  0.199589459895E-03  0.212778756606E-03  0.226839485733E-03
  0.241829204127E-03  0.257809267490E-03  0.274845080742E-03  0.293006364833E-03  0.312367441080E-03
  0.333007534168E-03  0.355011095044E-03  0.378468144975E-03  0.403474642175E-03  0.430132872445E-03
  0.458551865399E-03  0.488847837922E-03  0.521144666640E-03  0.555574391257E-03  0.592277750769E-03
  0.631404754661E-03  0.673115291351E-03  0.717579776255E-03  0.764979842030E-03  0.815509073684E-03
  0.869373791411E-03  0.926793884201E-03  0.988003697436E-03  0.105325297790E-02  0.112280787983E-02
  0.119695203579E-02  0.127598769660E-02  0.136023694437E-02  0.145004298340E-02  0.154577151378E-02
  0.164781219253E-02  0.175658018800E-02  0.187251783295E-02  0.199609638243E-02  0.212781788274E-02
  0.226821715805E-02  0.241786392186E-02  0.257736502041E-02  0.274736681593E-02  0.292855771772E-02
  0.312167086959E-02  0.332748700244E-02  0.354683746122E-02  0.378060741597E-02  0.402973926680E-02
  0.429523625318E-02  0.457816627840E-02  0.487966596003E-02  0.520094491781E-02  0.554329031063E-02
  0.590807163430E-02  0.629674579220E-02  0.671086245080E-02  0.715206969217E-02  0.762211997542E-02
  0.812287641879E-02  0.865631941378E-02  0.922455358207E-02  0.982981508532E-02  0.104744792968E-01
  0.111610688426E-01  0.118922620186E-01  0.126709015871E-01  0.135000039552E-01  0.143827687331E-01
  0.153225886679E-01  0.163230599432E-01  0.173879928321E-01  0.185214226815E-01  0.197276212025E-01
  0.210111080320E-01  0.223766625214E-01  0.238293356968E-01  0.253744623259E-01  0.270176730074E-01
  0.287649061880E-01  0.306224199884E-01  0.325968037027E-01  0.346949888078E-01  0.369242592944E-01
  0.392922610993E-01  0.418070103821E-01  0.444769003532E-01  0.473107063115E-01  0.503175885034E-01
  0.535070923577E-01  0.568891455888E-01  0.604740515930E-01  0.642724784852E-01  0.682954430398E-01
  0.725542887080E-01  0.770606567826E-01  0.818264496717E-01  0.868637851254E-01  0.921849401318E-01
  0.978022830634E-01  0.103728192514E+00  0.109974961112E+00  0.116554682454E+00  0.123479119128E+00
  0.130759549660E+00  0.138406592064E+00  0.146430001516E+00  0.154838439607E+00  0.163639212462E+00
  0.172837975043E+00  0.182438398882E+00  0.192441800614E+00  0.202846728802E+00  0.213648506844E+00
  0.224838730166E+00  0.236404716471E+00  0.248328908663E+00  0.260588231097E+00  0.273153401195E+00
  0.285988200207E+00  0.299048709049E+00  0.312282517832E+00  0.325627920885E+00  0.339013112938E+00
  0.352355406653E+00  0.365560497020E+00  0.378521804163E+00  0.391119933044E+00  0.403222296223E+00
  0.414682954210E+00  0.425342736953E+00  0.435029719275E+00  0.443560132325E+00  0.450739801794E+00
  0.456366211000E+00  0.460231291994E+00  0.462125049378E+00  0.461840117801E+00  0.459177343265E+00
  0.453952457886E+00  0.446003884892E+00  0.435201662067E+00  0.421457404082E+00  0.404735133483E+00
  0.385062692870E+00  0.362543304094E+00  0.337366661982E+00  0.309818740446E+00  0.280289250824E+00
  0.249275433711E+00  0.217380600224E+00  0.185305589049E+00  0.153831104465E+00  0.123788793825E+00
  0.960189712284E-01  0.713131742297E-01  0.503403444538E-01  0.335564558204E-01  0.210989853897E-01
  0.126698338417E-01  0.742946862680E-02  0.427868217401E-02  0.241877653158E-02  0.134142629680E-02
  0.729401468102E-03  0.388624142914E-03  0.202759730641E-03  0.103523382003E-03  0.516899754005E-04
  0.252221218985E-04  0.120185014301E-04  0.558840416444E-05  0.253371976783E-05  0.111922124505E-05
  0.481284328704E-06  0.201300986444E-06  0.818212893709E-07  0.322900143929E-07  0.123607251952E-07
  0.458534795576E-08  0.164671391527E-08  0.571915524705E-09  0.191888405596E-09  0.621281190431E-10
  0.193889105973E-10  0.582546222607E-11  0.168301299372E-11  0.466954500543E-12  0.124257486128E-12
  0.316696079721E-13  0.772015326700E-14  0.179739057999E-14  0.399062750029E-15  0.843624537509E-16
  0.169539663145E-16  0.323362456325E-17  0.584336279203E-18  0.998679409736E-19  0.161135025113E-19
  0.244985277475E-20  0.350296656289E-21  0.470122661185E-22  0.590978049902E-23  0.694374741597E-24
  0.760898944628E-25  0.775868849868E-26  0.734453473759E-27  0.643885727796E-28  0.521485401370E-29
  0.389179494481E-30  0.266920481098E-31  0.167784049718E-32  0.963897162823E-34  0.504611304175E-35
  0.240006949509E-36  0.103391219273E-37  0.402110845946E-39  0.140726250141E-40  0.441662891488E-42
  0.123869834582E-43
 local pseudopotential core
 -0.304943909847E+03 -0.304945869649E+03 -0.304947767729E+03 -0.304949606029E+03 -0.304951386434E+03
 -0.304953110765E+03 -0.304954780788E+03 -0.304956398216E+03 -0.304957964702E+03 -0.304959481851E+03
 -0.304960951217E+03 -0.304962374305E+03 -0.304963752572E+03 -0.304965087429E+03 -0.304966380243E+03
 -0.304967632338E+03 -0.304968844997E+03 -0.304970019460E+03 -0.304971156930E+03 -0.304972258573E+03
 -0.304973325516E+03 -0.304974358851E+03 -0.304975359637E+03 -0.304976328899E+03 -0.304977267628E+03
 -0.304978176786E+03 -0.304979057303E+03 -0.304979910082E+03 -0.304980735995E+03 -0.304981535887E+03
 -0.304982310578E+03 -0.304983060860E+03 -0.304983787502E+03 -0.304984491247E+03 -0.304985172816E+03
 -0.304985832906E+03 -0.304986472192E+03 -0.304987091329E+03 -0.304987690951E+03 -0.304988271670E+03
 -0.304988834081E+03 -0.304989378759E+03 -0.304989906262E+03 -0.304990417128E+03 -0.304990911881E+03
 -0.304991391025E+03 -0.304991855051E+03 -0.304992304434E+03 -0.304992739631E+03 -0.304993161089E+03
 -0.304993569236E+03 -0.304993964491E+03 -0.304994347256E+03 -0.304994717923E+03 -0.304995076868E+03
 -0.304995424459E+03 -0.304995761049E+03 -0.304996086982E+03 -0.304996402589E+03 -0.304996708191E+03
 -0.304997004100E+03 -0.304997290615E+03 -0.304997568028E+03 -0.304997836621E+03 -0.304998096665E+03
 -0.304998348424E+03 -0.304998592152E+03 -0.304998828096E+03 -0.304999056493E+03 -0.304999277574E+03
 -0.304999491561E+03 -0.304999698669E+03 -0.304999899104E+03 -0.305000093068E+03 -0.305000280753E+03
 -0.305000462346E+03 -0.305000638027E+03 -0.305000807970E+03 -0.305000972341E+03 -0.305001131301E+03
 -0.305001285006E+03 -0.305001433604E+03 -0.305001577238E+03 -0.305001716047E+03 -0.305001850162E+03
 -0.305001979710E+03 -0.305002104812E+03 -0.305002225583E+03 -0.305002342135E+03 -0.305002454572E+03
 -0.305002562995E+03 -0.305002667499E+03 -0.305002768175E+03 -0.305002865106E+03 -0.305002958374E+03
 -0.305003048053E+03 -0.305003134213E+03 -0.305003216919E+03 -0.305003296231E+03 -0.305003372203E+03
 -0.305003444886E+03 -0.305003514324E+03 -0.305003580554E+03 -0.305003643612E+03 -0.305003703525E+03
 -0.305003760316E+03 -0.305003814000E+03 -0.305003864590E+03 -0.305003912090E+03 -0.305003956497E+03
 -0.305003997805E+03 -0.305004035997E+03 -0.305004071053E+03 -0.305004102944E+03 -0.305004131631E+03
 -0.305004157073E+03 -0.305004179215E+03 -0.305004197996E+03 -0.305004213347E+03 -0.305004225187E+03
 -0.305004233428E+03 -0.305004237968E+03 -0.305004238699E+03 -0.305004235496E+03 -0.305004228226E+03
 -0.305004216740E+03 -0.305004200879E+03 -0.305004180467E+03 -0.305004155312E+03 -0.305004125210E+03
 -0.305004089935E+03 -0.305004049247E+03 -0.305004002885E+03 -0.305003950567E+03 -0.305003891992E+03
 -0.305003826833E+03 -0.305003754741E+03 -0.305003675341E+03 -0.305003588228E+03 -0.305003492972E+03
 -0.305003389110E+03 -0.305003276144E+03 -0.305003153544E+03 -0.305003020741E+03 -0.305002877127E+03
 -0.305002722051E+03 -0.305002554818E+03 -0.305002374684E+03 -0.305002180854E+03 -0.305001972480E+03
 -0.305001748654E+03 -0.305001508408E+03 -0.305001250708E+03 -0.305000974449E+03 -0.305000678453E+03
 -0.305000361461E+03 -0.305000022130E+03 -0.304999659026E+03 -0.304999270621E+03 -0.304998855283E+03
 -0.304998411269E+03 -0.304997936724E+03 -0.304997429664E+03 -0.304996887977E+03 -0.304996309406E+03
 -0.304995691548E+03 -0.304995031837E+03 -0.304994327536E+03 -0.304993575727E+03 -0.304992773299E+03
 -0.304991916931E+03 -0.304991003085E+03 -0.304990027984E+03 -0.304988987603E+03 -0.304987877650E+03
 -0.304986693545E+03 -0.304985430406E+03 -0.304984083028E+03 -0.304982645857E+03 -0.304981112974E+03
 -0.304979478065E+03 -0.304977734397E+03 -0.304975874790E+03 -0.304973891588E+03 -0.304971776626E+03
 -0.304969521199E+03 -0.304967116019E+03 -0.304964551186E+03 -0.304961816140E+03 -0.304958899620E+03
 -0.304955789615E+03 -0.304952473317E+03 -0.304948937066E+03 -0.304945166294E+03 -0.304941145461E+03
 -0.304936857995E+03 -0.304932286219E+03 -0.304927411280E+03 -0.304922213065E+03 -0.304916670122E+03
 -0.304910759568E+03 -0.304904456990E+03 -0.304897736345E+03 -0.304890569848E+03 -0.304882927859E+03
 -0.304874778747E+03 -0.304866088767E+03 -0.304856821909E+03 -0.304846939745E+03 -0.304836401265E+03
 -0.304825162702E+03 -0.304813177342E+03 -0.304800395320E+03 -0.304786763407E+03 -0.304772224775E+03
 -0.304756718751E+03 -0.304740180550E+03 -0.304722540988E+03 -0.304703726178E+03 -0.304683657198E+03
 -0.304662249743E+03 -0.304639413741E+03 -0.304615052949E+03 -0.304589064518E+03 -0.304561338516E+03
 -0.304531757431E+03 -0.304500195620E+03 -0.304466518728E+03 -0.304430583054E+03 -0.304392234875E+03
 -0.304351309710E+03 -0.304307631532E+03 -0.304261011914E+03 -0.304211249106E+03 -0.304158127046E+03
 -0.304101414276E+03 -0.304040862786E+03 -0.303976206748E+03 -0.303907161155E+03 -0.303833420346E+03
 -0.303754656397E+03 -0.303670517387E+03 -0.303580625512E+03 -0.303484575033E+03 -0.303381930051E+03
 -0.303272222085E+03 -0.303154947442E+03 -0.303029564351E+03 -0.302895489841E+03 -0.302752096348E+03
 -0.302598708015E+03 -0.302434596657E+03 -0.302258977369E+03 -0.302071003735E+03 -0.301869762603E+03
 -0.301654268393E+03 -0.301423456894E+03 -0.301176178494E+03 -0.300911190818E+03 -0.300627150699E+03
 -0.300322605449E+03 -0.299995983361E+03 -0.299645583393E+03 -0.299269563969E+03 -0.298865930848E+03
 -0.298432523995E+03 -0.297967003399E+03 -0.297466833802E+03 -0.296929268273E+03 -0.296351330621E+03
 -0.295729796609E+03 -0.295061173987E+03 -0.294341681367E+03 -0.293567226001E+03 -0.292733380568E+03
 -0.291835359143E+03 -0.290867992546E+03 -0.289825703411E+03 -0.288702481356E+03 -0.287491858806E+03
 -0.286186888135E+03 -0.284780120983E+03 -0.283263590821E+03 -0.281628800083E+03 -0.279866713474E+03
 -0.277967759436E+03 -0.275921842148E+03 -0.273718366930E+03 -0.271346282466E+03 -0.268794143916E+03
 -0.266050201676E+03 -0.263102521356E+03 -0.259939141339E+03 -0.256548275109E+03 -0.252918566231E+03
 -0.249039404290E+03 -0.244901310080E+03 -0.240496397526E+03 -0.235818917934E+03 -0.230865888865E+03
 -0.225637805087E+03 -0.220139422942E+03 -0.214380603053E+03 -0.208377191163E+03 -0.202151914584E+03
 -0.195735270626E+03 -0.189166373845E+03 -0.182493687443E+03 -0.175775457428E+03 -0.169079486540E+03
 -0.162476853184E+03 -0.156080303584E+03 -0.149951322300E+03 -0.144170898277E+03 -0.138839656294E+03
 -0.134371194947E+03 -0.130570243536E+03 -0.127440992268E+03 -0.123751019519E+03 -0.119852548604E+03
 -0.116077990806E+03 -0.112422305931E+03 -0.108881750368E+03 -0.105452698312E+03 -0.102131638217E+03
 -0.989151691348E+02 -0.957999971446E+02 -0.927829321105E+02 -0.898608843403E+02 -0.870308614413E+02
 -0.842899652583E+02 -0.816353889072E+02 -0.790644139017E+02 -0.765744073631E+02 -0.741628193409E+02
 -0.718271801977E+02 -0.695650980618E+02 -0.673742564074E+02 -0.652524116503E+02 -0.631973908823E+02
 -0.612070896094E+02 -0.592794696331E+02 -0.574125569175E+02 -0.556044396080E+02 -0.538532660539E+02
 -0.521572429138E+02 -0.505146333228E+02 -0.489237551128E+02 -0.473829790901E+02 -0.458907273679E+02
 -0.444454717511E+02 -0.430457321721E+02 -0.416900751740E+02 -0.403771124446E+02 -0.391054993941E+02
 -0.378739337781E+02 -0.366811543646E+02 -0.355259396424E+02 -0.344071065699E+02 -0.333235093639E+02
 -0.322740383259E+02 -0.312576187060E+02 -0.302732096021E+02 -0.293198028937E+02 -0.283964222096E+02
 -0.275021219281E+02 -0.266359862084E+02 -0.257971280527E+02 -0.249846883979E+02 -0.241978352358E+02
 -0.234357627608E+02
 pspotential valence only
 -0.207075297687E+03 -0.207077257483E+03 -0.207079155557E+03 -0.207080993850E+03 -0.207082774248E+03
 -0.207084498571E+03 -0.207086168586E+03 -0.207087786005E+03 -0.207089352481E+03 -0.207090869620E+03
 -0.207092338976E+03 -0.207093762053E+03 -0.207095140307E+03 -0.207096475151E+03 -0.207097767951E+03
 -0.207099020032E+03 -0.207100232674E+03 -0.207101407121E+03 -0.207102544573E+03 -0.207103646197E+03
 -0.207104713120E+03 -0.207105746433E+03 -0.207106747197E+03 -0.207107716433E+03 -0.207108655136E+03
 -0.207109564266E+03 -0.207110444754E+03 -0.207111297500E+03 -0.207112123380E+03 -0.207112923236E+03
 -0.207113697888E+03 -0.207114448129E+03 -0.207115174728E+03 -0.207115878426E+03 -0.207116559945E+03
 -0.207117219982E+03 -0.207117859212E+03 -0.207118478288E+03 -0.207119077845E+03 -0.207119658496E+03
 -0.207120220834E+03 -0.207120765434E+03 -0.207121292854E+03 -0.207121803632E+03 -0.207122298290E+03
 -0.207122777334E+03 -0.207123241253E+03 -0.207123690521E+03 -0.207124125597E+03 -0.207124546924E+03
 -0.207124954933E+03 -0.207125350040E+03 -0.207125732648E+03 -0.207126103146E+03 -0.207126461913E+03
 -0.207126809313E+03 -0.207127145700E+03 -0.207127471416E+03 -0.207127786791E+03 -0.207128092147E+03
 -0.207128387793E+03 -0.207128674028E+03 -0.207128951143E+03 -0.207129219417E+03 -0.207129479122E+03
 -0.207129730518E+03 -0.207129973861E+03 -0.207130209394E+03 -0.207130437353E+03 -0.207130657966E+03
 -0.207130871455E+03 -0.207131078031E+03 -0.207131277900E+03 -0.207131471260E+03 -0.207131658301E+03
 -0.207131839209E+03 -0.207132014158E+03 -0.207132183321E+03 -0.207132346860E+03 -0.207132504934E+03
 -0.207132657694E+03 -0.207132805284E+03 -0.207132947845E+03 -0.207133085508E+03 -0.207133218403E+03
 -0.207133346649E+03 -0.207133470363E+03 -0.207133589656E+03 -0.207133704630E+03 -0.207133815386E+03
 -0.207133922017E+03 -0.207134024611E+03 -0.207134123249E+03 -0.207134218009E+03 -0.207134308962E+03
 -0.207134396172E+03 -0.207134479701E+03 -0.207134559602E+03 -0.207134635923E+03 -0.207134708708E+03
 -0.207134777992E+03 -0.207134843805E+03 -0.207134906173E+03 -0.207134965113E+03 -0.207135020635E+03
 -0.207135072745E+03 -0.207135121440E+03 -0.207135166709E+03 -0.207135208538E+03 -0.207135246899E+03
 -0.207135281760E+03 -0.207135313081E+03 -0.207135340811E+03 -0.207135364891E+03 -0.207135385253E+03
 -0.207135401817E+03 -0.207135414496E+03 -0.207135423188E+03 -0.207135427784E+03 -0.207135428158E+03
 -0.207135424174E+03 -0.207135415683E+03 -0.207135402520E+03 -0.207135384506E+03 -0.207135361445E+03
 -0.207135333127E+03 -0.207135299319E+03 -0.207135259774E+03 -0.207135214224E+03 -0.207135162377E+03
 -0.207135103921E+03 -0.207135038520E+03 -0.207134965811E+03 -0.207134885406E+03 -0.207134796887E+03
 -0.207134699806E+03 -0.207134593683E+03 -0.207134478002E+03 -0.207134352212E+03 -0.207134215723E+03
 -0.207134067902E+03 -0.207133908074E+03 -0.207133735515E+03 -0.207133549452E+03 -0.207133349060E+03
 -0.207133133454E+03 -0.207132901691E+03 -0.207132652765E+03 -0.207132385598E+03 -0.207132099042E+03
 -0.207131791869E+03 -0.207131462770E+03 -0.207131110348E+03 -0.207130733110E+03 -0.207130329464E+03
 -0.207129897713E+03 -0.207129436042E+03 -0.207128942520E+03 -0.207128415083E+03 -0.207127851531E+03
 -0.207127249518E+03 -0.207126606539E+03 -0.207125919925E+03 -0.207125186828E+03 -0.207124404213E+03
 -0.207123568840E+03 -0.207122677256E+03 -0.207121725779E+03 -0.207120710482E+03 -0.207119627177E+03
 -0.207118471400E+03 -0.207117238391E+03 -0.207115923074E+03 -0.207114520036E+03 -0.207113023508E+03
 -0.207111427338E+03 -0.207109724966E+03 -0.207107909400E+03 -0.207105973185E+03 -0.207103908372E+03
 -0.207101706487E+03 -0.207099358497E+03 -0.207096854772E+03 -0.207094185043E+03 -0.207091338365E+03
 -0.207088303071E+03 -0.207085066723E+03 -0.207081616059E+03 -0.207077936944E+03 -0.207074014312E+03
 -0.207069832098E+03 -0.207065373181E+03 -0.207060619309E+03 -0.207055551027E+03 -0.207050147595E+03
 -0.207044386909E+03 -0.207038245406E+03 -0.207031697971E+03 -0.207024717833E+03 -0.207017276460E+03
 -0.207009343440E+03 -0.207000886359E+03 -0.206991870669E+03 -0.206982259552E+03 -0.206972013765E+03
 -0.206961091487E+03 -0.206949448148E+03 -0.206937036251E+03 -0.206923805178E+03 -0.206909700990E+03
 -0.206894666209E+03 -0.206878639587E+03 -0.206861555864E+03 -0.206843345502E+03 -0.206823934415E+03
 -0.206803243666E+03 -0.206781189161E+03 -0.206757681310E+03 -0.206732624678E+03 -0.206705917602E+03
 -0.206677451798E+03 -0.206647111931E+03 -0.206614775165E+03 -0.206580310686E+03 -0.206543579191E+03
 -0.206504432350E+03 -0.206462712235E+03 -0.206418250708E+03 -0.206370868785E+03 -0.206320375951E+03
 -0.206266569438E+03 -0.206209233464E+03 -0.206148138423E+03 -0.206083040034E+03 -0.206013678434E+03
 -0.205939777230E+03 -0.205861042491E+03 -0.205777161690E+03 -0.205687802583E+03 -0.205592612040E+03
 -0.205491214806E+03 -0.205383212204E+03 -0.205268180773E+03 -0.205145670844E+03 -0.205015205048E+03
 -0.204876276756E+03 -0.204728348460E+03 -0.204570850079E+03 -0.204403177207E+03 -0.204224689299E+03
 -0.204034707790E+03 -0.203832514171E+03 -0.203617348005E+03 -0.203388404901E+03 -0.203144834465E+03
 -0.202885738211E+03 -0.202610167480E+03 -0.202317121352E+03 -0.202005544588E+03 -0.201674325629E+03
 -0.201322294659E+03 -0.200948221784E+03 -0.200550815358E+03 -0.200128720496E+03 -0.199680517829E+03
 -0.199204722566E+03 -0.198699783912E+03 -0.198164084953E+03 -0.197595943057E+03 -0.196993610933E+03
 -0.196355278436E+03 -0.195679075265E+03 -0.194963074699E+03 -0.194205298530E+03 -0.193403723391E+03
 -0.192556288677E+03 -0.191660906272E+03 -0.190715472353E+03 -0.189717881494E+03 -0.188666043377E+03
 -0.187557902368E+03 -0.186391460251E+03 -0.185164802386E+03 -0.183876127534E+03 -0.182523781538E+03
 -0.181106294989E+03 -0.179622424860E+03 -0.178071199977E+03 -0.176451969938E+03 -0.174764456834E+03
 -0.173008808729E+03 -0.171185653396E+03 -0.169296150144E+03 -0.167342036807E+03 -0.165325667923E+03
 -0.163250038847E+03 -0.161118788934E+03 -0.158936174980E+03 -0.156707003889E+03 -0.154436511364E+03
 -0.152130171894E+03 -0.149793425870E+03 -0.147431314457E+03 -0.145048025092E+03 -0.142646372908E+03
 -0.140227275544E+03 -0.137789310751E+03 -0.135328452355E+03 -0.132838021823E+03 -0.130308750864E+03
 -0.127723835691E+03 -0.125099962921E+03 -0.122398481386E+03 -0.119601751722E+03 -0.116720132829E+03
 -0.114092961843E+03 -0.111474381941E+03 -0.108848410065E+03 -0.106223541089E+03 -0.103628167350E+03
 -0.101060610558E+03 -0.985220907487E+02 -0.960146132522E+02 -0.935398168605E+02 -0.910990138851E+02
 -0.886932464731E+02 -0.863233568120E+02 -0.839900660081E+02 -0.816940559168E+02 -0.794360462854E+02
 -0.772168601891E+02 -0.750374716178E+02 -0.728990308786E+02 -0.708028656320E+02 -0.687504575100E+02
 -0.667433961129E+02 -0.647833136330E+02 -0.628718045238E+02 -0.610103356205E+02 -0.592001531157E+02
 -0.574421937020E+02 -0.557370078366E+02 -0.540847030130E+02 -0.524849137791E+02 -0.509368027943E+02
 -0.494390936841E+02 -0.479901324271E+02 -0.465879703663E+02 -0.452304595031E+02 -0.439153499927E+02
 -0.426403807360E+02 -0.414033562105E+02 -0.402022055498E+02 -0.390350226969E+02 -0.379000887394E+02
 -0.367958790543E+02 -0.357210586397E+02 -0.346744691196E+02 -0.336551105925E+02 -0.326621209372E+02
 -0.316947545568E+02 -0.307523619398E+02 -0.298343709003E+02 -0.289402699555E+02 -0.280695940043E+02
 -0.272219122734E+02 -0.263968183744E+02 -0.255939222557E+02 -0.248128438049E+02 -0.240532078643E+02
 -0.233146404351E+02
 core charge-density (pseudized)
  0.145922586761E-10  0.155566960465E-10  0.165848753949E-10  0.176810095813E-10  0.188495899040E-10
  0.200954045015E-10  0.214235579722E-10  0.228394922894E-10  0.243490090994E-10  0.259582934934E-10
  0.276739393499E-10  0.295029763527E-10  0.314528987940E-10  0.335316962818E-10  0.357478864765E-10
  0.381105499909E-10  0.406293675970E-10  0.433146598925E-10  0.461774295877E-10  0.492294065885E-10
  0.524830960580E-10  0.559518296555E-10  0.596498201614E-10  0.635922197125E-10  0.677951818864E-10
  0.722759278892E-10  0.770528171173E-10  0.821454223832E-10  0.875746101130E-10  0.933626258447E-10
  0.995331853763E-10  0.106111571939E-09  0.113124739793E-09  0.120601424669E-09  0.128572261510E-09
  0.137069909995E-09  0.146129188358E-09  0.155787216051E-09  0.166083565839E-09  0.177060425945E-09
  0.188762772908E-09  0.201238555873E-09  0.214538893058E-09  0.228718281199E-09  0.243834818853E-09
  0.259950444441E-09  0.277131190042E-09  0.295447451946E-09  0.314974279097E-09  0.335791680594E-09
  0.357984953525E-09  0.381645032455E-09  0.406868862023E-09  0.433759794160E-09  0.462428011560E-09
  0.492990979140E-09  0.525573925337E-09  0.560310355216E-09  0.597342597490E-09  0.636822387692E-09
  0.678911489890E-09  0.723782359493E-09  0.771618849866E-09  0.822616965639E-09  0.876985665810E-09
  0.934947719921E-09  0.996740620826E-09  0.106261755778E-08  0.113284845383E-08  0.120772107181E-08
  0.128754219338E-08  0.137263887599E-08  0.146335979300E-08  0.156007666226E-08  0.166318576915E-08
  0.177310959033E-08  0.189029852471E-08  0.201523273889E-08  0.214842413452E-08  0.229041844575E-08
  0.244179747522E-08  0.260318147785E-08  0.277523170223E-08  0.295865309988E-08  0.315419721362E-08
  0.336266525683E-08  0.358491139615E-08  0.382184625126E-08  0.407444062576E-08  0.434372948483E-08
  0.463081619558E-08  0.493687704775E-08  0.526316607313E-08  0.561102018346E-08  0.598186464788E-08
  0.637721893240E-08  0.679870292525E-08  0.724804357356E-08  0.772708195874E-08  0.823778083936E-08
  0.878223269246E-08  0.936266828632E-08  0.998146581967E-08  0.106411606648E-07  0.113444557548E-07
  0.120942326565E-07  0.128935633760E-07  0.137457229432E-07  0.146542028294E-07  0.156227252495E-07
  0.166552584111E-07  0.177560327698E-07  0.189295583594E-07  0.201806432666E-07  0.215144133263E-07
  0.229363331189E-07  0.244522283533E-07  0.260683097304E-07  0.277911983817E-07  0.296279529891E-07
  0.315860986959E-07  0.336736579276E-07  0.358991832488E-07  0.382717923899E-07  0.408012055877E-07
  0.434977853914E-07  0.463725790990E-07  0.494373639942E-07  0.527046955724E-07  0.561879589497E-07
  0.599014236675E-07  0.638603021145E-07  0.680808118065E-07  0.725802417769E-07  0.773770233502E-07
  0.824908055862E-07  0.879425357039E-07  0.937545448122E-07  0.999506392980E-07  0.106556198243E-06
  0.113598277270E-06  0.121105719233E-06  0.129109272216E-06  0.137641715304E-06  0.146737992655E-06
  0.156435356407E-06  0.166773519002E-06  0.177794815552E-06  0.189544376900E-06  0.202070314088E-06
  0.215423914960E-06  0.229659853731E-06  0.244836414329E-06  0.261015728455E-06  0.278264029291E-06
  0.296651921905E-06  0.316254671427E-06  0.337152510178E-06  0.359430964963E-06  0.383181205875E-06
  0.408500417990E-06  0.435492197455E-06  0.464266973558E-06  0.494942458463E-06  0.527644126418E-06
  0.562505724341E-06  0.599669815817E-06  0.639288360677E-06  0.681523332456E-06  0.726547376165E-06
  0.774544508994E-06  0.825710866693E-06  0.880255498571E-06  0.938401214221E-06  0.100038548530E-05
  0.106646140584E-05  0.113689871486E-05  0.121198488520E-05  0.129202628279E-05  0.137734940079E-05
  0.146830217328E-05  0.156525537359E-05  0.166860410242E-05  0.177876937147E-05  0.189619978833E-05
  0.202137334908E-05  0.215479934505E-05  0.229702039074E-05  0.244861458030E-05  0.261019778023E-05
  0.278242606656E-05  0.296599831502E-05  0.316165895318E-05  0.337020088416E-05  0.359246859165E-05
  0.382936143680E-05  0.408183715770E-05  0.435091558284E-05  0.463768257029E-05  0.494329418501E-05
  0.526898112670E-05  0.561605342168E-05  0.598590539205E-05  0.638002091623E-05  0.679997899507E-05
  0.724745963794E-05  0.772425008375E-05  0.823225137140E-05  0.877348527480E-05  0.935010161686E-05
  0.996438597709E-05  0.106187678066E-04  0.113158289640E-04  0.120583126839E-04  0.128491329902E-04
  0.136913845627E-04  0.145883530646E-04  0.155435259372E-04  0.165606036617E-04  0.176435114891E-04
  0.187964116303E-04  0.200237158962E-04  0.213300987710E-04  0.227205108936E-04  0.242001929153E-04
  0.257746896908E-04  0.274498647484E-04  0.292319149739E-04  0.311273854236E-04  0.331431841699E-04
  0.352865970570E-04  0.375653022261E-04  0.399873842415E-04  0.425613476183E-04  0.452961295209E-04
  0.482011113616E-04  0.512861289859E-04  0.545614810846E-04  0.580379354132E-04  0.617267323449E-04
  0.656395852091E-04  0.697886767947E-04  0.741866513131E-04  0.788466010197E-04  0.837820465936E-04
  0.890069102594E-04  0.945354805126E-04  0.100382367176E-03  0.106562445369E-03  0.113090786818E-03
  0.119982576768E-03  0.127253014577E-03  0.134917195905E-03  0.142989974200E-03  0.151485799021E-03
  0.160418528509E-03  0.169801213175E-03  0.179645847984E-03  0.189963089559E-03  0.200761935244E-03
  0.212049360669E-03  0.223829912487E-03  0.236105253019E-03  0.248873653745E-03  0.262129434918E-03
  0.275862349068E-03  0.290056906919E-03  0.304691645193E-03  0.319738337105E-03  0.335161148021E-03
  0.350915740892E-03  0.366948338705E-03  0.383194754480E-03  0.399579403236E-03  0.416014315113E-03
  0.432398174336E-03  0.448615415249E-03  0.464535414058E-03  0.480011823398E-03  0.494882106242E-03
  0.508967335990E-03  0.522072340552E-03  0.533986279669E-03  0.544483756050E-03  0.553326571583E-03
  0.560266248910E-03  0.565047444932E-03  0.567412384703E-03  0.567106439738E-03  0.563884961548E-03
  0.557521456246E-03  0.547817145922E-03  0.534611903132E-03  0.517796461964E-03  0.497325698210E-03
  0.473232627753E-03  0.445642592572E-03  0.414786885480E-03  0.381014807806E-03  0.344802862512E-03
  0.306759468111E-03  0.267623253183E-03  0.228252684495E-03  0.189604534052E-03  0.152698557697E-03
  0.118565814592E-03  0.881783968071E-04  0.623590744863E-04  0.416706228598E-04  0.262865176155E-04
  0.158473903209E-04  0.933113186524E-05  0.539593366026E-05  0.306281223286E-05  0.170547676853E-05
  0.931074974490E-06  0.498046569813E-06  0.260870973853E-06  0.133710911365E-06  0.670190759371E-07
  0.328258424501E-07  0.157001717147E-07  0.732721231137E-08  0.333413381754E-08  0.147805334857E-08
  0.637825046952E-09  0.267699264110E-09  0.109180364074E-09  0.432313371706E-10  0.166035723157E-10
  0.617919034971E-11  0.222614338848E-11  0.775560976412E-12  0.261008428435E-12  0.847593421201E-13
  0.265287837404E-13  0.799335331072E-14  0.231574158325E-14  0.644243146642E-15  0.171885197186E-15
  0.439204696916E-16  0.107331247847E-16  0.250487718368E-17  0.557438649449E-18  0.118109791138E-18
  0.237880416940E-19  0.454672495743E-20  0.823314994127E-21  0.140992877797E-21  0.227931454135E-22
  0.347195728439E-23  0.497357647955E-24  0.668685966378E-25  0.842057534509E-26  0.991074309153E-27
  0.108783974635E-27  0.111105828755E-28  0.105343930081E-29  0.924992023013E-31  0.750315159014E-32
  0.560807086129E-33  0.385210627527E-34  0.242500152791E-35  0.139518123289E-36  0.731460110020E-38
  0.348408020597E-39  0.150306404701E-40  0.585423486479E-42  0.205179262568E-43  0.644895709415E-45
  0.181139730071E-46
 pseudo wavefunction
  0.206436469338E-03  0.213149268271E-03  0.220080350674E-03  0.227236814579E-03  0.234625988831E-03
  0.242255440589E-03  0.250132983076E-03  0.258266683585E-03  0.266664871733E-03  0.275336147998E-03
  0.284289392523E-03  0.293533774212E-03  0.303078760118E-03  0.312934125137E-03  0.323109962024E-03
  0.333616691722E-03  0.344465074038E-03  0.355666218660E-03  0.367231596537E-03  0.379173051622E-03
  0.391502813006E-03  0.404233507438E-03  0.417378172256E-03  0.430950268742E-03  0.444963695902E-03
  0.459432804705E-03  0.474372412776E-03  0.489797819572E-03  0.505724822049E-03  0.522169730841E-03
  0.539149386963E-03  0.556681179055E-03  0.574783061192E-03  0.593473571272E-03  0.612771849995E-03
  0.632697660470E-03  0.653271408450E-03  0.674514163234E-03  0.696447679237E-03  0.719094418274E-03
  0.742477572560E-03  0.766621088460E-03  0.791549691014E-03  0.817288909255E-03  0.843865102357E-03
  0.871305486622E-03  0.899638163357E-03  0.928892147651E-03  0.959097398085E-03  0.990284847417E-03
  0.102248643425E-02  0.105573513576E-02  0.109006500144E-02  0.112551118798E-02  0.116210999528E-02
  0.119989890361E-02  0.123891661200E-02  0.127920307787E-02  0.132079955793E-02  0.136374865046E-02
  0.140809433891E-02  0.145388203696E-02  0.150115863501E-02  0.154997254818E-02  0.160037376595E-02
  0.165241390329E-02  0.170614625355E-02  0.176162584300E-02  0.181890948724E-02  0.187805584932E-02
  0.193912549982E-02  0.200218097893E-02  0.206728686041E-02  0.213450981779E-02  0.220391869260E-02
  0.227558456487E-02  0.234958082592E-02  0.242598325351E-02  0.250487008945E-02  0.258632211969E-02
  0.267042275706E-02  0.275725812669E-02  0.284691715417E-02  0.293949165662E-02  0.303507643672E-02
  0.313376937976E-02  0.323567155385E-02  0.334088731345E-02  0.344952440618E-02  0.356169408316E-02
  0.367751121290E-02  0.379709439890E-02  0.392056610113E-02  0.404805276132E-02  0.417968493251E-02
  0.431559741262E-02  0.445592938249E-02  0.460082454838E-02  0.475043128904E-02  0.490490280763E-02
  0.506439728854E-02  0.522907805932E-02  0.539911375784E-02  0.557467850492E-02  0.575595208255E-02
  0.594312011787E-02  0.613637427318E-02  0.633591244208E-02  0.654193895196E-02  0.675466477312E-02
  0.697430773467E-02  0.720109274734E-02  0.743525203369E-02  0.767702536561E-02  0.792666030967E-02
  0.818441248035E-02  0.845054580150E-02  0.872533277627E-02  0.900905476584E-02  0.930200227709E-02
  0.960447525972E-02  0.991678341285E-02  0.102392465017E-01  0.105721946844E-01  0.109159688494E-01
  0.112709209640E-01  0.116374144337E-01  0.120158244740E-01  0.124065384929E-01  0.128099564872E-01
  0.132264914507E-01  0.136565697959E-01  0.141006317892E-01  0.145591320001E-01  0.150325397653E-01
  0.155213396670E-01  0.160260320273E-01  0.165471334184E-01  0.170851771886E-01  0.176407140061E-01
  0.182143124197E-01  0.188065594376E-01  0.194180611247E-01  0.200494432195E-01  0.207013517699E-01
  0.213744537902E-01  0.220694379384E-01  0.227870152156E-01  0.235279196871E-01  0.242929092274E-01
  0.250827662876E-01  0.258982986883E-01  0.267403404368E-01  0.276097525706E-01  0.285074240269E-01
  0.294342725407E-01  0.303912455693E-01  0.313793212474E-01  0.323995093714E-01  0.334528524138E-01
  0.345404265703E-01  0.356633428382E-01  0.368227481289E-01  0.380198264143E-01  0.392557999081E-01
  0.405319302835E-01  0.418495199277E-01  0.432099132344E-01  0.446144979350E-01  0.460647064698E-01
  0.475620173999E-01  0.491079568607E-01  0.507041000581E-01  0.523520728081E-01  0.540535531210E-01
  0.558102728310E-01  0.576240192715E-01  0.594966369982E-01  0.614300295590E-01  0.634261613130E-01
  0.654870592987E-01  0.676148151514E-01  0.698115870715E-01  0.720796018429E-01  0.744211569028E-01
  0.768386224623E-01  0.793344436788E-01  0.819111428785E-01  0.845713218311E-01  0.873176640732E-01
  0.901529372827E-01  0.930799957008E-01  0.961017826019E-01  0.992213328086E-01  0.102441775251E+00
  0.105766335567E+00  0.109198338741E+00  0.112741211778E+00  0.116398486409E+00  0.120173801822E+00
  0.124070907415E+00  0.128093665568E+00  0.132246054416E+00  0.136532170627E+00  0.140956232177E+00
  0.145522581096E+00  0.150235686192E+00  0.155100145731E+00  0.160120690062E+00  0.165302184164E+00
  0.170649630111E+00  0.176168169417E+00  0.181863085257E+00  0.187739804523E+00  0.193803899702E+00
  0.200061090529E+00  0.206517245399E+00  0.213178382487E+00  0.220050670534E+00  0.227140429270E+00
  0.234454129394E+00  0.241998392085E+00  0.249779987961E+00  0.257805835426E+00  0.266082998327E+00
  0.274618682845E+00  0.283420233517E+00  0.292495128305E+00  0.301850972582E+00  0.311495491943E+00
  0.321436523680E+00  0.331682006804E+00  0.342239970441E+00  0.353118520437E+00  0.364325823988E+00
  0.375870092095E+00  0.387759559618E+00  0.400002462696E+00  0.412607013277E+00  0.425581370473E+00
  0.438933608451E+00  0.452671680522E+00  0.466803379091E+00  0.481336291092E+00  0.496277748506E+00
  0.511634773540E+00  0.527414018010E+00  0.543621696461E+00  0.560263512493E+00  0.577344577795E+00
  0.594869323299E+00  0.612841401904E+00  0.631263582156E+00  0.650137632291E+00  0.669464194013E+00
  0.689242645398E+00  0.709470952316E+00  0.730145507794E+00  0.751260958752E+00  0.772810019636E+00
  0.794783272520E+00  0.817168953348E+00  0.839952724131E+00  0.863117431063E+00  0.886642848732E+00
  0.910505410851E+00  0.934677928238E+00  0.959129295134E+00  0.983824185400E+00  0.100872274063E+01
  0.103378025286E+01  0.105894684511E+01  0.108416715413E+01  0.110938002014E+01  0.113451818993E+01
  0.115950804037E+01  0.118426933109E+01  0.120871499613E+01  0.123275098617E+01  0.125627617437E+01
  0.127918234079E+01  0.130135425172E+01  0.132266985231E+01  0.134300059230E+01  0.136221190597E+01
  0.138016386868E+01  0.139671205269E+01  0.141170860490E+01  0.142500356791E+01  0.143644646343E+01
  0.144588815297E+01  0.145318298467E+01  0.145819122634E+01  0.146078177340E+01  0.146083510479E+01
  0.145824644097E+01  0.145292903374E+01  0.144481748876E+01  0.143387098719E+01  0.142007623293E+01
  0.140344990755E+01  0.138404036601E+01  0.136192825576E+01  0.133722569117E+01  0.131007357014E+01
  0.128063658414E+01  0.124909545618E+01  0.121563595141E+01  0.118043425607E+01  0.114363842484E+01
  0.110534577271E+01  0.106558928563E+01  0.102454013405E+01  0.982423078806E+00  0.939472867677E+00
  0.895922541787E+00  0.852001637310E+00  0.807934455902E+00  0.763938414303E+00  0.720222483642E+00
  0.676985728372E+00  0.634415954838E+00  0.592688479976E+00  0.551965031636E+00  0.512392793228E+00
  0.474103606426E+00  0.437213346199E+00  0.401821481951E+00  0.368010836679E+00  0.335847552659E+00
  0.305381267229E+00  0.276645496109E+00  0.249658214970E+00  0.224422623196E+00  0.200928067803E+00
  0.179151100760E+00  0.159056639883E+00  0.140599202360E+00  0.123724180553E+00  0.108369132078E+00
  0.944650597084E-01  0.819376611201E-01  0.707085332644E-01  0.606963207878E-01  0.518178017968E-01
  0.439889070859E-01  0.371256704512E-01  0.311451079526E-01  0.259660232525E-01  0.215097349270E-01
  0.177007204421E-01  0.144671708158E-01  0.117414501645E-01  0.946045547733E-02  0.756587399442E-02
  0.600433825148E-02  0.472748186750E-02  0.369190217458E-02  0.285903851841E-02  0.219497727740E-02
  0.167019621938E-02  0.125926167858E-02  0.940492205631E-03  0.695601883181E-03  0.509335511473E-03
  0.369106473921E-03  0.264646422155E-03  0.187674100369E-03  0.131588776038E-03  0.911919575470E-04
  0.624394385201E-04
 ae wavefunction
 -0.100159027303E-02 -0.103406906520E-02 -0.106760044793E-02 -0.110221849490E-02 -0.113795838032E-02
 -0.117485641421E-02 -0.121295007898E-02 -0.125227806701E-02 -0.129288031952E-02 -0.133479806667E-02
 -0.137807386890E-02 -0.142275165957E-02 -0.146887678900E-02 -0.151649606988E-02 -0.156565782409E-02
 -0.161641193103E-02 -0.166880987750E-02 -0.172290480907E-02 -0.177875158314E-02 -0.183640682369E-02
 -0.189592897765E-02 -0.195737837316E-02 -0.202081727957E-02 -0.208630996937E-02 -0.215392278203E-02
 -0.222372418988E-02 -0.229578486599E-02 -0.237017775420E-02 -0.244697814135E-02 -0.252626373173E-02
 -0.260811472380E-02 -0.269261388944E-02 -0.277984665543E-02 -0.286990118770E-02 -0.296286847793E-02
 -0.305884243304E-02 -0.315791996728E-02 -0.326020109724E-02 -0.336578903969E-02 -0.347479031249E-02
 -0.358731483854E-02 -0.370347605290E-02 -0.382339101315E-02 -0.394718051315E-02 -0.407496920018E-02
 -0.420688569562E-02 -0.434306271931E-02 -0.448363721757E-02 -0.462875049517E-02 -0.477854835105E-02
 -0.493318121825E-02 -0.509280430793E-02 -0.525757775761E-02 -0.542766678381E-02 -0.560324183918E-02
 -0.578447877421E-02 -0.597155900364E-02 -0.616466967771E-02 -0.636400385839E-02 -0.656976070058E-02
 -0.678214563861E-02 -0.700137057802E-02 -0.722765409271E-02 -0.746122162776E-02 -0.770230570791E-02
 -0.795114615170E-02 -0.820799029187E-02 -0.847309320152E-02 -0.874671792660E-02 -0.902913572482E-02
 -0.932062631071E-02 -0.962147810771E-02 -0.993198850642E-02 -0.102524641301E-01 -0.105832211070E-01
 -0.109245853495E-01 -0.112768928409E-01 -0.116404899287E-01 -0.120157336265E-01 -0.124029919221E-01
 -0.128026440936E-01 -0.132150810339E-01 -0.136407055819E-01 -0.140799328621E-01 -0.145331906317E-01
 -0.150009196365E-01 -0.154835739733E-01 -0.159816214622E-01 -0.164955440249E-01 -0.170258380727E-01
 -0.175730149020E-01 -0.181376010970E-01 -0.187201389415E-01 -0.193211868380E-01 -0.199413197347E-01
 -0.205811295598E-01 -0.212412256641E-01 -0.219222352699E-01 -0.226248039280E-01 -0.233495959808E-01
 -0.240972950329E-01 -0.248686044266E-01 -0.256642477248E-01 -0.264849691986E-01 -0.273315343200E-01
 -0.282047302591E-01 -0.291053663859E-01 -0.300342747742E-01 -0.309923107094E-01 -0.319803531974E-01
 -0.329993054744E-01 -0.340500955176E-01 -0.351336765537E-01 -0.362510275664E-01 -0.374031538004E-01
 -0.385910872597E-01 -0.398158872019E-01 -0.410786406224E-01 -0.423804627316E-01 -0.437224974193E-01
 -0.451059177066E-01 -0.465319261827E-01 -0.480017554236E-01 -0.495166683912E-01 -0.510779588092E-01
 -0.526869515138E-01 -0.543450027755E-01 -0.560535005886E-01 -0.578138649254E-01 -0.596275479512E-01
 -0.614960341950E-01 -0.634208406735E-01 -0.654035169611E-01 -0.674456452040E-01 -0.695488400704E-01
 -0.717147486324E-01 -0.739450501737E-01 -0.762414559162E-01 -0.786057086583E-01 -0.810395823192E-01
 -0.835448813796E-01 -0.861234402114E-01 -0.887771222885E-01 -0.915078192677E-01 -0.943174499322E-01
 -0.972079589845E-01 -0.100181315681E+00 -0.103239512296E+00 -0.106384562397E+00 -0.109618498933E+00
 -0.112943372100E+00 -0.116361247000E+00 -0.119874201040E+00 -0.123484321094E+00 -0.127193700387E+00
 -0.131004435084E+00 -0.134918620586E+00 -0.138938347490E+00 -0.143065697207E+00 -0.147302737213E+00
 -0.151651515917E+00 -0.156114057111E+00 -0.160692353996E+00 -0.165388362745E+00 -0.170203995586E+00
 -0.175141113375E+00 -0.180201517639E+00 -0.185386942056E+00 -0.190699043337E+00 -0.196139391504E+00
 -0.201709459508E+00 -0.207410612172E+00 -0.213244094428E+00 -0.219211018813E+00 -0.225312352192E+00
 -0.231548901685E+00 -0.237921299756E+00 -0.244429988440E+00 -0.251075202676E+00 -0.257856952719E+00
 -0.264775005589E+00 -0.271828865555E+00 -0.279017753596E+00 -0.286340585837E+00 -0.293795950936E+00
 -0.301382086386E+00 -0.309096853736E+00 -0.316937712701E+00 -0.324901694166E+00 -0.332985372063E+00
 -0.341184834140E+00 -0.349495651613E+00 -0.357912847728E+00 -0.366430865235E+00 -0.375043532828E+00
 -0.383744030560E+00 -0.392524854311E+00 -0.401377779341E+00 -0.410293823013E+00 -0.419263206771E+00
 -0.428275317460E+00 -0.437318668115E+00 -0.446380858336E+00 -0.455448534399E+00 -0.464507349281E+00
 -0.473541922764E+00 -0.482535801848E+00 -0.491471421680E+00 -0.500330067276E+00 -0.509091836296E+00
 -0.517735603195E+00 -0.526238985064E+00 -0.534578309535E+00 -0.542728585142E+00 -0.550663474550E+00
 -0.558355271109E+00 -0.565774879216E+00 -0.572891799001E+00 -0.579674115876E+00 -0.586088495544E+00
 -0.592100185052E+00 -0.597673020551E+00 -0.602769442416E+00 -0.607350518433E+00 -0.611375975769E+00
 -0.614804242477E+00 -0.617592499284E+00 -0.619696742468E+00 -0.621071858593E+00 -0.621671711903E+00
 -0.621449245187E+00 -0.620356594879E+00 -0.618345221189E+00 -0.615366053993E+00 -0.611369655203E+00
 -0.606306398282E+00 -0.600126665497E+00 -0.592781063432E+00 -0.584220657212E+00 -0.574397223735E+00
 -0.563263524118E+00 -0.550773595393E+00 -0.536883061321E+00 -0.521549461998E+00 -0.504732601700E+00
 -0.486394914195E+00 -0.466501844454E+00 -0.445022245455E+00 -0.421928788431E+00 -0.397198384644E+00
 -0.370812616442E+00 -0.342758175026E+00 -0.313027302083E+00 -0.281618232127E+00 -0.248535632108E+00
 -0.213791034579E+00 -0.177403260432E+00 -0.139398826850E+00 -0.998123357304E-01 -0.586868371880E-01
 -0.160741619148E-01  0.279647851387E-01  0.733597790295E-01  0.120031088595E+00  0.167889363883E+00
  0.216835613568E+00  0.266761288911E+00  0.317548486309E+00  0.369070267693E+00  0.421191074241E+00
  0.473767176062E+00  0.526647070058E+00  0.579671731096E+00  0.632674660305E+00  0.685481764764E+00
  0.737911220818E+00  0.789773564267E+00  0.840872251169E+00  0.891004812523E+00  0.939964532092E+00
  0.987542423781E+00  0.103352926373E+01  0.107771752564E+01  0.111990318741E+01  0.115988745034E+01
  0.119747842632E+01  0.123249282924E+01  0.126475767747E+01  0.129411199133E+01  0.132040845509E+01
  0.134351500712E+01  0.136331632192E+01  0.137971515094E+01  0.139263349424E+01  0.140201358042E+01
  0.140781863718E+01  0.141003343989E+01  0.140866462982E+01  0.140374079763E+01  0.139531233212E+01
  0.138345103718E+01  0.136824952455E+01  0.134982039218E+01  0.132829520226E+01  0.130382327468E+01
  0.127657031495E+01  0.124671689649E+01  0.121445681951E+01  0.117999536871E+01  0.114354749261E+01
  0.110533592718E+01  0.106558928563E+01  0.102454013405E+01  0.982423078806E+00  0.939472867677E+00
  0.895922541787E+00  0.852001637310E+00  0.807934455902E+00  0.763938414303E+00  0.720222483642E+00
  0.676985728372E+00  0.634415954838E+00  0.592688479976E+00  0.551965031636E+00  0.512392793228E+00
  0.474103606426E+00  0.437213346199E+00  0.401821481951E+00  0.368010836679E+00  0.335847552659E+00
  0.305381267229E+00  0.276645496109E+00  0.249658214970E+00  0.224422623196E+00  0.200928067803E+00
  0.179151100760E+00  0.159056639883E+00  0.140599202360E+00  0.123724180553E+00  0.108369132078E+00
  0.944650597084E-01  0.819376611201E-01  0.707085332644E-01  0.606963207878E-01  0.518178017968E-01
  0.439889070859E-01  0.371256704512E-01  0.311451079526E-01  0.259660232525E-01  0.215097349270E-01
  0.177007204421E-01  0.144671708158E-01  0.117414501645E-01  0.946045547733E-02  0.756587399442E-02
  0.600433825148E-02  0.472748186750E-02  0.369190217458E-02  0.285903851841E-02  0.219497727740E-02
  0.167019621938E-02  0.125926167858E-02  0.940492205631E-03  0.695601883181E-03  0.509335511473E-03
  0.369106473921E-03  0.264646422155E-03  0.187674100369E-03  0.131588776038E-03  0.911919575470E-04
  0.624394385201E-04
 pseudo wavefunction
 -0.279515514899E-03 -0.288604662055E-03 -0.297989365593E-03 -0.307679236269E-03 -0.317684197356E-03
 -0.328014494807E-03 -0.338680707748E-03 -0.349693759311E-03 -0.361064927822E-03 -0.372805858349E-03
 -0.384928574629E-03 -0.397445491380E-03 -0.410369427016E-03 -0.423713616773E-03 -0.437491726265E-03
 -0.451717865477E-03 -0.466406603214E-03 -0.481572982023E-03 -0.497232533596E-03 -0.513401294678E-03
 -0.530095823487E-03 -0.547333216674E-03 -0.565131126828E-03 -0.583507780556E-03 -0.602481997151E-03
 -0.622073207859E-03 -0.642301475781E-03 -0.663187516421E-03 -0.684752718896E-03 -0.707019167845E-03
 -0.730009666044E-03 -0.753747757754E-03 -0.778257752838E-03 -0.803564751654E-03 -0.829694670757E-03
 -0.856674269445E-03 -0.884531177158E-03 -0.913293921774E-03 -0.942991958826E-03 -0.973655701663E-03
 -0.100531655260E-02 -0.103800693507E-02 -0.107176032684E-02 -0.110661129428E-02 -0.114259552776E-02
 -0.117974987823E-02 -0.121811239491E-02 -0.125772236431E-02 -0.129862035040E-02 -0.134084823622E-02
 -0.138444926669E-02 -0.142946809298E-02 -0.147595081818E-02 -0.152394504453E-02 -0.157349992215E-02
 -0.162466619941E-02 -0.167749627488E-02 -0.173204425096E-02 -0.178836598933E-02 -0.184651916815E-02
 -0.190656334107E-02 -0.196855999830E-02 -0.203257262950E-02 -0.209866678885E-02 -0.216691016217E-02
 -0.223737263621E-02 -0.231012637022E-02 -0.238524586988E-02 -0.246280806354E-02 -0.254289238105E-02
 -0.262558083507E-02 -0.271095810503E-02 -0.279911162389E-02 -0.289013166764E-02 -0.298411144775E-02
 -0.308114720661E-02 -0.318133831611E-02 -0.328478737934E-02 -0.339160033571E-02 -0.350188656938E-02
 -0.361575902131E-02 -0.373333430485E-02 -0.385473282520E-02 -0.398007890266E-02 -0.410950089994E-02
 -0.424313135355E-02 -0.438110710959E-02 -0.452356946375E-02 -0.467066430608E-02 -0.482254227028E-02
 -0.497935888798E-02 -0.514127474795E-02 -0.530845566048E-02 -0.548107282719E-02 -0.565930301627E-02
 -0.584332874343E-02 -0.603333845875E-02 -0.622952673962E-02 -0.643209448987E-02 -0.664124914545E-02
 -0.685720488679E-02 -0.708018285794E-02 -0.731041139301E-02 -0.754812624982E-02 -0.779357085116E-02
 -0.804699653400E-02 -0.830866280658E-02 -0.857883761408E-02 -0.885779761273E-02 -0.914582845289E-02
 -0.944322507135E-02 -0.975029199304E-02 -0.100673436426E-01 -0.103947046660E-01 -0.107327102625E-01
 -0.110817065279E-01 -0.114420508078E-01 -0.118141120638E-01 -0.121982712501E-01 -0.125949217035E-01
 -0.130044695452E-01 -0.134273340961E-01 -0.138639483053E-01 -0.143147591926E-01 -0.147802283051E-01
 -0.152608321889E-01 -0.157570628758E-01 -0.162694283861E-01 -0.167984532468E-01 -0.173446790274E-01
 -0.179086648930E-01 -0.184909881742E-01 -0.190922449568E-01 -0.197130506895E-01 -0.203540408114E-01
 -0.210158714002E-01 -0.216992198402E-01 -0.224047855131E-01 -0.231332905098E-01 -0.238854803656E-01
 -0.246621248195E-01 -0.254640185962E-01 -0.262919822151E-01 -0.271468628239E-01 -0.280295350589E-01
 -0.289409019334E-01 -0.298818957538E-01 -0.308534790650E-01 -0.318566456259E-01 -0.328924214155E-01
 -0.339618656719E-01 -0.350660719622E-01 -0.362061692886E-01 -0.373833232267E-01 -0.385987371020E-01
 -0.398536532012E-01 -0.411493540229E-01 -0.424871635661E-01 -0.438684486596E-01 -0.452946203320E-01
 -0.467671352244E-01 -0.482874970460E-01 -0.498572580750E-01 -0.514780207046E-01 -0.531514390365E-01
 -0.548792205219E-01 -0.566631276528E-01 -0.585049797028E-01 -0.604066545204E-01 -0.623700903748E-01
 -0.643972878560E-01 -0.664903118304E-01 -0.686512934520E-01 -0.708824322324E-01 -0.731859981680E-01
 -0.755643339283E-01 -0.780198571032E-01 -0.805550625136E-01 -0.831725245830E-01 -0.858748997728E-01
 -0.886649290814E-01 -0.915454406073E-01 -0.945193521776E-01 -0.975896740403E-01 -0.100759511623E+00
 -0.104032068353E+00 -0.107410648550E+00 -0.110898660372E+00 -0.114499618828E+00 -0.118217148861E+00
 -0.122054988473E+00 -0.126016991927E+00 -0.130107132990E+00 -0.134329508235E+00 -0.138688340393E+00
 -0.143187981741E+00 -0.147832917540E+00 -0.152627769499E+00 -0.157577299271E+00 -0.162686411960E+00
 -0.167960159651E+00 -0.173403744926E+00 -0.179022524382E+00 -0.184822012116E+00 -0.190807883173E+00
 -0.196985976949E+00 -0.203362300503E+00 -0.209943031792E+00 -0.216734522786E+00 -0.223743302429E+00
 -0.230976079447E+00 -0.238439744942E+00 -0.246141374750E+00 -0.254088231524E+00 -0.262287766494E+00
 -0.270747620857E+00 -0.279475626747E+00 -0.288479807718E+00 -0.297768378680E+00 -0.307349745218E+00
 -0.317232502206E+00 -0.327425431633E+00 -0.337937499544E+00 -0.348777851992E+00 -0.359955809870E+00
 -0.371480862517E+00 -0.383362659930E+00 -0.395611003453E+00 -0.408235834748E+00 -0.421247222885E+00
 -0.434655349325E+00 -0.448470490597E+00 -0.462702998400E+00 -0.477363276892E+00 -0.492461756859E+00
 -0.508008866455E+00 -0.524014998183E+00 -0.540490471727E+00 -0.557445492262E+00 -0.574890103785E+00
 -0.592834137013E+00 -0.611287151351E+00 -0.630258370377E+00 -0.649756610267E+00 -0.669790200557E+00
 -0.690366896550E+00 -0.711493782700E+00 -0.733177166197E+00 -0.755422459982E+00 -0.778234054363E+00
 -0.801615176361E+00 -0.825567735888E+00 -0.850092157822E+00 -0.875187199034E+00 -0.900849749390E+00
 -0.927074615746E+00 -0.953854287995E+00 -0.981178686206E+00 -0.100903488797E+01 -0.103740683516E+01
 -0.106627501930E+01 -0.109561614515E+01 -0.112540277184E+01 -0.115560293167E+01 -0.118617972648E+01
 -0.121709090213E+01 -0.124828840209E+01 -0.127971790137E+01 -0.131131832293E+01 -0.134302133939E+01
 -0.137475086341E+01 -0.140642253149E+01 -0.143794318684E+01 -0.146921036810E+01 -0.150011181248E+01
 -0.153052498298E+01 -0.156031663165E+01 -0.158934241212E+01 -0.161744655712E+01 -0.164446163854E+01
 -0.167020842984E+01 -0.169449589269E+01 -0.171712131177E+01 -0.173787060348E+01 -0.175651882580E+01
 -0.177283091726E+01 -0.178656269338E+01 -0.179746212766E+01 -0.180527094232E+01 -0.180972652958E+01
 -0.181056421839E+01 -0.180751989263E+01 -0.180033295511E+01 -0.178874961634E+01 -0.177252646808E+01
 -0.175143427801E+01 -0.172526191469E+01 -0.169382027980E+01 -0.165694608987E+01 -0.161450531175E+01
 -0.156639601851E+01 -0.151255039679E+01 -0.145293560821E+01 -0.138755319079E+01 -0.131643668983E+01
 -0.123964723940E+01 -0.115726688694E+01 -0.106938957687E+01 -0.976109897281E+00 -0.877509961036E+00
 -0.773645149292E+00 -0.664544400419E+00 -0.550321870566E+00 -0.431143482169E+00 -0.307167808156E+00
 -0.178541425784E+00 -0.453944817404E-01  0.921640538188E-01  0.234051481928E+00  0.380216860702E+00
  0.530646928217E+00  0.685372510839E+00  0.000000000000E+00  0.000000000000E+00  0.000000000000E+00
  0.000000000000E+00  0.000000000000E+00  0.000000000000E+00  0.000000000000E+00  0.000000000000E+00
  0.000000000000E+00  0.000000000000E+00  0.000000000000E+00  0.000000000000E+00  0.000000000000E+00
  0.000000000000E+00  0.000000000000E+00  0.000000000000E+00  0.000000000000E+00  0.000000000000E+00
  0.000000000000E+00  0.000000000000E+00  0.000000000000E+00  0.000000000000E+00  0.000000000000E+00
  0.000000000000E+00  0.000000000000E+00  0.000000000000E+00  0.000000000000E+00  0.000000000000E+00
  0.000000000000E+00  0.000000000000E+00  0.000000000000E+00  0.000000000000E+00  0.000000000000E+00
  0.000000000000E+00  0.000000000000E+00  0.000000000000E+00  0.000000000000E+00  0.000000000000E+00
  0.000000000000E+00  0.000000000000E+00  0.000000000000E+00  0.000000000000E+00  0.000000000000E+00
  0.000000000000E+00  0.000000000000E+00  0.000000000000E+00  0.000000000000E+00  0.000000000000E+00
  0.000000000000E+00
 ae wavefunction
  0.131112129669E-02  0.135363732023E-02  0.139753122636E-02  0.144284761891E-02  0.148963254226E-02
  0.153793352768E-02  0.158779964111E-02  0.163928153241E-02  0.169243148619E-02  0.174730347438E-02
  0.180395321022E-02  0.186243820425E-02  0.192281782181E-02  0.198515334253E-02  0.204950802167E-02
  0.211594715331E-02  0.218453813569E-02  0.225535053844E-02  0.232845617207E-02  0.240392915956E-02
  0.248184601026E-02  0.256228569604E-02  0.264532972992E-02  0.273106224711E-02  0.281957008858E-02
  0.291094288726E-02  0.300527315697E-02  0.310265638405E-02  0.320319112190E-02  0.330697908846E-02
  0.341412526666E-02  0.352473800807E-02  0.363892913971E-02  0.375681407418E-02  0.387851192314E-02
  0.400414561438E-02  0.413384201241E-02  0.426773204282E-02  0.440595082035E-02  0.454863778100E-02
  0.469593681809E-02  0.484799642248E-02  0.500496982706E-02  0.516701515562E-02  0.533429557625E-02
  0.550697945925E-02  0.568524053999E-02  0.586925808644E-02  0.605921707193E-02  0.625530835281E-02
  0.645772885168E-02  0.666668174581E-02  0.688237666129E-02  0.710502987277E-02  0.733486450923E-02
  0.757211076554E-02  0.781700612042E-02  0.806979556052E-02  0.833073181115E-02  0.860007557350E-02
  0.887809576871E-02  0.916506978894E-02  0.946128375550E-02  0.976703278423E-02  0.100826212585E-01
  0.104083631095E-01  0.107445821048E-01  0.110916121441E-01  0.114497975641E-01  0.118194934507E-01
  0.122010659602E-01  0.125948926490E-01  0.130013628118E-01  0.134208778290E-01  0.138538515234E-01
  0.143007105254E-01  0.147618946485E-01  0.152378572732E-01  0.157290657421E-01  0.162360017631E-01
  0.167591618239E-01  0.172990576157E-01  0.178562164671E-01  0.184311817891E-01  0.190245135291E-01
  0.196367886364E-01  0.202686015373E-01  0.209205646217E-01  0.215933087388E-01  0.222874837050E-01
  0.230037588205E-01  0.237428233983E-01  0.245053873015E-01  0.252921814927E-01  0.261039585926E-01
  0.269414934489E-01  0.278055837147E-01  0.286970504370E-01  0.296167386544E-01  0.305655180032E-01
  0.315442833331E-01  0.325539553301E-01  0.335954811482E-01  0.346698350475E-01  0.357780190386E-01
  0.369210635343E-01  0.381000280054E-01  0.393160016403E-01  0.405701040097E-01  0.418634857324E-01
  0.431973291423E-01  0.445728489566E-01  0.459912929414E-01  0.474539425753E-01  0.489621137086E-01
  0.505171572161E-01  0.521204596420E-01  0.537734438353E-01  0.554775695718E-01  0.572343341629E-01
  0.590452730457E-01  0.609119603541E-01  0.628360094663E-01  0.648190735257E-01  0.668628459328E-01
  0.689690608026E-01  0.711394933844E-01  0.733759604399E-01  0.756803205745E-01  0.780544745165E-01
  0.805003653394E-01  0.830199786217E-01  0.856153425373E-01  0.882885278704E-01  0.910416479485E-01
  0.938768584851E-01  0.967963573241E-01  0.998023840792E-01  0.102897219657E+00  0.106083185654E+00
  0.109362643625E+00  0.112737994196E+00  0.116211676026E+00  0.119786164602E+00  0.123463970845E+00
  0.127247639527E+00  0.131139747472E+00  0.135142901539E+00  0.139259736355E+00  0.143492911803E+00
  0.147845110218E+00  0.152319033302E+00  0.156917398721E+00  0.161642936363E+00  0.166498384246E+00
  0.171486484043E+00  0.176609976204E+00  0.181871594654E+00  0.187274061031E+00  0.192820078450E+00
  0.198512324749E+00  0.204353445206E+00  0.210346044679E+00  0.216492679147E+00  0.222795846620E+00
  0.229257977373E+00  0.235881423488E+00  0.242668447646E+00  0.249621211148E+00  0.256741761122E+00
  0.264032016871E+00  0.271493755337E+00  0.279128595620E+00  0.286937982534E+00  0.294923169138E+00
  0.303085198217E+00  0.311424882660E+00  0.319942784701E+00  0.328639193984E+00  0.337514104395E+00
  0.346567189650E+00  0.355797777583E+00  0.365204823096E+00  0.374786879754E+00  0.384542069981E+00
  0.394468053835E+00  0.404561996338E+00  0.414820533346E+00  0.425239735941E+00  0.435815073342E+00
  0.446541374325E+00  0.457412787182E+00  0.468422738203E+00  0.479563888738E+00  0.490828090848E+00
  0.502206341618E+00  0.513688736176E+00  0.525264419495E+00  0.536921537085E+00  0.548647184658E+00
  0.560427356919E+00  0.572246895613E+00  0.584089437000E+00  0.595937358954E+00  0.607771727907E+00
  0.619572245866E+00  0.631317197791E+00  0.642983399630E+00  0.654546147349E+00  0.665979167312E+00
  0.677254568433E+00  0.688342796524E+00  0.699212591324E+00  0.709830946724E+00  0.720163074749E+00
  0.730172373887E+00  0.739820402428E+00  0.749066857471E+00  0.757869560360E+00  0.766184449292E+00
  0.773965579941E+00  0.781165134935E+00  0.787733443100E+00  0.793619009413E+00  0.798768556625E+00
  0.803127079587E+00  0.806637913299E+00  0.809242815773E+00  0.810882066765E+00  0.811494583513E+00
  0.811018054551E+00  0.809389092730E+00  0.806543408512E+00  0.802416004613E+00  0.796941393008E+00
  0.790053835279E+00  0.781687607177E+00  0.771777288236E+00  0.760258077099E+00  0.747066133140E+00
  0.732138944756E+00  0.715415724553E+00  0.696837831407E+00  0.676349219156E+00  0.653896911378E+00
  0.629431501426E+00  0.602907676540E+00  0.574284764510E+00  0.543527300953E+00  0.510605614909E+00
  0.475496430012E+00  0.438183478124E+00  0.398658121878E+00  0.356919982226E+00  0.312977566680E+00
  0.266848893571E+00  0.218562107233E+00  0.168156078590E+00  0.115680984956E+00  0.611988620688E-01
  0.478412013547E-02 -0.534759860812E-01 -0.113480945490E+00 -0.175116652654E+00 -0.238255162432E+00
 -0.302754559045E+00 -0.368458961514E+00 -0.435198681223E+00 -0.502790530101E+00 -0.571038246100E+00
 -0.639732959304E+00 -0.708653582314E+00 -0.777567000910E+00 -0.846227994350E+00 -0.914378936498E+00
 -0.981749485462E+00 -0.104805658810E+01 -0.111300512242E+01 -0.117628933760E+01 -0.123759499263E+01
 -0.129660189470E+01 -0.135298651348E+01 -0.140642447457E+01 -0.145659289396E+01 -0.150317261111E+01
 -0.154585039549E+01 -0.158432117481E+01 -0.161829029349E+01 -0.164747577930E+01 -0.167161057733E+01
 -0.169044470203E+01 -0.170374725888E+01 -0.171130829064E+01 -0.171294041019E+01 -0.170848018838E+01
 -0.169778927177E+01 -0.168075521079E+01 -0.165729198488E+01 -0.162734021458E+01 -0.159086705713E+01
 -0.154786578404E+01 -0.149835504551E+01 -0.144237782784E+01 -0.138000011468E+01 -0.131130926417E+01
 -0.123641211654E+01 -0.115543284606E+01 -0.106851057266E+01 -0.975796745417E+00 -0.877452309126E+00
 -0.773644660953E+00 -0.664544400419E+00 -0.550321870566E+00 -0.431143482169E+00 -0.307167808156E+00
 -0.178541425784E+00 -0.453944817404E-01  0.921640538188E-01  0.234051481928E+00  0.380216860702E+00
  0.530646928217E+00  0.685372510839E+00  0.000000000000E+00  0.000000000000E+00  0.000000000000E+00
  0.000000000000E+00  0.000000000000E+00  0.000000000000E+00  0.000000000000E+00  0.000000000000E+00
  0.000000000000E+00  0.000000000000E+00  0.000000000000E+00  0.000000000000E+00  0.000000000000E+00
  0.000000000000E+00  0.000000000000E+00  0.000000000000E+00  0.000000000000E+00  0.000000000000E+00
  0.000000000000E+00  0.000000000000E+00  0.000000000000E+00  0.000000000000E+00  0.000000000000E+00
  0.000000000000E+00  0.000000000000E+00  0.000000000000E+00  0.000000000000E+00  0.000000000000E+00
  0.000000000000E+00  0.000000000000E+00  0.000000000000E+00  0.000000000000E+00  0.000000000000E+00
  0.000000000000E+00  0.000000000000E+00  0.000000000000E+00  0.000000000000E+00  0.000000000000E+00
  0.000000000000E+00  0.000000000000E+00  0.000000000000E+00  0.000000000000E+00  0.000000000000E+00
  0.000000000000E+00  0.000000000000E+00  0.000000000000E+00  0.000000000000E+00  0.000000000000E+00
  0.000000000000E+00
 pseudo wavefunction
  0.102023570179E-07  0.108766552637E-07  0.115955194977E-07  0.123618951928E-07  0.131789224956E-07
  0.140499490921E-07  0.149785439253E-07  0.159685118177E-07  0.170239090621E-07  0.181490600411E-07
  0.193485749464E-07  0.206273686680E-07  0.219906809329E-07  0.234440977742E-07  0.249935744194E-07
  0.266454596909E-07  0.284065220205E-07  0.302839771814E-07  0.322855178547E-07  0.344193451493E-07
  0.366942022048E-07  0.391194100159E-07  0.417049056242E-07  0.444612828342E-07  0.473998356199E-07
  0.505326044015E-07  0.538724253791E-07  0.574329831279E-07  0.612288666694E-07  0.652756292486E-07
  0.695898520611E-07  0.741892121938E-07  0.790925550542E-07  0.843199715875E-07  0.898928805978E-07
  0.958341165088E-07  0.102168022925E-06  0.108920552380E-06  0.116119372668E-06  0.123793980218E-06
  0.131975820945E-06  0.140698419100E-06  0.149997514632E-06  0.159911209627E-06  0.170480124429E-06
  0.181747564076E-06  0.193759695740E-06  0.206565737889E-06  0.220218161955E-06  0.234772907333E-06
  0.250289610583E-06  0.266831849786E-06  0.284467405048E-06  0.303268536220E-06  0.323312278979E-06
  0.344680760467E-06  0.367461535802E-06  0.391747946824E-06  0.417639504553E-06  0.445242296923E-06
  0.474669423466E-06  0.506041458723E-06  0.539486946284E-06  0.575142925484E-06  0.613155492899E-06
  0.653680400963E-06  0.696883696143E-06  0.742942399297E-06  0.792045230990E-06  0.844393384757E-06
  0.900201351462E-06  0.959697798155E-06  0.102312650500E-05  0.109074736412E-05  0.116283744451E-05
  0.123969212722E-05  0.132162631572E-05  0.140897572610E-05  0.150209826265E-05  0.160137548434E-05
  0.170721416815E-05  0.182004797581E-05  0.194033923067E-05  0.206858081195E-05  0.220529817427E-05
  0.235105150060E-05  0.250643799751E-05  0.267209434212E-05  0.284869929075E-05  0.303697646001E-05
  0.323769729167E-05  0.345168421351E-05  0.367981400901E-05  0.392302140977E-05  0.418230292543E-05
  0.445872092656E-05  0.475340799752E-05  0.506757157691E-05  0.540249890473E-05  0.575956229655E-05
  0.614022476611E-05  0.654604601963E-05  0.697868884626E-05  0.743992593073E-05  0.793164711644E-05
  0.845586714834E-05  0.901473392769E-05  0.961053731217E-05  0.102457184977E-04  0.109228800203E-04
  0.116447964186E-04  0.124144256015E-04  0.132349209663E-04  0.141096443187E-04  0.150421796456E-04
  0.160363477985E-04  0.170962221471E-04  0.182261452673E-04  0.194307467323E-04  0.207149620784E-04
  0.220840530254E-04  0.235436290314E-04  0.250996702737E-04  0.267585521469E-04  0.285270713798E-04
  0.304124738787E-04  0.324224844097E-04  0.345653382422E-04  0.368498148830E-04  0.392852740397E-04
  0.418816939593E-04  0.446497122999E-04  0.476006697029E-04  0.507466562427E-04  0.541005609458E-04
  0.576761245797E-04  0.614879959303E-04  0.655517917949E-04  0.698841609385E-04  0.745028522741E-04
  0.794267875454E-04  0.846761388093E-04  0.902724110360E-04  0.962385301617E-04  0.102598936957E-03
  0.109379687090E-03  0.116608557800E-03  0.124315161607E-03  0.132531067535E-03  0.141289930327E-03
  0.150627628195E-03  0.160582409656E-03  0.171195050062E-03  0.182509018452E-03  0.194570655410E-03
  0.207429362663E-03  0.221137805175E-03  0.235752126572E-03  0.251332178768E-03  0.267941766731E-03
  0.285648909382E-03  0.304526117683E-03  0.324650691053E-03  0.346105033304E-03  0.368976989389E-03
  0.393360204323E-03  0.419354505720E-03  0.447066311520E-03  0.476609064527E-03  0.508103695536E-03
  0.541679116902E-03  0.577472748554E-03  0.615631078570E-03  0.656310260559E-03  0.699676750274E-03
  0.745907983983E-03  0.795193101344E-03  0.847733715659E-03  0.903744734595E-03  0.963455234647E-03
  0.102710939282E-02  0.109496747924E-02  0.116730691464E-02  0.124442339684E-02  0.132663210085E-02
  0.141426895706E-02  0.150769201277E-02  0.160728288227E-02  0.171344829120E-02  0.182662172111E-02
  0.194726516072E-02  0.207587097057E-02  0.221296386825E-02  0.235910304182E-02  0.251488439949E-02
  0.268094296413E-02  0.285795542153E-02  0.304664283220E-02  0.324777351652E-02  0.346216612426E-02
  0.369069289950E-02  0.393428315300E-02  0.419392695461E-02  0.447067905886E-02  0.476566307780E-02
  0.508007591566E-02  0.541519248087E-02  0.577237069149E-02  0.615305679109E-02  0.655879099281E-02
  0.699121347016E-02  0.745207071397E-02  0.794322227546E-02  0.846664791667E-02  0.902445518966E-02
  0.961888746716E-02  0.102523324477E-01  0.109273311588E-01  0.116465874833E-01  0.124129782326E-01
  0.132295637921E-01  0.140995993656E-01  0.150265468416E-01  0.160140873083E-01  0.170661342417E-01
  0.181868473900E-01  0.193806473773E-01  0.206522310481E-01  0.220065875712E-01  0.234490153191E-01
  0.249851395364E-01  0.266209308068E-01  0.283627243201E-01  0.302172399402E-01  0.321916030617E-01
  0.342933662399E-01  0.365305315627E-01  0.389115737269E-01  0.414454637636E-01  0.441416933417E-01
  0.470102995615E-01  0.500618901263E-01  0.533076687561E-01  0.567594606797E-01  0.604297380056E-01
  0.643316447389E-01  0.684790211653E-01  0.728864272766E-01  0.775691648582E-01  0.825432977953E-01
  0.878256700895E-01  0.934339209947E-01  0.993864965997E-01  0.105702657087E+00  0.112402478787E+00
  0.119506850039E+00  0.127037459721E+00  0.135016777198E+00  0.143468022251E+00  0.152415123401E+00
  0.161882662859E+00  0.171895806129E+00  0.182480214100E+00  0.193661935234E+00  0.205467275232E+00
  0.217922641357E+00  0.231054358309E+00  0.244888452395E+00  0.259450400436E+00  0.274764839750E+00
  0.290855235311E+00  0.307743500124E+00  0.325449564783E+00  0.343990892215E+00  0.363381933770E+00
  0.383633523104E+00  0.404752204756E+00  0.426739495028E+00  0.449591073697E+00  0.473295906392E+00
  0.497835299083E+00  0.523181888255E+00  0.549298572929E+00  0.576137397897E+00  0.603638401413E+00
  0.631728445165E+00  0.660320049751E+00  0.689310265144E+00  0.718579612685E+00  0.747991143137E+00
  0.777389664022E+00  0.806601198787E+00  0.835432750085E+00  0.863672449131E+00  0.891090182271E+00
  0.917438793775E+00  0.942455969521E+00  0.965866908321E+00  0.987387884751E+00  0.100673079735E+01
  0.102360877697E+01  0.103774289882E+01  0.104886999638E+01  0.105675151129E+01  0.106118322965E+01
  0.106200564700E+01  0.105911457215E+01  0.105247142126E+01  0.104211247275E+01  0.102815615376E+01
  0.101080722201E+01  0.990356507777E+00  0.967174714997E+00  0.941698679342E+00  0.914408490657E+00
  0.885794059769E+00  0.856310111299E+00  0.826319285206E+00  0.796022220273E+00  0.765483404935E+00
  0.734787930846E+00  0.704031796000E+00  0.673308989830E+00  0.642711010421E+00  0.612326378525E+00
  0.582240153091E+00  0.552533457915E+00  0.523283029034E+00  0.494560799305E+00  0.466433534604E+00
  0.438962536954E+00  0.412203427452E+00  0.386206018028E+00  0.361014275929E+00  0.336666378995E+00
  0.313194853805E+00  0.290626783278E+00  0.268984065874E+00  0.248283705477E+00  0.228538109850E+00
  0.209755376326E+00  0.191939546288E+00  0.175090814901E+00  0.159205689015E+00  0.144277093628E+00
  0.130294434762E+00  0.117243633085E+00  0.105107147176E+00  0.938640073071E-01  0.834898798879E-01
  0.739571794307E-01  0.652352398869E-01  0.572905511716E-01  0.500870606171E-01  0.435865336402E-01
  0.377489635828E-01  0.325330177036E-01  0.278965046901E-01  0.237968486760E-01  0.201915553725E-01
  0.170386572897E-01  0.142971268979E-01  0.119272487390E-01  0.989094376608E-02  0.815204143538E-02
  0.667649720038E-02  0.543255499117E-02  0.439085596382E-02  0.352449624729E-02  0.280903758866E-02
  0.222247569960E-02
 ae wavefunction
  0.170951134815E-06  0.181673161160E-06  0.192985993673E-06  0.204926770891E-06  0.217534775770E-06
  0.230851575042E-06  0.244921165455E-06  0.259790130574E-06  0.275507807513E-06  0.292126461770E-06
  0.309701476087E-06  0.328291548451E-06  0.347958904347E-06  0.368769520984E-06  0.390793367109E-06
  0.414104656477E-06  0.438782118610E-06  0.464909286133E-06  0.492574800427E-06  0.521872737097E-06
  0.552902951914E-06  0.585771449044E-06  0.620590772859E-06  0.657480424900E-06  0.696567307640E-06
  0.737986196816E-06  0.781880244215E-06  0.828401512821E-06  0.877711546807E-06  0.929981977722E-06
  0.985395171073E-06  0.104414491333E-05  0.110643714466E-05  0.117249073864E-05  0.124253833271E-05
  0.131682721255E-05  0.139562025404E-05  0.147919692613E-05  0.156785435951E-05  0.166190848460E-05
  0.176169524345E-05  0.186757188072E-05  0.197991831886E-05  0.209913862366E-05  0.222566256223E-05
  0.235994726880E-05  0.250247901174E-05  0.265377508226E-05  0.281438580087E-05  0.298489666093E-05
  0.316593060575E-05  0.335815045869E-05  0.356226151150E-05  0.377901427929E-05  0.400920743744E-05
  0.425369094996E-05  0.451336940211E-05  0.478920555052E-05  0.508222410442E-05  0.539351575492E-05
  0.572424146879E-05  0.607563705691E-05  0.644901804948E-05  0.684578488127E-05  0.726742841972E-05
  0.771553585763E-05  0.819179697724E-05  0.869801084133E-05  0.923609290492E-05  0.980808259632E-05
  0.104161514048E-04  0.110626114656E-04  0.117499247413E-04  0.124807127776E-04  0.132577670917E-04
  0.140840602649E-04  0.149627577238E-04  0.158972303118E-04  0.168910676731E-04  0.179480924980E-04
  0.190723757142E-04  0.202682526456E-04  0.215403402347E-04  0.228935553804E-04  0.243331344678E-04
  0.258646541635E-04  0.274940535633E-04  0.292276577769E-04  0.310722030412E-04  0.330348634603E-04
  0.351232794810E-04  0.373455882090E-04  0.397104556892E-04  0.422271112751E-04  0.449053842152E-04
  0.477557426087E-04  0.507893348751E-04  0.540180338966E-04  0.574544840097E-04  0.611121510281E-04
  0.650053754731E-04  0.691494292544E-04  0.735605759687E-04  0.782561350783E-04  0.832545502296E-04
  0.885754619226E-04  0.942397848582E-04  0.100269790226E-03  0.106689193265E-03  0.113523246396E-03
  0.120798838334E-03  0.128544599480E-03  0.136791014045E-03  0.145570539318E-03  0.154917732467E-03
  0.164869385441E-03  0.175464668371E-03  0.186745282079E-03  0.198755620207E-03  0.211542941575E-03
  0.225157553415E-03  0.239653006105E-03  0.255086300160E-03  0.271518106180E-03  0.289012998570E-03
  0.307639703873E-03  0.327471364565E-03  0.348585819291E-03  0.371065900491E-03  0.394999750472E-03
  0.420481157046E-03  0.447609909846E-03  0.476492178611E-03  0.507240914669E-03  0.539976277040E-03
  0.574826084552E-03  0.611926295503E-03  0.651421516473E-03  0.693465541959E-03  0.738221926563E-03
  0.785864591671E-03  0.836578468493E-03  0.890560179559E-03  0.948018760814E-03  0.100917642657E-02
  0.107426937967E-02  0.114354866935E-02  0.121728109943E-02  0.129575018946E-02  0.137925719176E-02
  0.146812216722E-02  0.156268512305E-02  0.166330721560E-02  0.177037202169E-02  0.188428688182E-02
  0.200548431904E-02  0.213442353710E-02  0.227159200180E-02  0.241750710962E-02  0.257271794770E-02
  0.273780714956E-02  0.291339285082E-02  0.310013074963E-02  0.329871627623E-02  0.350988687667E-02
  0.373442441522E-02  0.397315770060E-02  0.422696514100E-02  0.449677753277E-02  0.478358098812E-02
  0.508842000663E-02  0.541240069584E-02  0.575669414585E-02  0.612253996293E-02  0.651124996684E-02
  0.692421205678E-02  0.736289425016E-02  0.782884889865E-02  0.832371708532E-02  0.884923320635E-02
  0.940722974061E-02  0.999964220949E-02  0.106285143290E-01  0.112960033558E-01  0.120043856268E-01
  0.127560622928E-01  0.135535652448E-01  0.143995632289E-01  0.152968681485E-01  0.162484415460E-01
  0.172574012584E-01  0.183270282385E-01  0.194607735298E-01  0.206622653832E-01  0.219353165010E-01
  0.232839313887E-01  0.247123137958E-01  0.262248742214E-01  0.278262374578E-01  0.295212501409E-01
  0.313149882749E-01  0.332127646905E-01  0.352201363957E-01  0.373429117700E-01  0.395871575496E-01
  0.419592055459E-01  0.444656590321E-01  0.471133987289E-01  0.499095883118E-01  0.528616793574E-01
  0.559774156377E-01  0.592648366651E-01  0.627322803825E-01  0.663883848851E-01  0.702420890521E-01
  0.743026319592E-01  0.785795509326E-01  0.830826780982E-01  0.878221352699E-01  0.928083270132E-01
  0.980519317106E-01  0.103563890450E+00  0.109355393542E+00  0.115437864482E+00  0.121822941134E+00
  0.128522453951E+00  0.135548401001E+00  0.142912919589E+00  0.150628254253E+00  0.158706720921E+00
  0.167160666997E+00  0.176002427183E+00  0.185244274809E+00  0.194898368492E+00  0.204976693929E+00
  0.215491000669E+00  0.226452733705E+00  0.237872959787E+00  0.249762288355E+00  0.262130787044E+00
  0.274987891761E+00  0.288342311360E+00  0.302201927006E+00  0.316573686378E+00  0.331463492912E+00
  0.346876090348E+00  0.362814942915E+00  0.379282111556E+00  0.396278126643E+00  0.413801857722E+00
  0.431850380870E+00  0.450418844330E+00  0.469500333156E+00  0.489085733706E+00  0.509163598934E+00
  0.529720015641E+00  0.550738475112E+00  0.572199748983E+00  0.594081772817E+00  0.616359540702E+00
  0.639005015419E+00  0.661987060212E+00  0.685271400096E+00  0.708820622451E+00  0.732594227916E+00
  0.756548741928E+00  0.780637892444E+00  0.804812847500E+00  0.829022484915E+00  0.853213636263E+00
  0.877331216537E+00  0.901318137540E+00  0.925114929890E+00  0.948659078740E+00  0.971884198490E+00
  0.994719286803E+00  0.101708834590E+01  0.103891058850E+01  0.106010125954E+01  0.108057288782E+01
  0.110023666247E+01  0.111900367334E+01  0.113678590161E+01  0.115349698602E+01  0.116905285457E+01
  0.118337230852E+01  0.119637761326E+01  0.120799511445E+01  0.121815587482E+01  0.122679631373E+01
  0.123385882784E+01  0.123929237262E+01  0.124305298763E+01  0.124510425316E+01  0.124541766941E+01
  0.124397295272E+01  0.124075824582E+01  0.123577024116E+01  0.122901421777E+01  0.122050399408E+01
  0.121026179935E+01  0.119831806904E+01  0.118471116910E+01  0.116948705614E+01  0.115269888071E+01
  0.113440654217E+01  0.111467620296E+01  0.109357977175E+01  0.107119436338E+01  0.104760174422E+01
  0.102288777045E+01  0.997141825982E+00  0.970456265900E+00  0.942925869170E+00  0.914647305521E+00
  0.885718614950E+00  0.856238702950E+00  0.826306848133E+00  0.796022220273E+00  0.765483404935E+00
  0.734787930846E+00  0.704031796000E+00  0.673308989830E+00  0.642711010421E+00  0.612326378525E+00
  0.582240153091E+00  0.552533457915E+00  0.523283029034E+00  0.494560799305E+00  0.466433534604E+00
  0.438962536954E+00  0.412203427452E+00  0.386206018028E+00  0.361014275929E+00  0.336666378995E+00
  0.313194853805E+00  0.290626783278E+00  0.268984065874E+00  0.248283705477E+00  0.228538109850E+00
  0.209755376326E+00  0.191939546288E+00  0.175090814901E+00  0.159205689015E+00  0.144277093628E+00
  0.130294434762E+00  0.117243633085E+00  0.105107147176E+00  0.938640073071E-01  0.834898798879E-01
  0.739571794307E-01  0.652352398869E-01  0.572905511716E-01  0.500870606171E-01  0.435865336402E-01
  0.377489635828E-01  0.325330177036E-01  0.278965046901E-01  0.237968486760E-01  0.201915553725E-01
  0.170386572897E-01  0.142971268979E-01  0.119272487390E-01  0.989094376608E-02  0.815204143538E-02
  0.667649720038E-02  0.543255499117E-02  0.439085596382E-02  0.352449624729E-02  0.280903758866E-02
  0.222247569960E-02
 pseudo wavefunction
 -0.147280007276E-07 -0.157014096201E-07 -0.167391534406E-07 -0.178454842388E-07 -0.190249350925E-07
 -0.202823386815E-07 -0.216228470888E-07 -0.230519529111E-07 -0.245755117639E-07 -0.261997662744E-07
 -0.279313716601E-07 -0.297774229973E-07 -0.317454842935E-07 -0.338436194791E-07 -0.360804254491E-07
 -0.384650672879E-07 -0.410073158224E-07 -0.437175876564E-07 -0.466069878524E-07 -0.496873554329E-07
 -0.529713118896E-07 -0.564723128988E-07 -0.602047034547E-07 -0.641837766465E-07 -0.684258363198E-07
 -0.729482638809E-07 -0.777695895142E-07 -0.829095681085E-07 -0.883892602003E-07 -0.942311182671E-07
 -0.100459078724E-06 -0.107098660002E-06 -0.114177067104E-06 -0.121723303078E-06 -0.129768287852E-06
 -0.138344984924E-06 -0.147488536431E-06 -0.157236407136E-06 -0.167628537935E-06 -0.178707509517E-06
 -0.190518716825E-06 -0.203110555064E-06 -0.216534617993E-06 -0.230845909324E-06 -0.246103068093E-06
 -0.262368608930E-06 -0.279709178205E-06 -0.298195827100E-06 -0.317904302741E-06 -0.338915358557E-06
 -0.361315085162E-06 -0.385195263100E-06 -0.410653738905E-06 -0.437794826018E-06 -0.466729732198E-06
 -0.497577015184E-06 -0.530463068472E-06 -0.565522639196E-06 -0.602899380238E-06 -0.642746438835E-06
 -0.685227084072E-06 -0.730515375866E-06 -0.778796878150E-06 -0.830269419201E-06 -0.885143902216E-06
 -0.943645169461E-06 -0.100601292354E-05 -0.107250270952E-05 -0.114338696205E-05 -0.121895612155E-05
 -0.129951982431E-05 -0.138540817117E-05 -0.147697308005E-05 -0.157458972787E-05 -0.167865808783E-05
 -0.178960456821E-05 -0.190788375951E-05 -0.203398029707E-05 -0.216841084681E-05 -0.231172622214E-05
 -0.246451364090E-05 -0.262739913128E-05 -0.280105009698E-05 -0.298617805170E-05 -0.318354153446E-05
 -0.339394921758E-05 -0.361826322005E-05 -0.385740263989E-05 -0.411234731997E-05 -0.438414186272E-05
 -0.467389991013E-05 -0.498280870668E-05 -0.531213396376E-05 -0.566322504566E-05 -0.603752049818E-05
 -0.643655394277E-05 -0.686196036007E-05 -0.731548278879E-05 -0.779897946730E-05 -0.831443144717E-05
 -0.886395070991E-05 -0.944978882008E-05 -0.100743461503E-04 -0.107401817158E-04 -0.114500236591E-04
 -0.122067804274E-04 -0.130135526889E-04 -0.138736460357E-04 -0.147905845280E-04 -0.157681251312E-04
 -0.168102731087E-04 -0.179212984307E-04 -0.191057532687E-04 -0.203684906445E-04 -0.217146843126E-04
 -0.231498499564E-04 -0.246798677840E-04 -0.263110066188E-04 -0.280499495801E-04 -0.299038214622E-04
 -0.318802179211E-04 -0.339872365911E-04 -0.362335102563E-04 -0.386282422143E-04 -0.411812439760E-04
 -0.439029754568E-04 -0.468045878227E-04 -0.498979691669E-04 -0.531957932041E-04 -0.567115711820E-04
 -0.604597072217E-04 -0.644555573135E-04 -0.687154922103E-04 -0.732569644747E-04 -0.780985799553E-04
 -0.832601739828E-04 -0.887628925994E-04 -0.946292791522E-04 -0.100883366605E-03 -0.107550775946E-03
 -0.114658821094E-03 -0.122236620730E-03 -0.130315217511E-03 -0.138927705160E-03 -0.148109363937E-03
 -0.157897805057E-03 -0.168333124643E-03 -0.179458067829E-03 -0.191318203701E-03 -0.203962111780E-03
 -0.217441580805E-03 -0.231811820627E-03 -0.247131688090E-03 -0.263463927793E-03 -0.280875428745E-03
 -0.299437497925E-03 -0.319226151889E-03 -0.340322427587E-03 -0.362812713664E-03 -0.386789103591E-03
 -0.412349772055E-03 -0.439599376131E-03 -0.468649482875E-03 -0.499619025055E-03 -0.532634786876E-03
 -0.567831921652E-03 -0.605354503530E-03 -0.645356115478E-03 -0.688000475924E-03 -0.733462106551E-03
 -0.781927043952E-03 -0.833593597999E-03 -0.888673159962E-03 -0.947391063629E-03 -0.100998750286E-02
 -0.107671850927E-02 -0.114785699385E-02 -0.122369385686E-02 -0.130453917015E-02 -0.139072343685E-02
 -0.148259893320E-02 -0.158054113797E-02 -0.168495025501E-02 -0.179625283496E-02 -0.191490350243E-02
 -0.204138679538E-02 -0.217621912393E-02 -0.231995085611E-02 -0.247316853861E-02 -0.263649726117E-02
 -0.281060317348E-02 -0.299619616437E-02 -0.319403271330E-02 -0.340491892497E-02 -0.362971375843E-02
 -0.386933246267E-02 -0.412475023142E-02 -0.439700609061E-02 -0.468720703259E-02 -0.499653241209E-02
 -0.532623861968E-02 -0.567766404914E-02 -0.605223437642E-02 -0.645146816820E-02 -0.687698283945E-02
 -0.733050097998E-02 -0.781385707109E-02 -0.832900461426E-02 -0.887802369477E-02 -0.946312900421E-02
 -0.100866783465E-01 -0.107511816531E-01 -0.114593105342E-01 -0.122139083927E-01 -0.130180011291E-01
 -0.138748084665E-01 -0.147877559242E-01 -0.157604874692E-01 -0.167968788761E-01 -0.179010518240E-01
 -0.190773887604E-01 -0.203305485603E-01 -0.216654830074E-01 -0.230874541248E-01 -0.246020523781E-01
 -0.262152157725E-01 -0.279332498623E-01 -0.297628486856E-01 -0.317111166348E-01 -0.337855912626E-01
 -0.359942670211E-01 -0.383456199176E-01 -0.408486330642E-01 -0.435128230816E-01 -0.463482673077E-01
 -0.493656317385E-01 -0.525761996146E-01 -0.559919005385E-01 -0.596253399844E-01 -0.634898290301E-01
 -0.675994141044E-01 -0.719689065049E-01 -0.766139113932E-01 -0.815508559230E-01 -0.867970160973E-01
 -0.923705418820E-01 -0.982904800300E-01 -0.104576793981E+00 -0.111250380113E+00 -0.118333079501E+00
 -0.125847684238E+00 -0.133817937227E+00 -0.142268524205E+00 -0.151225056612E+00 -0.160714043720E+00
 -0.170762852264E+00 -0.181399651589E+00 -0.192653342101E+00 -0.204553464584E+00 -0.217130087636E+00
 -0.230413670261E+00 -0.244434896312E+00 -0.259224477206E+00 -0.274812919022E+00 -0.291230249777E+00
 -0.308505702395E+00 -0.326667348591E+00 -0.345741678644E+00 -0.365753121846E+00 -0.386723502245E+00
 -0.408671424299E+00 -0.431611583080E+00 -0.455553993928E+00 -0.480503136836E+00 -0.506457011528E+00
 -0.533406100107E+00 -0.561332235451E+00 -0.590207375242E+00 -0.619992283733E+00 -0.650635126089E+00
 -0.682069983616E+00 -0.714215302333E+00 -0.746972292349E+00 -0.780223301377E+00 -0.813830192603E+00
 -0.847632764897E+00 -0.881447262198E+00 -0.915065028597E+00 -0.948251376098E+00 -0.980744743067E+00
 -0.101225623248E+01 -0.104246962985E+01 -0.107104201047E+01 -0.109760505289E+01 -0.112176718032E+01
 -0.114311665062E+01 -0.116122570893E+01 -0.117565590079E+01 -0.118596461704E+01 -0.119171290137E+01
 -0.119247449487E+01 -0.118784601761E+01 -0.117745809276E+01 -0.116098710413E+01 -0.113816714513E+01
 -0.110880156860E+01 -0.107277339220E+01 -0.103005366469E+01 -0.980706772724E+00 -0.924891591624E+00
 -0.862857390469E+00 -0.794933531044E+00 -0.721512300538E+00 -0.643024738209E+00 -0.559910104890E+00
 -0.472580736544E+00 -0.381385429600E+00 -0.286576193060E+00 -0.188285229466E+00 -0.865472903808E-01
  0.186131020524E-01  0.127169292299E+00  0.000000000000E+00  0.000000000000E+00  0.000000000000E+00
  0.000000000000E+00  0.000000000000E+00  0.000000000000E+00  0.000000000000E+00  0.000000000000E+00
  0.000000000000E+00  0.000000000000E+00  0.000000000000E+00  0.000000000000E+00  0.000000000000E+00
  0.000000000000E+00  0.000000000000E+00  0.000000000000E+00  0.000000000000E+00  0.000000000000E+00
  0.000000000000E+00  0.000000000000E+00  0.000000000000E+00  0.000000000000E+00  0.000000000000E+00
  0.000000000000E+00  0.000000000000E+00  0.000000000000E+00  0.000000000000E+00  0.000000000000E+00
  0.000000000000E+00  0.000000000000E+00  0.000000000000E+00  0.000000000000E+00  0.000000000000E+00
  0.000000000000E+00  0.000000000000E+00  0.000000000000E+00  0.000000000000E+00  0.000000000000E+00
  0.000000000000E+00  0.000000000000E+00  0.000000000000E+00  0.000000000000E+00  0.000000000000E+00
  0.000000000000E+00  0.000000000000E+00  0.000000000000E+00  0.000000000000E+00  0.000000000000E+00
  0.000000000000E+00
 ae wavefunction
 -0.233714380727E-06 -0.248372923728E-06 -0.263839182916E-06 -0.280163932009E-06 -0.297400876456E-06
 -0.315606843951E-06 -0.334841984373E-06 -0.355169984153E-06 -0.376658294221E-06 -0.399378369023E-06
 -0.423405924735E-06 -0.448821209949E-06 -0.475709295850E-06 -0.504160382779E-06 -0.534270128080E-06
 -0.566139992639E-06 -0.599877611046E-06 -0.635597184428E-06 -0.673419898319E-06 -0.713474367622E-06
 -0.755897109566E-06 -0.800833047119E-06 -0.848436044664E-06 -0.898869478036E-06 -0.952306841218E-06
 -0.100893239208E-05 -0.106894183978E-05 -0.113254307635E-05 -0.119995695600E-05 -0.127141812383E-05
 -0.134717589983E-05 -0.142749521810E-05 -0.151265762859E-05 -0.160296236313E-05 -0.169872747069E-05
 -0.180029102658E-05 -0.190801242013E-05 -0.202227372580E-05 -0.214348116424E-05 -0.227206665804E-05
 -0.240848948860E-05 -0.255323806106E-05 -0.270683178443E-05 -0.286982307515E-05 -0.304279948709E-05
 -0.322638598893E-05 -0.342124738001E-05 -0.362809087234E-05 -0.384766883380E-05 -0.408078171866E-05
 -0.432828118073E-05 -0.459107339560E-05 -0.487012259937E-05 -0.516645485497E-05 -0.548116206748E-05
 -0.581540626096E-05 -0.617042413466E-05 -0.654753191648E-05 -0.694813053262E-05 -0.737371111600E-05
 -0.782586087662E-05 -0.830626934722E-05 -0.881673504842E-05 -0.935917257771E-05 -0.993562016716E-05
 -0.105482477396E-04 -0.111993654725E-04 -0.118914329455E-04 -0.126270688637E-04 -0.134090614212E-04
 -0.142403793589E-04 -0.151241837011E-04 -0.160638403073E-04 -0.170629332109E-04 -0.181252788206E-04
 -0.192549410858E-04 -0.204562476036E-04 -0.217338068052E-04 -0.230925262544E-04 -0.245376321225E-04
 -0.260746899575E-04 -0.277096267744E-04 -0.294487546023E-04 -0.312987955531E-04 -0.332669085228E-04
 -0.353607176213E-04 -0.375883424508E-04 -0.399584303502E-04 -0.424801907283E-04 -0.451634316211E-04
 -0.480185986219E-04 -0.510568163277E-04 -0.542899324707E-04 -0.577305649071E-04 -0.613921516341E-04
 -0.652890040496E-04 -0.694363636455E-04 -0.738504623570E-04 -0.785485868070E-04 -0.835491466936E-04
 -0.888717475637E-04 -0.945372683036E-04 -0.100567943574E-03 -0.106987451555E-03 -0.113821007339E-03
 -0.121095462288E-03 -0.128839409773E-03 -0.137083297672E-03 -0.145859548079E-03 -0.155202684629E-03
 -0.165149467995E-03 -0.175739039970E-03 -0.187013076763E-03 -0.199015952042E-03 -0.211794910302E-03
 -0.225400251274E-03 -0.239885525989E-03 -0.255307745266E-03 -0.271727601361E-03 -0.289209703612E-03
 -0.307822828926E-03 -0.327640188015E-03 -0.348739708365E-03 -0.371204334938E-03 -0.395122349690E-03
 -0.420587711063E-03 -0.447700414626E-03 -0.476566876183E-03 -0.507300338653E-03 -0.540021304179E-03
 -0.574857992959E-03 -0.611946830379E-03 -0.651432964142E-03 -0.693470813143E-03 -0.738224649968E-03
 -0.785869218968E-03 -0.836590392002E-03 -0.890585863991E-03 -0.948065890638E-03 -0.100925407063E-02
 -0.107438817500E-02 -0.114372102616E-02 -0.121752142954E-02 -0.129607516068E-02 -0.137968601097E-02
 -0.146867689505E-02 -0.156339102360E-02 -0.166419314473E-02 -0.177147085784E-02 -0.188563600389E-02
 -0.200712613593E-02 -0.213640607430E-02 -0.227396955077E-02 -0.242034094629E-02 -0.257607712700E-02
 -0.274176938358E-02 -0.291804547896E-02 -0.310557180970E-02 -0.330505568664E-02 -0.351724774036E-02
 -0.374294445736E-02 -0.398299085299E-02 -0.423828328725E-02 -0.450977242987E-02 -0.479846638101E-02
 -0.510543395437E-02 -0.543180812916E-02 -0.577878967802E-02 -0.614765097745E-02 -0.653974000795E-02
 -0.695648455048E-02 -0.739939658640E-02 -0.787007690754E-02 -0.837021994313E-02 -0.890161881021E-02
 -0.946617059377E-02 -0.100658818627E-01 -0.107028744273E-01 -0.113793913435E-01 -0.120978031682E-01
 -0.128606144712E-01 -0.136704706052E-01 -0.145301647375E-01 -0.154426451455E-01 -0.164110227749E-01
 -0.174385790621E-01 -0.185287740157E-01 -0.196852545562E-01 -0.209118631064E-01 -0.222126464257E-01
 -0.235918646785E-01 -0.250540007241E-01 -0.266037696130E-01 -0.282461282728E-01 -0.299862853603E-01
 -0.318297112573E-01 -0.337821481791E-01 -0.358496203648E-01 -0.380384443097E-01 -0.403552389978E-01
 -0.428069360876E-01 -0.454007899947E-01 -0.481443878125E-01 -0.510456590048E-01 -0.541128847934E-01
 -0.573547071622E-01 -0.607801373856E-01 -0.643985639831E-01 -0.682197599941E-01 -0.722538894532E-01
 -0.765115129410E-01 -0.810035920717E-01 -0.857414927696E-01 -0.907369871737E-01 -0.960022540003E-01
 -0.101549877179E+00 -0.107392842565E+00 -0.113544532525E+00 -0.120018718169E+00 -0.126829548997E+00
 -0.133991539720E+00 -0.141519553985E+00 -0.149428784752E+00 -0.157734731026E+00 -0.166453170657E+00
 -0.175600128917E+00 -0.185191842529E+00 -0.195244718847E+00 -0.205775289858E+00 -0.216800160694E+00
 -0.228335952315E+00 -0.240399238072E+00 -0.253006473813E+00 -0.266173921252E+00 -0.279917564308E+00
 -0.294253018160E+00 -0.309195430778E+00 -0.324759376731E+00 -0.340958743113E+00 -0.357806607468E+00
 -0.375315107654E+00 -0.393495303647E+00 -0.412357031348E+00 -0.431908748534E+00 -0.452157373171E+00
 -0.473108114391E+00 -0.494764296518E+00 -0.517127176608E+00 -0.540195756080E+00 -0.563966587071E+00
 -0.588433574239E+00 -0.613587772864E+00 -0.639417184152E+00 -0.665906548802E+00 -0.693037140086E+00
 -0.720786557912E+00 -0.749128525775E+00 -0.778032693016E+00 -0.807464445703E+00 -0.837384730590E+00
 -0.867749898249E+00 -0.898511573531E+00 -0.929616564037E+00 -0.961006819733E+00 -0.992619458513E+00
 -0.102438687154E+01 -0.105623691559E+01 -0.108809318350E+01 -0.111987531497E+01 -0.115149926919E+01
 -0.118287743992E+01 -0.121391847634E+01 -0.124452670999E+01 -0.127460119771E+01 -0.130403455203E+01
 -0.133271188471E+01 -0.136051025062E+01 -0.138729888112E+01 -0.141294024429E+01 -0.143729167762E+01
 -0.146020718206E+01 -0.148153902831E+01 -0.150113902585E+01 -0.151885949081E+01 -0.153455403469E+01
 -0.154807829020E+01 -0.155929064612E+01 -0.156805301546E+01 -0.157423162938E+01 -0.157769783276E+01
 -0.157832885196E+01 -0.157600850789E+01 -0.157062785198E+01 -0.156208570868E+01 -0.155028911375E+01
 -0.153515364155E+01 -0.151660361843E+01 -0.149457222225E+01 -0.146900146985E+01 -0.143984209735E+01
 -0.140705333891E+01 -0.137060261286E+01 -0.133046512415E+01 -0.128662339521E+01 -0.123906673698E+01
 -0.118779067443E+01 -0.113279633967E+01 -0.107408984790E+01 -0.101168166936E+01 -0.945586011127E+00
 -0.875820220958E+00 -0.802404224044E+00 -0.725360002023E+00 -0.644711121179E+00 -0.560482316875E+00
 -0.472699135758E+00 -0.381387640997E+00 -0.286574181569E+00 -0.188285229466E+00 -0.865472903808E-01
  0.186131020524E-01  0.127169292299E+00  0.000000000000E+00  0.000000000000E+00  0.000000000000E+00
  0.000000000000E+00  0.000000000000E+00  0.000000000000E+00  0.000000000000E+00  0.000000000000E+00
  0.000000000000E+00  0.000000000000E+00  0.000000000000E+00  0.000000000000E+00  0.000000000000E+00
  0.000000000000E+00  0.000000000000E+00  0.000000000000E+00  0.000000000000E+00  0.000000000000E+00
  0.000000000000E+00  0.000000000000E+00  0.000000000000E+00  0.000000000000E+00  0.000000000000E+00
  0.000000000000E+00  0.000000000000E+00  0.000000000000E+00  0.000000000000E+00  0.000000000000E+00
  0.000000000000E+00  0.000000000000E+00  0.000000000000E+00  0.000000000000E+00  0.000000000000E+00
  0.000000000000E+00  0.000000000000E+00  0.000000000000E+00  0.000000000000E+00  0.000000000000E+00
  0.000000000000E+00  0.000000000000E+00  0.000000000000E+00  0.000000000000E+00  0.000000000000E+00
  0.000000000000E+00  0.000000000000E+00  0.000000000000E+00  0.000000000000E+00  0.000000000000E+00
  0.000000000000E+00
 End of Dataset
