<?xml version="1.0" encoding="ISO-8859-1"?>
<modeling>
 <generator>
  <i name="program" type="string">vasp </i>
  <i name="version" type="string">5.4.4.18Apr17-6-g9f103f2a35  </i>
  <i name="subversion" type="string">(build May 27 2024 22:40:15) complex            parallel </i>
  <i name="platform" type="string">LinuxIFC </i>
  <i name="date" type="string">2024 10 26 </i>
  <i name="time" type="string">20:35:46 </i>
 </generator>
 <incar>
  <i type="int" name="ISTART">     0</i>
  <i type="string" name="PREC">accurate</i>
  <i type="logical" name="ADDGRID"> T  </i>
  <i type="int" name="NELM">    60</i>
  <i type="int" name="IBRION">    -1</i>
  <i name="EDIFF">      0.00000100</i>
  <i name="EDIFFG">     -0.02000000</i>
  <i type="int" name="NSW">     0</i>
  <i name="ENCUT">    520.00000000</i>
  <i type="logical" name="LREAL"> F  </i>
  <i type="int" name="ISMEAR">     0</i>
  <i name="SIGMA">      0.10000000</i>
  <i type="logical" name="LCHARG"> T  </i>
  <i type="logical" name="LAECHG"> T  </i>
  <v type="int" name="KPOINT_BSE">    -1     0     0     0</v>
  <i type="int" name="NELM">    60</i>
 </incar>
 <structure name="primitive_cell" >
  <crystal>
   <varray name="basis" >
    <v>      -1.51155094      -2.23858333       0.00000000 </v>
    <v>      -1.51155094       2.23858333       0.00000000 </v>
    <v>       0.00000000       0.00000000      -5.46129726 </v>
   </varray>
   <i name="volume">     36.95914065 </i>
   <varray name="rec_basis" >
    <v>      -0.33078607      -0.22335554       0.00000000 </v>
    <v>      -0.33078607       0.22335554       0.00000000 </v>
    <v>       0.00000000       0.00000000      -0.18310668 </v>
   </varray>
  </crystal>
  <varray name="positions" >
   <v>       0.43443137      -0.43443137      -0.41607187 </v>
   <v>      -0.35210171       0.35210171      -0.42192813 </v>
   <v>       0.35210171      -0.35210171       0.07807187 </v>
   <v>      -0.43443137       0.43443137       0.08392813 </v>
  </varray>
 </structure>
 <varray name="primitive_index" >
  <v type="int" >        1 </v>
  <v type="int" >        5 </v>
  <v type="int" >        6 </v>
  <v type="int" >        2 </v>
 </varray>
 <kpoints>
  <generation param="Gamma">
   <v type="int" name="divisions">      11        8        6 </v>
   <v name="usershift">      0.00000000       0.00000000       0.00000000 </v>
   <v name="genvec1">      0.09090909       0.00000000       0.00000000 </v>
   <v name="genvec2">      0.00000000       0.12500000       0.00000000 </v>
   <v name="genvec3">      0.00000000       0.00000000       0.16666667 </v>
   <v name="shift">      0.00000000       0.00000000       0.00000000 </v>
  </generation>
  <varray name="kpointlist" >
   <v>       0.00000000       0.00000000       0.00000000 </v>
   <v>       0.09090909       0.00000000       0.00000000 </v>
   <v>       0.18181818       0.00000000       0.00000000 </v>
   <v>       0.27272727       0.00000000       0.00000000 </v>
   <v>       0.36363636       0.00000000       0.00000000 </v>
   <v>       0.45454545       0.00000000       0.00000000 </v>
   <v>       0.00000000       0.12500000       0.00000000 </v>
   <v>       0.09090909       0.12500000       0.00000000 </v>
   <v>       0.18181818       0.12500000       0.00000000 </v>
   <v>       0.27272727       0.12500000       0.00000000 </v>
   <v>       0.36363636       0.12500000       0.00000000 </v>
   <v>       0.45454545       0.12500000       0.00000000 </v>
   <v>       0.00000000       0.25000000       0.00000000 </v>
   <v>       0.09090909       0.25000000       0.00000000 </v>
   <v>       0.18181818       0.25000000       0.00000000 </v>
   <v>       0.27272727       0.25000000       0.00000000 </v>
   <v>       0.36363636       0.25000000       0.00000000 </v>
   <v>       0.45454545       0.25000000       0.00000000 </v>
   <v>       0.00000000       0.37500000       0.00000000 </v>
   <v>       0.09090909       0.37500000       0.00000000 </v>
   <v>       0.18181818       0.37500000       0.00000000 </v>
   <v>       0.27272727       0.37500000       0.00000000 </v>
   <v>       0.36363636       0.37500000       0.00000000 </v>
   <v>       0.45454545       0.37500000       0.00000000 </v>
   <v>       0.00000000       0.50000000       0.00000000 </v>
   <v>       0.09090909       0.50000000       0.00000000 </v>
   <v>       0.18181818       0.50000000       0.00000000 </v>
   <v>       0.27272727       0.50000000       0.00000000 </v>
   <v>       0.36363636       0.50000000       0.00000000 </v>
   <v>       0.45454545       0.50000000       0.00000000 </v>
   <v>       0.00000000       0.00000000       0.16666667 </v>
   <v>       0.09090909      -0.00000000       0.16666667 </v>
   <v>       0.18181818       0.00000000       0.16666667 </v>
   <v>       0.27272727       0.00000000       0.16666667 </v>
   <v>       0.36363636       0.00000000       0.16666667 </v>
   <v>       0.45454545       0.00000000       0.16666667 </v>
   <v>       0.00000000       0.12500000       0.16666667 </v>
   <v>       0.09090909       0.12500000       0.16666667 </v>
   <v>       0.18181818       0.12500000       0.16666667 </v>
   <v>       0.27272727       0.12500000       0.16666667 </v>
   <v>       0.36363636       0.12500000       0.16666667 </v>
   <v>       0.45454545       0.12500000       0.16666667 </v>
   <v>       0.00000000       0.25000000       0.16666667 </v>
   <v>       0.09090909       0.25000000       0.16666667 </v>
   <v>       0.18181818       0.25000000       0.16666667 </v>
   <v>       0.27272727       0.25000000       0.16666667 </v>
   <v>       0.36363636       0.25000000       0.16666667 </v>
   <v>       0.45454545       0.25000000       0.16666667 </v>
   <v>       0.00000000       0.37500000       0.16666667 </v>
   <v>       0.09090909       0.37500000       0.16666667 </v>
   <v>       0.18181818       0.37500000       0.16666667 </v>
   <v>       0.27272727       0.37500000       0.16666667 </v>
   <v>       0.36363636       0.37500000       0.16666667 </v>
   <v>       0.45454545       0.37500000       0.16666667 </v>
   <v>       0.00000000       0.50000000       0.16666667 </v>
   <v>       0.09090909       0.50000000       0.16666667 </v>
   <v>       0.18181818       0.50000000       0.16666667 </v>
   <v>       0.27272727       0.50000000       0.16666667 </v>
   <v>       0.36363636       0.50000000       0.16666667 </v>
   <v>       0.45454545       0.50000000       0.16666667 </v>
   <v>       0.00000000      -0.00000000       0.33333333 </v>
   <v>       0.09090909       0.00000000       0.33333333 </v>
   <v>       0.18181818      -0.00000000       0.33333333 </v>
   <v>       0.27272727      -0.00000000       0.33333333 </v>
   <v>       0.36363636       0.00000000       0.33333333 </v>
   <v>       0.45454545      -0.00000000       0.33333333 </v>
   <v>       0.00000000       0.12500000       0.33333333 </v>
   <v>       0.09090909       0.12500000       0.33333333 </v>
   <v>       0.18181818       0.12500000       0.33333333 </v>
   <v>       0.27272727       0.12500000       0.33333333 </v>
   <v>       0.36363636       0.12500000       0.33333333 </v>
   <v>       0.45454545       0.12500000       0.33333333 </v>
   <v>       0.00000000       0.25000000       0.33333333 </v>
   <v>       0.09090909       0.25000000       0.33333333 </v>
   <v>       0.18181818       0.25000000       0.33333333 </v>
   <v>       0.27272727       0.25000000       0.33333333 </v>
   <v>       0.36363636       0.25000000       0.33333333 </v>
   <v>       0.45454545       0.25000000       0.33333333 </v>
   <v>       0.00000000       0.37500000       0.33333333 </v>
   <v>       0.09090909       0.37500000       0.33333333 </v>
   <v>       0.18181818       0.37500000       0.33333333 </v>
   <v>       0.27272727       0.37500000       0.33333333 </v>
   <v>       0.36363636       0.37500000       0.33333333 </v>
   <v>       0.45454545       0.37500000       0.33333333 </v>
   <v>       0.00000000       0.50000000       0.33333333 </v>
   <v>       0.09090909       0.50000000       0.33333333 </v>
   <v>       0.18181818       0.50000000       0.33333333 </v>
   <v>       0.27272727       0.50000000       0.33333333 </v>
   <v>       0.36363636       0.50000000       0.33333333 </v>
   <v>       0.45454545       0.50000000       0.33333333 </v>
   <v>       0.00000000       0.00000000       0.50000000 </v>
   <v>       0.09090909       0.00000000       0.50000000 </v>
   <v>       0.18181818       0.00000000       0.50000000 </v>
   <v>       0.27272727       0.00000000       0.50000000 </v>
   <v>       0.36363636       0.00000000       0.50000000 </v>
   <v>       0.45454545       0.00000000       0.50000000 </v>
   <v>       0.00000000       0.12500000       0.50000000 </v>
   <v>       0.09090909       0.12500000       0.50000000 </v>
   <v>       0.18181818       0.12500000       0.50000000 </v>
   <v>       0.27272727       0.12500000       0.50000000 </v>
   <v>       0.36363636       0.12500000       0.50000000 </v>
   <v>       0.45454545       0.12500000       0.50000000 </v>
   <v>       0.00000000       0.25000000       0.50000000 </v>
   <v>       0.09090909       0.25000000       0.50000000 </v>
   <v>       0.18181818       0.25000000       0.50000000 </v>
   <v>       0.27272727       0.25000000       0.50000000 </v>
   <v>       0.36363636       0.25000000       0.50000000 </v>
   <v>       0.45454545       0.25000000       0.50000000 </v>
   <v>       0.00000000       0.37500000       0.50000000 </v>
   <v>       0.09090909       0.37500000       0.50000000 </v>
   <v>       0.18181818       0.37500000       0.50000000 </v>
   <v>       0.27272727       0.37500000       0.50000000 </v>
   <v>       0.36363636       0.37500000       0.50000000 </v>
   <v>       0.45454545       0.37500000       0.50000000 </v>
   <v>       0.00000000       0.50000000       0.50000000 </v>
   <v>       0.09090909       0.50000000       0.50000000 </v>
   <v>       0.18181818       0.50000000       0.50000000 </v>
   <v>       0.27272727       0.50000000       0.50000000 </v>
   <v>       0.36363636       0.50000000       0.50000000 </v>
   <v>       0.45454545       0.50000000       0.50000000 </v>
  </varray>
  <varray name="weights" >
   <v>       0.00189394 </v>
   <v>       0.00378788 </v>
   <v>       0.00378788 </v>
   <v>       0.00378788 </v>
   <v>       0.00378788 </v>
   <v>       0.00378788 </v>
   <v>       0.00378788 </v>
   <v>       0.00757576 </v>
   <v>       0.00757576 </v>
   <v>       0.00757576 </v>
   <v>       0.00757576 </v>
   <v>       0.00757576 </v>
   <v>       0.00378788 </v>
   <v>       0.00757576 </v>
   <v>       0.00757576 </v>
   <v>       0.00757576 </v>
   <v>       0.00757576 </v>
   <v>       0.00757576 </v>
   <v>       0.00378788 </v>
   <v>       0.00757576 </v>
   <v>       0.00757576 </v>
   <v>       0.00757576 </v>
   <v>       0.00757576 </v>
   <v>       0.00757576 </v>
   <v>       0.00189394 </v>
   <v>       0.00378788 </v>
   <v>       0.00378788 </v>
   <v>       0.00378788 </v>
   <v>       0.00378788 </v>
   <v>       0.00378788 </v>
   <v>       0.00378788 </v>
   <v>       0.00757576 </v>
   <v>       0.00757576 </v>
   <v>       0.00757576 </v>
   <v>       0.00757576 </v>
   <v>       0.00757576 </v>
   <v>       0.00757576 </v>
   <v>       0.01515152 </v>
   <v>       0.01515152 </v>
   <v>       0.01515152 </v>
   <v>       0.01515152 </v>
   <v>       0.01515152 </v>
   <v>       0.00757576 </v>
   <v>       0.01515152 </v>
   <v>       0.01515152 </v>
   <v>       0.01515152 </v>
   <v>       0.01515152 </v>
   <v>       0.01515152 </v>
   <v>       0.00757576 </v>
   <v>       0.01515152 </v>
   <v>       0.01515152 </v>
   <v>       0.01515152 </v>
   <v>       0.01515152 </v>
   <v>       0.01515152 </v>
   <v>       0.00378788 </v>
   <v>       0.00757576 </v>
   <v>       0.00757576 </v>
   <v>       0.00757576 </v>
   <v>       0.00757576 </v>
   <v>       0.00757576 </v>
   <v>       0.00378788 </v>
   <v>       0.00757576 </v>
   <v>       0.00757576 </v>
   <v>       0.00757576 </v>
   <v>       0.00757576 </v>
   <v>       0.00757576 </v>
   <v>       0.00757576 </v>
   <v>       0.01515152 </v>
   <v>       0.01515152 </v>
   <v>       0.01515152 </v>
   <v>       0.01515152 </v>
   <v>       0.01515152 </v>
   <v>       0.00757576 </v>
   <v>       0.01515152 </v>
   <v>       0.01515152 </v>
   <v>       0.01515152 </v>
   <v>       0.01515152 </v>
   <v>       0.01515152 </v>
   <v>       0.00757576 </v>
   <v>       0.01515152 </v>
   <v>       0.01515152 </v>
   <v>       0.01515152 </v>
   <v>       0.01515152 </v>
   <v>       0.01515152 </v>
   <v>       0.00378788 </v>
   <v>       0.00757576 </v>
   <v>       0.00757576 </v>
   <v>       0.00757576 </v>
   <v>       0.00757576 </v>
   <v>       0.00757576 </v>
   <v>       0.00189394 </v>
   <v>       0.00378788 </v>
   <v>       0.00378788 </v>
   <v>       0.00378788 </v>
   <v>       0.00378788 </v>
   <v>       0.00378788 </v>
   <v>       0.00378788 </v>
   <v>       0.00757576 </v>
   <v>       0.00757576 </v>
   <v>       0.00757576 </v>
   <v>       0.00757576 </v>
   <v>       0.00757576 </v>
   <v>       0.00378788 </v>
   <v>       0.00757576 </v>
   <v>       0.00757576 </v>
   <v>       0.00757576 </v>
   <v>       0.00757576 </v>
   <v>       0.00757576 </v>
   <v>       0.00378788 </v>
   <v>       0.00757576 </v>
   <v>       0.00757576 </v>
   <v>       0.00757576 </v>
   <v>       0.00757576 </v>
   <v>       0.00757576 </v>
   <v>       0.00189394 </v>
   <v>       0.00378788 </v>
   <v>       0.00378788 </v>
   <v>       0.00378788 </v>
   <v>       0.00378788 </v>
   <v>       0.00378788 </v>
  </varray>
 </kpoints>
 <parameters>
  <separator name="general" >
   <i type="string" name="SYSTEM">unknown system</i>
   <i type="logical" name="LCOMPAT"> F  </i>
  </separator>
  <separator name="electronic" >
   <i type="string" name="PREC">accura</i>
   <i name="ENMAX">    520.00000000</i>
   <i name="ENAUG">    613.61400000</i>
   <i name="EDIFF">      0.00000100</i>
   <i type="int" name="IALGO">    38</i>
   <i type="int" name="IWAVPR">    10</i>
   <i type="int" name="NBANDS">    24</i>
   <i name="NELECT">     32.00000000</i>
   <i type="int" name="TURBO">     0</i>
   <i type="int" name="IRESTART">     0</i>
   <i type="int" name="NREBOOT">     0</i>
   <i type="int" name="NMIN">     0</i>
   <i name="EREF">      0.00000000</i>
   <separator name="electronic smearing" >
    <i type="int" name="ISMEAR">     0</i>
    <i name="SIGMA">      0.10000000</i>
    <i name="KSPACING">      0.50000000</i>
    <i type="logical" name="KGAMMA"> T  </i>
   </separator>
   <separator name="electronic projectors" >
    <i type="logical" name="LREAL"> F  </i>
    <v name="ROPT">      0.00000000      0.00000000</v>
    <i type="int" name="LMAXPAW">  -100</i>
    <i type="int" name="LMAXMIX">     2</i>
    <i type="logical" name="NLSPLINE"> F  </i>
   </separator>
   <separator name="electronic startup" >
    <i type="int" name="ISTART">     0</i>
    <i type="int" name="ICHARG">     2</i>
    <i type="int" name="INIWAV">     1</i>
   </separator>
   <separator name="electronic spin" >
    <i type="int" name="ISPIN">     1</i>
    <i type="logical" name="LNONCOLLINEAR"> F  </i>
    <v name="MAGMOM">      1.00000000      1.00000000      1.00000000      1.00000000      1.00000000      1.00000000      1.00000000      1.00000000</v>
    <i name="NUPDOWN">     -1.00000000</i>
    <i type="logical" name="LSORBIT"> F  </i>
    <v name="SAXIS">      0.00000000      0.00000000      1.00000000</v>
    <i type="logical" name="LSPIRAL"> F  </i>
    <v name="QSPIRAL">      0.00000000      0.00000000      0.00000000</v>
    <i type="logical" name="LZEROZ"> F  </i>
   </separator>
   <separator name="electronic exchange-correlation" >
    <i type="logical" name="LASPH"> F  </i>
    <i type="logical" name="LMETAGGA"> F  </i>
   </separator>
   <separator name="electronic convergence" >
    <i type="int" name="NELM">    60</i>
    <i type="int" name="NELMDL">    -5</i>
    <i type="int" name="NELMIN">     2</i>
    <i name="ENINI">    520.00000000</i>
    <separator name="electronic convergence detail" >
     <i type="logical" name="LDIAG"> T  </i>
     <i type="logical" name="LSUBROT"> F  </i>
     <i name="WEIMIN">      0.00000000</i>
     <i name="EBREAK">      0.00000001</i>
     <i name="DEPER">      0.30000000</i>
     <i type="int" name="NRMM">     4</i>
     <i name="TIME">      0.40000000</i>
    </separator>
   </separator>
   <separator name="electronic mixer" >
    <i name="AMIX">      0.40000000</i>
    <i name="BMIX">      1.00000000</i>
    <i name="AMIN">      0.10000000</i>
    <i name="AMIX_MAG">      1.60000000</i>
    <i name="BMIX_MAG">      1.00000000</i>
    <separator name="electronic mixer details" >
     <i type="int" name="IMIX">     4</i>
     <i type="logical" name="MIXFIRST"> F  </i>
     <i type="int" name="MAXMIX">   -45</i>
     <i name="WC">    100.00000000</i>
     <i type="int" name="INIMIX">     1</i>
     <i type="int" name="MIXPRE">     1</i>
     <i type="int" name="MREMOVE">     5</i>
    </separator>
   </separator>
   <separator name="electronic dipolcorrection" >
    <i type="logical" name="LDIPOL"> F  </i>
    <i type="logical" name="LMONO"> F  </i>
    <i type="int" name="IDIPOL">     0</i>
    <i name="EPSILON">      1.00000000</i>
    <v name="DIPOL">   -100.00000000   -100.00000000   -100.00000000</v>
    <i name="EFIELD">      0.00000000</i>
   </separator>
  </separator>
  <separator name="grids" >
   <i type="int" name="NGX">    24</i>
   <i type="int" name="NGY">    36</i>
   <i type="int" name="NGZ">    42</i>
   <i type="int" name="NGXF">    48</i>
   <i type="int" name="NGYF">    72</i>
   <i type="int" name="NGZF">    84</i>
   <i type="logical" name="ADDGRID"> T  </i>
  </separator>
  <separator name="ionic" >
   <i type="int" name="NSW">     0</i>
   <i type="int" name="IBRION">    -1</i>
   <i type="int" name="MDALGO">     0</i>
   <i type="int" name="ISIF">     2</i>
   <i name="PSTRESS">      0.00000000</i>
   <i name="EDIFFG">     -0.02000000</i>
   <i type="int" name="NFREE">     0</i>
   <i name="POTIM">      0.50000000</i>
   <i name="SMASS">     -3.00000000</i>
   <i name="SCALEE">      1.00000000</i>
  </separator>
  <separator name="ionic md" >
   <i name="TEBEG">      0.00010000</i>
   <i name="TEEND">      0.00010000</i>
   <i type="int" name="NBLOCK">     1</i>
   <i type="int" name="KBLOCK">     1</i>
   <i type="int" name="NPACO">   256</i>
   <i name="APACO">     16.00000000</i>
  </separator>
  <separator name="symmetry" >
   <i type="int" name="ISYM">     2</i>
   <i name="SYMPREC">      0.00001000</i>
  </separator>
  <separator name="dos" >
   <i type="int" name="LORBIT">     0</i>
   <v name="RWIGS">     -1.00000000     -1.00000000</v>
   <i type="int" name="NEDOS">   301</i>
   <i name="EMIN">     10.00000000</i>
   <i name="EMAX">    -10.00000000</i>
   <i name="EFERMI">      0.00000000</i>
  </separator>
  <separator name="writing" >
   <i type="int" name="NWRITE">     2</i>
   <i type="logical" name="LWAVE"> T  </i>
   <i type="logical" name="LDOWNSAMPLE"> F  </i>
   <i type="logical" name="LCHARG"> T  </i>
   <i type="logical" name="LPARD"> F  </i>
   <i type="logical" name="LVTOT"> F  </i>
   <i type="logical" name="LVHAR"> F  </i>
   <i type="logical" name="LELF"> F  </i>
   <i type="logical" name="LOPTICS"> F  </i>
   <v name="STM">      0.00000000      0.00000000      0.00000000      0.00000000      0.00000000      0.00000000      0.00000000</v>
  </separator>
  <separator name="performance" >
   <i type="int" name="NPAR">     4</i>
   <i type="int" name="NSIM">     4</i>
   <i type="int" name="NBLK">    -1</i>
   <i type="logical" name="LPLANE"> T  </i>
   <i type="logical" name="LSCALAPACK"> T  </i>
   <i type="logical" name="LSCAAWARE"> F  </i>
   <i type="logical" name="LSCALU"> F  </i>
   <i type="logical" name="LASYNC"> F  </i>
   <i type="logical" name="LORBITALREAL"> F  </i>
  </separator>
  <separator name="miscellaneous" >
   <i type="int" name="IDIOT">     3</i>
   <i type="int" name="ISPECIAL">     0</i>
   <i type="logical" name="LMUSIC"> F  </i>
   <v name="POMASS">      1.00000000     18.99800000</v>
   <v name="DARWINR">      0.00000000      0.00000000</v>
   <v name="DARWINV">      1.00000000      1.00000000</v>
   <i type="logical" name="LCORR"> T  </i>
  </separator>
  <i type="logical" name="GGA_COMPAT"> T  </i>
  <i type="logical" name="LBERRY"> F  </i>
  <i type="int" name="ICORELEVEL">     0</i>
  <i type="logical" name="LDAU"> F  </i>
  <i type="int" name="I_CONSTRAINED_M">     0</i>
  <separator name="electronic exchange-correlation" >
   <i type="string" name="GGA">--</i>
   <i type="int" name="VOSKOWN">     0</i>
   <i type="logical" name="LHFCALC"> F  </i>
   <i type="string" name="PRECFOCK"></i>
   <i type="logical" name="LSYMGRAD"> F  </i>
   <i type="logical" name="LHFONE"> F  </i>
   <i type="logical" name="LRHFCALC"> F  </i>
   <i type="logical" name="LTHOMAS"> F  </i>
   <i type="logical" name="LMODELHF"> F  </i>
   <i name="ENCUT4O">     -1.00000000</i>
   <i type="int" name="EXXOEP">     0</i>
   <i type="int" name="FOURORBIT">     0</i>
   <i name="AEXX">      0.00000000</i>
   <i name="HFALPHA">      0.00000000</i>
   <i name="MCALPHA">      0.00000000</i>
   <i name="ALDAX">      1.00000000</i>
   <i name="AGGAX">      1.00000000</i>
   <i name="ALDAC">      1.00000000</i>
   <i name="AGGAC">      1.00000000</i>
   <i type="int" name="NKREDX">     1</i>
   <i type="int" name="NKREDY">     1</i>
   <i type="int" name="NKREDZ">     1</i>
   <i type="logical" name="SHIFTRED"> F  </i>
   <i type="logical" name="ODDONLY"> F  </i>
   <i type="logical" name="EVENONLY"> F  </i>
   <i type="int" name="LMAXFOCK">     0</i>
   <i type="int" name="NMAXFOCKAE">     0</i>
   <i type="logical" name="LFOCKAEDFT"> F  </i>
   <i name="HFSCREEN">      0.00000000</i>
   <i name="HFSCREENC">      0.00000000</i>
   <i type="int" name="NBANDSGWLOW">     0</i>
  </separator>
  <separator name="vdW DFT" >
   <i type="logical" name="LUSE_VDW"> F  </i>
   <i name="Zab_VDW">     -0.84910000</i>
   <i name="PARAM1">      0.12340000</i>
   <i name="PARAM2">      1.00000000</i>
   <i name="PARAM3">      0.00000000</i>
  </separator>
  <separator name="model GW" >
   <i type="int" name="MODEL_GW">     0</i>
   <i name="MODEL_EPS0">      5.54387110</i>
   <i name="MODEL_ALPHA">      1.00000000</i>
  </separator>
  <separator name="linear response parameters" >
   <i type="logical" name="LEPSILON"> F  </i>
   <i type="logical" name="LRPA"> F  </i>
   <i type="logical" name="LNABLA"> F  </i>
   <i type="logical" name="LVEL"> F  </i>
   <i type="int" name="KINTER">     0</i>
   <i name="CSHIFT">      0.10000000</i>
   <i name="OMEGAMAX">     -1.00000000</i>
   <i name="DEG_THRESHOLD">      0.00200000</i>
   <i name="RTIME">     -0.10000000</i>
   <i name="WPLASMAI">      0.00000000</i>
   <v name="DFIELD">      0.00000000      0.00000000      0.00000000</v>
   <v name="WPLASMA">      0.00000000      0.00000000      0.00000000      0.00000000      0.00000000      0.00000000      0.00000000      0.00000000      0.00000000</v>
  </separator>
  <separator name="orbital magnetization" >
   <i type="logical" name="NUCIND"> F  </i>
   <v name="MAGPOS">      0.00000000      0.00000000      0.00000000</v>
   <i type="logical" name="LNICSALL"> T  </i>
   <i type="logical" name="ORBITALMAG"> F  </i>
   <i type="logical" name="LMAGBLOCH"> F  </i>
   <i type="logical" name="LCHIMAG"> F  </i>
   <i type="logical" name="LGAUGE"> T  </i>
   <i type="int" name="MAGATOM">     0</i>
   <v name="MAGDIPOL">      0.00000000      0.00000000      0.00000000</v>
   <v name="AVECCONST">      0.00000000      0.00000000      0.00000000</v>
  </separator>
  <separator name="response functions" >
   <i type="logical" name="LADDER"> F  </i>
   <i type="logical" name="LRPAFORCE"> F  </i>
   <i type="logical" name="LFXC"> F  </i>
   <i type="logical" name="LHARTREE"> T  </i>
   <i type="int" name="IBSE">     0</i>
   <v type="int" name="KPOINT">    -1     0     0     0</v>
   <i type="logical" name="LTCTE"> F  </i>
   <i type="logical" name="LTETE"> F  </i>
   <i type="logical" name="LTRIPLET"> F  </i>
   <i type="logical" name="LFXCEPS"> F  </i>
   <i type="logical" name="LFXHEG"> F  </i>
   <i type="int" name="NATURALO">     2</i>
   <i type="logical" name="L2ORDER"> F  </i>
   <i type="logical" name="LMP2LT"> F  </i>
   <i type="logical" name="LUSEW"> F  </i>
   <i name="ENCUTGW">     -2.00000000</i>
   <i name="ENCUTGWSOFT">     -2.00000000</i>
   <i name="ENCUTLF">     -1.00000000</i>
   <i type="int" name="LMAXMP2">    -1</i>
   <i name="SCISSOR">      0.00000000</i>
   <i type="int" name="NOMEGA">     0</i>
   <i type="int" name="NOMEGAR">     0</i>
   <i type="int" name="NBANDSGW">    -1</i>
   <i type="int" name="NBANDSO">    -1</i>
   <i type="int" name="NBANDSV">    -1</i>
   <i type="int" name="NELM">    60</i>
   <i type="int" name="NELMHF">     1</i>
   <i type="int" name="DIM">     3</i>
   <i type="int" name="ANTIRES">     0</i>
   <i name="OMEGAMAX">    -30.00000000</i>
   <i name="OMEGAMIN">    -30.00000000</i>
   <i name="OMEGATL">   -200.00000000</i>
   <i type="int" name="OMEGAGRID">   140</i>
   <i name="CSHIFT">     -0.10000000</i>
   <i type="logical" name="SELFENERGY"> F  </i>
   <i type="logical" name="LSPECTRAL"> F  </i>
   <i type="logical" name="LSPECTRALGW"> F  </i>
   <i type="logical" name="LSINGLES"> F  </i>
   <i type="logical" name="LFERMIGW"> F  </i>
   <i type="logical" name="ODDONLYGW"> F  </i>
   <i type="logical" name="EVENONLYGW"> F  </i>
   <i type="int" name="NKREDLFX">     1</i>
   <i type="int" name="NKREDLFY">     1</i>
   <i type="int" name="NKREDLFZ">     1</i>
   <i type="int" name="MAXMEM">  2800</i>
   <i type="int" name="TELESCOPE">     0</i>
   <i type="int" name="TAUPAR">     1</i>
   <i type="int" name="OMEGAPAR">    -1</i>
   <i name="LAMBDA">      1.00000000</i>
  </separator>
  <separator name="External order field" >
   <i name="OFIELD_KAPPA">      0.00000000</i>
   <v name="OFIELD_K">      0.00000000      0.00000000      0.00000000</v>
   <i name="OFIELD_Q6_NEAR">      0.00000000</i>
   <i name="OFIELD_Q6_FAR">      0.00000000</i>
   <i name="OFIELD_A">      0.00000000</i>
  </separator>
 </parameters>
 <atominfo>
  <atoms>       8 </atoms>
  <types>       2 </types>
  <array name="atoms" >
   <dimension dim="1">ion</dimension>
   <field type="string">element</field>
   <field type="int">atomtype</field>
   <set>
    <rc><c>H </c><c>   1</c></rc>
    <rc><c>H </c><c>   1</c></rc>
    <rc><c>H </c><c>   1</c></rc>
    <rc><c>H </c><c>   1</c></rc>
    <rc><c>F </c><c>   2</c></rc>
    <rc><c>F </c><c>   2</c></rc>
    <rc><c>F </c><c>   2</c></rc>
    <rc><c>F </c><c>   2</c></rc>
   </set>
  </array>
  <array name="atomtypes" >
   <dimension dim="1">type</dimension>
   <field type="int">atomspertype</field>
   <field type="string">element</field>
   <field>mass</field>
   <field>valence</field>
   <field type="string">pseudopotential</field>
   <set>
    <rc><c>   4</c><c>H </c><c>      1.00000000</c><c>      1.00000000</c><c>  PAW_PBE H 15Jun2001                   </c></rc>
    <rc><c>   4</c><c>F </c><c>     18.99800000</c><c>      7.00000000</c><c>  PAW_PBE F 08Apr2002                   </c></rc>
   </set>
  </array>
 </atominfo>
 <structure name="initialpos" >
  <crystal>
   <varray name="basis" >
    <v>       3.02310188       0.00000000       0.00000000 </v>
    <v>       0.00000000       4.47716667       0.00000000 </v>
    <v>       0.00000000       0.00000000       5.46129726 </v>
   </varray>
   <i name="volume">     73.91828130 </i>
   <varray name="rec_basis" >
    <v>       0.33078607      -0.00000000       0.00000000 </v>
    <v>       0.00000000       0.22335554       0.00000000 </v>
    <v>      -0.00000000      -0.00000000       0.18310668 </v>
   </varray>
  </crystal>
  <varray name="positions" >
   <v>       0.50000000       0.06556863       0.41607187 </v>
   <v>       0.50000000       0.93443137       0.91607187 </v>
   <v>       0.00000000       0.56556863       0.41607187 </v>
   <v>       0.00000000       0.43443137       0.91607187 </v>
   <v>       0.50000000       0.85210171       0.42192813 </v>
   <v>       0.50000000       0.14789829       0.92192813 </v>
   <v>       0.00000000       0.35210171       0.42192813 </v>
   <v>       0.00000000       0.64789829       0.92192813 </v>
  </varray>
 </structure>
 <calculation>
  <scstep>
   <time name="dav">    3.80    3.80</time>
   <time name="total">    3.86    3.86</time>
   <energy>
    <i name="alphaZ">     47.66581736 </i>
    <i name="ewald">  -1525.21551231 </i>
    <i name="hartreedc">   -946.56994984 </i>
    <i name="XCdc">    158.19332182 </i>
    <i name="pawpsdc">   2165.36735197 </i>
    <i name="pawaedc">  -2185.80918074 </i>
    <i name="eentropy">     -0.00132292 </i>
    <i name="bandstr">   -220.59834686 </i>
    <i name="atom">   2688.40856919 </i>
    <i name="e_fr_energy">    181.44074767 </i>
    <i name="e_wo_entrp">    181.44207058 </i>
    <i name="e_0_energy">    181.44140912 </i>
   </energy>
  </scstep>
  <scstep>
   <time name="dav">    4.39    4.40</time>
   <time name="total">    4.39    4.40</time>
   <energy>
    <i name="e_fr_energy">    -24.97730622 </i>
    <i name="e_wo_entrp">    -24.97730622 </i>
    <i name="e_0_energy">    -24.97730622 </i>
   </energy>
  </scstep>
  <scstep>
   <time name="dav">    4.27    4.27</time>
   <time name="total">    4.27    4.27</time>
   <energy>
    <i name="e_fr_energy">    -34.61396981 </i>
    <i name="e_wo_entrp">    -34.61396981 </i>
    <i name="e_0_energy">    -34.61396981 </i>
   </energy>
  </scstep>
  <scstep>
   <time name="dav">    3.89    3.90</time>
   <time name="total">    3.89    3.90</time>
   <energy>
    <i name="e_fr_energy">    -34.67387256 </i>
    <i name="e_wo_entrp">    -34.67387256 </i>
    <i name="e_0_energy">    -34.67387256 </i>
   </energy>
  </scstep>
  <scstep>
   <time name="dav">    4.54    4.62</time>
   <time name="total">    4.79    4.87</time>
   <energy>
    <i name="e_fr_energy">    -34.67423035 </i>
    <i name="e_wo_entrp">    -34.67423035 </i>
    <i name="e_0_energy">    -34.67423035 </i>
   </energy>
  </scstep>
  <scstep>
   <time name="dav">    3.74    3.75</time>
   <time name="total">    4.10    4.10</time>
   <energy>
    <i name="e_fr_energy">    -32.72642933 </i>
    <i name="e_wo_entrp">    -32.72642933 </i>
    <i name="e_0_energy">    -32.72642933 </i>
   </energy>
  </scstep>
  <scstep>
   <time name="dav">    3.73    3.73</time>
   <time name="total">    4.10    4.10</time>
   <energy>
    <i name="e_fr_energy">    -32.73070056 </i>
    <i name="e_wo_entrp">    -32.73070056 </i>
    <i name="e_0_energy">    -32.73070056 </i>
   </energy>
  </scstep>
  <scstep>
   <time name="dav">    3.84    3.85</time>
   <time name="total">    4.18    4.18</time>
   <energy>
    <i name="e_fr_energy">    -32.75517022 </i>
    <i name="e_wo_entrp">    -32.75517022 </i>
    <i name="e_0_energy">    -32.75517022 </i>
   </energy>
  </scstep>
  <scstep>
   <time name="dav">    4.06    4.06</time>
   <time name="total">    4.36    4.36</time>
   <energy>
    <i name="e_fr_energy">    -32.75578326 </i>
    <i name="e_wo_entrp">    -32.75578326 </i>
    <i name="e_0_energy">    -32.75578326 </i>
   </energy>
  </scstep>
  <scstep>
   <time name="dav">    3.59    3.60</time>
   <time name="total">    3.91    3.91</time>
   <energy>
    <i name="e_fr_energy">    -32.75615509 </i>
    <i name="e_wo_entrp">    -32.75615509 </i>
    <i name="e_0_energy">    -32.75615509 </i>
   </energy>
  </scstep>
  <scstep>
   <time name="dav">    3.89    3.89</time>
   <time name="total">    4.18    4.18</time>
   <energy>
    <i name="e_fr_energy">    -32.75614945 </i>
    <i name="e_wo_entrp">    -32.75614945 </i>
    <i name="e_0_energy">    -32.75614945 </i>
   </energy>
  </scstep>
  <scstep>
   <time name="dav">    3.64    3.64</time>
   <time name="total">    3.99    3.99</time>
   <energy>
    <i name="e_fr_energy">    -32.75615072 </i>
    <i name="e_wo_entrp">    -32.75615072 </i>
    <i name="e_0_energy">    -32.75615072 </i>
   </energy>
  </scstep>
  <scstep>
   <time name="dav">    2.48    2.48</time>
   <time name="total">    2.54    2.54</time>
   <energy>
    <i name="alphaZ">     47.66581736 </i>
    <i name="ewald">  -1525.21551231 </i>
    <i name="hartreedc">  -1008.93250587 </i>
    <i name="XCdc">    162.18530948 </i>
    <i name="pawpsdc">   2652.72990306 </i>
    <i name="pawaedc">  -2674.09519760 </i>
    <i name="eentropy">     -0.00000000 </i>
    <i name="bandstr">   -375.50253403 </i>
    <i name="atom">   2688.40856919 </i>
    <i name="e_fr_energy">    -32.75615073 </i>
    <i name="e_wo_entrp">    -32.75615073 </i>
    <i name="e_0_energy">    -32.75615073 </i>
   </energy>
  </scstep>
  <structure>
   <crystal>
    <varray name="basis" >
     <v>       3.02310188       0.00000000       0.00000000 </v>
     <v>       0.00000000       4.47716667       0.00000000 </v>
     <v>       0.00000000       0.00000000       5.46129726 </v>
    </varray>
    <i name="volume">     73.91828130 </i>
    <varray name="rec_basis" >
     <v>       0.33078607      -0.00000000       0.00000000 </v>
     <v>       0.00000000       0.22335554       0.00000000 </v>
     <v>      -0.00000000      -0.00000000       0.18310668 </v>
    </varray>
   </crystal>
   <varray name="positions" >
    <v>       0.50000000       0.06556863       0.41607187 </v>
    <v>       0.50000000       0.93443137       0.91607187 </v>
    <v>       0.00000000       0.56556863       0.41607187 </v>
    <v>       0.00000000       0.43443137       0.91607187 </v>
    <v>       0.50000000       0.85210171       0.42192813 </v>
    <v>       0.50000000       0.14789829       0.92192813 </v>
    <v>       0.00000000       0.35210171       0.42192813 </v>
    <v>       0.00000000       0.64789829       0.92192813 </v>
   </varray>
  </structure>
  <varray name="forces" >
   <v>      -0.00000000      -0.00957785       0.00949971 </v>
   <v>       0.00000000       0.00957785       0.00949971 </v>
   <v>      -0.00000000      -0.00957785       0.00949971 </v>
   <v>       0.00000000       0.00957785       0.00949971 </v>
   <v>       0.00000000       0.01646069      -0.00949971 </v>
   <v>      -0.00000000      -0.01646069      -0.00949971 </v>
   <v>       0.00000000       0.01646069      -0.00949971 </v>
   <v>      -0.00000000      -0.01646069      -0.00949971 </v>
  </varray>
  <varray name="stress" >
   <v>       0.26412628       0.00000000       0.00000000 </v>
   <v>       0.00000000      -0.27406300      -0.00000000 </v>
   <v>       0.00000000      -0.00000000       9.73494227 </v>
  </varray>
  <energy>
   <i name="e_fr_energy">    -32.75615073 </i>
   <i name="e_wo_entrp">    -32.75615073 </i>
   <i name="e_0_energy">     -0.00000000 </i>
  </energy>
  <time name="totalsc">   55.23   55.37</time>
  <eigenvalues>
   <array>
    <dimension dim="1">band</dimension>
    <dimension dim="2">kpoint</dimension>
    <dimension dim="3">spin</dimension>
    <field>eigene</field>
    <field>occ</field>
    <set>
     <set comment="spin 1">
      <set comment="kpoint 1">
       <r>  -26.4765    1.0000 </r>
       <r>  -26.2657    1.0000 </r>
       <r>  -25.6675    1.0000 </r>
       <r>  -25.6110    1.0000 </r>
       <r>  -10.7884    1.0000 </r>
       <r>  -10.6958    1.0000 </r>
       <r>   -7.9990    1.0000 </r>
       <r>   -7.9722    1.0000 </r>
       <r>   -6.9190    1.0000 </r>
       <r>   -5.8914    1.0000 </r>
       <r>   -5.6715    1.0000 </r>
       <r>   -5.4739    1.0000 </r>
       <r>   -5.3756    1.0000 </r>
       <r>   -5.2963    1.0000 </r>
       <r>   -4.9889    1.0000 </r>
       <r>   -4.9599    1.0000 </r>
       <r>    2.0807    0.0000 </r>
       <r>    5.1140    0.0000 </r>
       <r>    7.9178    0.0000 </r>
       <r>    8.7066    0.0000 </r>
       <r>    8.7736    0.0000 </r>
       <r>   10.2635    0.0000 </r>
       <r>   11.7105    0.0000 </r>
       <r>   12.6894    0.0000 </r>
      </set>
      <set comment="kpoint 2">
       <r>  -26.4531    1.0000 </r>
       <r>  -26.2456    1.0000 </r>
       <r>  -25.6758    1.0000 </r>
       <r>  -25.6171    1.0000 </r>
       <r>  -10.7344    1.0000 </r>
       <r>  -10.6417    1.0000 </r>
       <r>   -8.0512    1.0000 </r>
       <r>   -8.0280    1.0000 </r>
       <r>   -6.8783    1.0000 </r>
       <r>   -5.9648    1.0000 </r>
       <r>   -5.7365    1.0000 </r>
       <r>   -5.4877    1.0000 </r>
       <r>   -5.3653    1.0000 </r>
       <r>   -5.2894    1.0000 </r>
       <r>   -5.0978    1.0000 </r>
       <r>   -5.0937    1.0000 </r>
       <r>    2.3006    0.0000 </r>
       <r>    5.2862    0.0000 </r>
       <r>    7.9881    0.0000 </r>
       <r>    8.7431    0.0000 </r>
       <r>    8.7458    0.0000 </r>
       <r>   10.3694    0.0000 </r>
       <r>   11.8144    0.0000 </r>
       <r>   12.7739    0.0000 </r>
      </set>
      <set comment="kpoint 3">
       <r>  -26.3870    1.0000 </r>
       <r>  -26.1894    1.0000 </r>
       <r>  -25.7023    1.0000 </r>
       <r>  -25.6363    1.0000 </r>
       <r>  -10.5761    1.0000 </r>
       <r>  -10.4845    1.0000 </r>
       <r>   -8.2053    1.0000 </r>
       <r>   -8.1936    1.0000 </r>
       <r>   -6.7606    1.0000 </r>
       <r>   -6.1523    1.0000 </r>
       <r>   -5.9031    1.0000 </r>
       <r>   -5.5321    1.0000 </r>
       <r>   -5.4453    1.0000 </r>
       <r>   -5.3652    1.0000 </r>
       <r>   -5.3373    1.0000 </r>
       <r>   -5.2710    1.0000 </r>
       <r>    2.8978    0.0000 </r>
       <r>    5.7552    0.0000 </r>
       <r>    8.1515    0.0000 </r>
       <r>    8.5978    0.0000 </r>
       <r>    8.8596    0.0000 </r>
       <r>   10.6610    0.0000 </r>
       <r>   12.1079    0.0000 </r>
       <r>   13.0285    0.0000 </r>
      </set>
      <set comment="kpoint 4">
       <r>  -26.2868    1.0000 </r>
       <r>  -26.1049    1.0000 </r>
       <r>  -25.7508    1.0000 </r>
       <r>  -25.6720    1.0000 </r>
       <r>  -10.3237    1.0000 </r>
       <r>  -10.2348    1.0000 </r>
       <r>   -8.4599    1.0000 </r>
       <r>   -8.4524    1.0000 </r>
       <r>   -6.5801    1.0000 </r>
       <r>   -6.3750    1.0000 </r>
       <r>   -6.1021    1.0000 </r>
       <r>   -5.8664    1.0000 </r>
       <r>   -5.7050    1.0000 </r>
       <r>   -5.6147    1.0000 </r>
       <r>   -5.2992    1.0000 </r>
       <r>   -5.2480    1.0000 </r>
       <r>    3.7466    0.0000 </r>
       <r>    6.4049    0.0000 </r>
       <r>    8.2329    0.0000 </r>
       <r>    8.2998    0.0000 </r>
       <r>    9.0793    0.0000 </r>
       <r>   11.0295    0.0000 </r>
       <r>   12.3965    0.0000 </r>
       <r>   12.8948    0.0000 </r>
      </set>
      <set comment="kpoint 5">
       <r>  -26.1658    1.0000 </r>
       <r>  -26.0036    1.0000 </r>
       <r>  -25.8240    1.0000 </r>
       <r>  -25.7274    1.0000 </r>
       <r>   -9.9940    1.0000 </r>
       <r>   -9.9112    1.0000 </r>
       <r>   -8.8070    1.0000 </r>
       <r>   -8.7758    1.0000 </r>
       <r>   -6.5461    1.0000 </r>
       <r>   -6.3605    1.0000 </r>
       <r>   -6.2568    1.0000 </r>
       <r>   -6.2424    1.0000 </r>
       <r>   -6.0151    1.0000 </r>
       <r>   -5.7427    1.0000 </r>
       <r>   -5.2614    1.0000 </r>
       <r>   -5.2292    1.0000 </r>
       <r>    4.7325    0.0000 </r>
       <r>    7.0984    0.0000 </r>
       <r>    7.6082    0.0000 </r>
       <r>    8.3185    0.0000 </r>
       <r>    9.4385    0.0000 </r>
       <r>   11.3616    0.0000 </r>
       <r>   11.7227    0.0000 </r>
       <r>   12.4723    0.0000 </r>
      </set>
      <set comment="kpoint 6">
       <r>  -26.0390    1.0000 </r>
       <r>  -25.9218    1.0000 </r>
       <r>  -25.8993    1.0000 </r>
       <r>  -25.8047    1.0000 </r>
       <r>   -9.6104    1.0000 </r>
       <r>   -9.5389    1.0000 </r>
       <r>   -9.2030    1.0000 </r>
       <r>   -9.1490    1.0000 </r>
       <r>   -6.5988    1.0000 </r>
       <r>   -6.4980    1.0000 </r>
       <r>   -6.3084    1.0000 </r>
       <r>   -6.2274    1.0000 </r>
       <r>   -6.1303    1.0000 </r>
       <r>   -5.9176    1.0000 </r>
       <r>   -5.2338    1.0000 </r>
       <r>   -5.2229    1.0000 </r>
       <r>    5.7648    0.0000 </r>
       <r>    6.7560    0.0000 </r>
       <r>    7.7065    0.0000 </r>
       <r>    8.1289    0.0000 </r>
       <r>    9.9812    0.0000 </r>
       <r>   10.7459    0.0000 </r>
       <r>   11.6703    0.0000 </r>
       <r>   12.0324    0.0000 </r>
      </set>
      <set comment="kpoint 7">
       <r>  -26.4489    1.0000 </r>
       <r>  -26.2417    1.0000 </r>
       <r>  -25.7042    1.0000 </r>
       <r>  -25.6345    1.0000 </r>
       <r>  -10.7004    1.0000 </r>
       <r>  -10.6047    1.0000 </r>
       <r>   -8.1364    1.0000 </r>
       <r>   -8.0948    1.0000 </r>
       <r>   -6.8801    1.0000 </r>
       <r>   -5.8608    1.0000 </r>
       <r>   -5.6448    1.0000 </r>
       <r>   -5.6142    1.0000 </r>
       <r>   -5.2906    1.0000 </r>
       <r>   -5.2879    1.0000 </r>
       <r>   -5.0337    1.0000 </r>
       <r>   -4.9811    1.0000 </r>
       <r>    2.2964    0.0000 </r>
       <r>    5.3202    0.0000 </r>
       <r>    7.6548    0.0000 </r>
       <r>    8.7355    0.0000 </r>
       <r>    8.7754    0.0000 </r>
       <r>   10.3393    0.0000 </r>
       <r>   11.0697    0.0000 </r>
       <r>   13.1555    0.0000 </r>
      </set>
      <set comment="kpoint 8">
       <r>  -26.4267    1.0000 </r>
       <r>  -26.2227    1.0000 </r>
       <r>  -25.7110    1.0000 </r>
       <r>  -25.6397    1.0000 </r>
       <r>  -10.6524    1.0000 </r>
       <r>  -10.5561    1.0000 </r>
       <r>   -8.1912    1.0000 </r>
       <r>   -8.1481    1.0000 </r>
       <r>   -6.8401    1.0000 </r>
       <r>   -5.9307    1.0000 </r>
       <r>   -5.7074    1.0000 </r>
       <r>   -5.6146    1.0000 </r>
       <r>   -5.2914    1.0000 </r>
       <r>   -5.2818    1.0000 </r>
       <r>   -5.1333    1.0000 </r>
       <r>   -5.0975    1.0000 </r>
       <r>    2.5024    0.0000 </r>
       <r>    5.4787    0.0000 </r>
       <r>    7.7348    0.0000 </r>
       <r>    8.7477    0.0000 </r>
       <r>    8.7721    0.0000 </r>
       <r>   10.4134    0.0000 </r>
       <r>   11.1501    0.0000 </r>
       <r>   13.1382    0.0000 </r>
      </set>
      <set comment="kpoint 9">
       <r>  -26.3632    1.0000 </r>
       <r>  -26.1690    1.0000 </r>
       <r>  -25.7323    1.0000 </r>
       <r>  -25.6565    1.0000 </r>
       <r>  -10.5118    1.0000 </r>
       <r>  -10.4136    1.0000 </r>
       <r>   -8.3532    1.0000 </r>
       <r>   -8.3034    1.0000 </r>
       <r>   -6.7251    1.0000 </r>
       <r>   -6.1084    1.0000 </r>
       <r>   -5.8672    1.0000 </r>
       <r>   -5.6249    1.0000 </r>
       <r>   -5.4248    1.0000 </r>
       <r>   -5.3615    1.0000 </r>
       <r>   -5.2906    1.0000 </r>
       <r>   -5.2643    1.0000 </r>
       <r>    3.0664    0.0000 </r>
       <r>    5.9096    0.0000 </r>
       <r>    7.9183    0.0000 </r>
       <r>    8.6212    0.0000 </r>
       <r>    8.8888    0.0000 </r>
       <r>   10.6031    0.0000 </r>
       <r>   11.3803    0.0000 </r>
       <r>   13.0187    0.0000 </r>
      </set>
      <set comment="kpoint 10">
       <r>  -26.2675    1.0000 </r>
       <r>  -26.0884    1.0000 </r>
       <r>  -25.7728    1.0000 </r>
       <r>  -25.6880    1.0000 </r>
       <r>  -10.2891    1.0000 </r>
       <r>  -10.1878    1.0000 </r>
       <r>   -8.6109    1.0000 </r>
       <r>   -8.5462    1.0000 </r>
       <r>   -6.5498    1.0000 </r>
       <r>   -6.3164    1.0000 </r>
       <r>   -6.0559    1.0000 </r>
       <r>   -5.8037    1.0000 </r>
       <r>   -5.6715    1.0000 </r>
       <r>   -5.6685    1.0000 </r>
       <r>   -5.2805    1.0000 </r>
       <r>   -5.2448    1.0000 </r>
       <r>    3.8745    0.0000 </r>
       <r>    6.5062    0.0000 </r>
       <r>    8.0003    0.0000 </r>
       <r>    8.3904    0.0000 </r>
       <r>    9.1079    0.0000 </r>
       <r>   10.8204    0.0000 </r>
       <r>   11.6769    0.0000 </r>
       <r>   12.6775    0.0000 </r>
      </set>
      <set comment="kpoint 11">
       <r>  -26.1526    1.0000 </r>
       <r>  -25.9927    1.0000 </r>
       <r>  -25.8370    1.0000 </r>
       <r>  -25.7377    1.0000 </r>
       <r>   -9.9995    1.0000 </r>
       <r>   -9.8957    1.0000 </r>
       <r>   -8.9378    1.0000 </r>
       <r>   -8.8552    1.0000 </r>
       <r>   -6.4700    1.0000 </r>
       <r>   -6.3392    1.0000 </r>
       <r>   -6.1989    1.0000 </r>
       <r>   -6.1502    1.0000 </r>
       <r>   -5.9573    1.0000 </r>
       <r>   -5.7657    1.0000 </r>
       <r>   -5.2597    1.0000 </r>
       <r>   -5.2296    1.0000 </r>
       <r>    4.8194    0.0000 </r>
       <r>    7.1441    0.0000 </r>
       <r>    7.5568    0.0000 </r>
       <r>    8.2959    0.0000 </r>
       <r>    9.4638    0.0000 </r>
       <r>   11.0310    0.0000 </r>
       <r>   11.5205    0.0000 </r>
       <r>   12.1738    0.0000 </r>
      </set>
      <set comment="kpoint 12">
       <r>  -26.0339    1.0000 </r>
       <r>  -25.9254    1.0000 </r>
       <r>  -25.8955    1.0000 </r>
       <r>  -25.8077    1.0000 </r>
       <r>   -9.6620    1.0000 </r>
       <r>   -9.5588    1.0000 </r>
       <r>   -9.2993    1.0000 </r>
       <r>   -9.2027    1.0000 </r>
       <r>   -6.5070    1.0000 </r>
       <r>   -6.3999    1.0000 </r>
       <r>   -6.2412    1.0000 </r>
       <r>   -6.1590    1.0000 </r>
       <r>   -6.1162    1.0000 </r>
       <r>   -5.9193    1.0000 </r>
       <r>   -5.2380    1.0000 </r>
       <r>   -5.2264    1.0000 </r>
       <r>    5.8112    0.0000 </r>
       <r>    6.7608    0.0000 </r>
       <r>    7.7080    0.0000 </r>
       <r>    8.1075    0.0000 </r>
       <r>    9.9948    0.0000 </r>
       <r>   10.7220    0.0000 </r>
       <r>   11.3011    0.0000 </r>
       <r>   11.6840    0.0000 </r>
      </set>
      <set comment="kpoint 13">
       <r>  -26.3696    1.0000 </r>
       <r>  -26.1727    1.0000 </r>
       <r>  -25.8032    1.0000 </r>
       <r>  -25.7052    1.0000 </r>
       <r>  -10.4446    1.0000 </r>
       <r>  -10.3428    1.0000 </r>
       <r>   -8.5031    1.0000 </r>
       <r>   -8.4353    1.0000 </r>
       <r>   -6.7644    1.0000 </r>
       <r>   -5.8384    1.0000 </r>
       <r>   -5.7725    1.0000 </r>
       <r>   -5.5682    1.0000 </r>
       <r>   -5.2650    1.0000 </r>
       <r>   -5.2229    1.0000 </r>
       <r>   -5.1455    1.0000 </r>
       <r>   -5.0551    1.0000 </r>
       <r>    2.8982    0.0000 </r>
       <r>    5.8921    0.0000 </r>
       <r>    6.9320    0.0000 </r>
       <r>    8.6747    0.0000 </r>
       <r>    8.8283    0.0000 </r>
       <r>   10.2954    0.0000 </r>
       <r>   10.6666    0.0000 </r>
       <r>   13.0608    0.0000 </r>
      </set>
      <set comment="kpoint 14">
       <r>  -26.3501    1.0000 </r>
       <r>  -26.1562    1.0000 </r>
       <r>  -25.8056    1.0000 </r>
       <r>  -25.7073    1.0000 </r>
       <r>  -10.4130    1.0000 </r>
       <r>  -10.3085    1.0000 </r>
       <r>   -8.5561    1.0000 </r>
       <r>   -8.4821    1.0000 </r>
       <r>   -6.7271    1.0000 </r>
       <r>   -5.8360    1.0000 </r>
       <r>   -5.8271    1.0000 </r>
       <r>   -5.6248    1.0000 </r>
       <r>   -5.2618    1.0000 </r>
       <r>   -5.2266    1.0000 </r>
       <r>   -5.2176    1.0000 </r>
       <r>   -5.1425    1.0000 </r>
       <r>    3.0724    0.0000 </r>
       <r>    6.0154    0.0000 </r>
       <r>    7.0257    0.0000 </r>
       <r>    8.6599    0.0000 </r>
       <r>    8.8656    0.0000 </r>
       <r>   10.3588    0.0000 </r>
       <r>   10.6662    0.0000 </r>
       <r>   12.9733    0.0000 </r>
      </set>
      <set comment="kpoint 15">
       <r>  -26.2947    1.0000 </r>
       <r>  -26.1103    1.0000 </r>
       <r>  -25.8140    1.0000 </r>
       <r>  -25.7159    1.0000 </r>
       <r>  -10.3214    1.0000 </r>
       <r>  -10.2084    1.0000 </r>
       <r>   -8.7086    1.0000 </r>
       <r>   -8.6171    1.0000 </r>
       <r>   -6.6207    1.0000 </r>
       <r>   -5.9870    1.0000 </r>
       <r>   -5.8098    1.0000 </r>
       <r>   -5.7671    1.0000 </r>
       <r>   -5.4163    1.0000 </r>
       <r>   -5.3635    1.0000 </r>
       <r>   -5.2477    1.0000 </r>
       <r>   -5.2371    1.0000 </r>
       <r>    3.5557    0.0000 </r>
       <r>    6.3490    0.0000 </r>
       <r>    7.2542    0.0000 </r>
       <r>    8.5852    0.0000 </r>
       <r>    8.9836    0.0000 </r>
       <r>   10.5339    0.0000 </r>
       <r>   10.6359    0.0000 </r>
       <r>   12.6651    0.0000 </r>
      </set>
      <set comment="kpoint 16">
       <r>  -26.2122    1.0000 </r>
       <r>  -26.0418    1.0000 </r>
       <r>  -25.8346    1.0000 </r>
       <r>  -25.7343    1.0000 </r>
       <r>  -10.1772    1.0000 </r>
       <r>  -10.0508    1.0000 </r>
       <r>   -8.9402    1.0000 </r>
       <r>   -8.8241    1.0000 </r>
       <r>   -6.4610    1.0000 </r>
       <r>   -6.1594    1.0000 </r>
       <r>   -5.9339    1.0000 </r>
       <r>   -5.7989    1.0000 </r>
       <r>   -5.6900    1.0000 </r>
       <r>   -5.6177    1.0000 </r>
       <r>   -5.2497    1.0000 </r>
       <r>   -5.2365    1.0000 </r>
       <r>    4.2586    0.0000 </r>
       <r>    6.8054    0.0000 </r>
       <r>    7.4524    0.0000 </r>
       <r>    8.4201    0.0000 </r>
       <r>    9.2022    0.0000 </r>
       <r>   10.5015    0.0000 </r>
       <r>   10.8225    0.0000 </r>
       <r>   12.1292    0.0000 </r>
      </set>
      <set comment="kpoint 17">
       <r>  -26.1154    1.0000 </r>
       <r>  -25.9623    1.0000 </r>
       <r>  -25.8738    1.0000 </r>
       <r>  -25.7672    1.0000 </r>
       <r>   -9.9885    1.0000 </r>
       <r>   -9.8471    1.0000 </r>
       <r>   -9.2162    1.0000 </r>
       <r>   -9.0770    1.0000 </r>
       <r>   -6.2757    1.0000 </r>
       <r>   -6.2738    1.0000 </r>
       <r>   -6.0535    1.0000 </r>
       <r>   -5.9632    1.0000 </r>
       <r>   -5.8447    1.0000 </r>
       <r>   -5.8313    1.0000 </r>
       <r>   -5.2549    1.0000 </r>
       <r>   -5.2311    1.0000 </r>
       <r>    5.0877    0.0000 </r>
       <r>    7.2886    0.0000 </r>
       <r>    7.3224    0.0000 </r>
       <r>    8.2430    0.0000 </r>
       <r>    9.5481    0.0000 </r>
       <r>   10.4283    0.0000 </r>
       <r>   10.9898    0.0000 </r>
       <r>   11.5120    0.0000 </r>
      </set>
      <set comment="kpoint 18">
       <r>  -26.0189    1.0000 </r>
       <r>  -25.9360    1.0000 </r>
       <r>  -25.8843    1.0000 </r>
       <r>  -25.8176    1.0000 </r>
       <r>   -9.7606    1.0000 </r>
       <r>   -9.6086    1.0000 </r>
       <r>   -9.4988    1.0000 </r>
       <r>   -9.3466    1.0000 </r>
       <r>   -6.2869    1.0000 </r>
       <r>   -6.1851    1.0000 </r>
       <r>   -6.0833    1.0000 </r>
       <r>   -6.0759    1.0000 </r>
       <r>   -6.0079    1.0000 </r>
       <r>   -5.9263    1.0000 </r>
       <r>   -5.2473    1.0000 </r>
       <r>   -5.2357    1.0000 </r>
       <r>    5.9538    0.0000 </r>
       <r>    6.7529    0.0000 </r>
       <r>    7.7227    0.0000 </r>
       <r>    8.0484    0.0000 </r>
       <r>   10.0424    0.0000 </r>
       <r>   10.5727    0.0000 </r>
       <r>   10.6409    0.0000 </r>
       <r>   10.9628    0.0000 </r>
      </set>
      <set comment="kpoint 19">
       <r>  -26.2477    1.0000 </r>
       <r>  -26.0677    1.0000 </r>
       <r>  -25.9428    1.0000 </r>
       <r>  -25.8138    1.0000 </r>
       <r>  -10.0464    1.0000 </r>
       <r>   -9.9401    1.0000 </r>
       <r>   -9.0061    1.0000 </r>
       <r>   -8.9150    1.0000 </r>
       <r>   -6.5811    1.0000 </r>
       <r>   -6.0923    1.0000 </r>
       <r>   -5.6373    1.0000 </r>
       <r>   -5.4521    1.0000 </r>
       <r>   -5.3000    1.0000 </r>
       <r>   -5.2347    1.0000 </r>
       <r>   -5.1992    1.0000 </r>
       <r>   -5.1729    1.0000 </r>
       <r>    3.7822    0.0000 </r>
       <r>    5.9287    0.0000 </r>
       <r>    6.7056    0.0000 </r>
       <r>    8.2886    0.0000 </r>
       <r>    9.0034    0.0000 </r>
       <r>    9.7149    0.0000 </r>
       <r>   11.2460    0.0000 </r>
       <r>   12.6881    0.0000 </r>
      </set>
      <set comment="kpoint 20">
       <r>  -26.2325    1.0000 </r>
       <r>  -26.0552    1.0000 </r>
       <r>  -25.9392    1.0000 </r>
       <r>  -25.8115    1.0000 </r>
       <r>  -10.0383    1.0000 </r>
       <r>   -9.9270    1.0000 </r>
       <r>   -9.0459    1.0000 </r>
       <r>   -8.9474    1.0000 </r>
       <r>   -6.5487    1.0000 </r>
       <r>   -6.0745    1.0000 </r>
       <r>   -5.6885    1.0000 </r>
       <r>   -5.5031    1.0000 </r>
       <r>   -5.3532    1.0000 </r>
       <r>   -5.2395    1.0000 </r>
       <r>   -5.2286    1.0000 </r>
       <r>   -5.2024    1.0000 </r>
       <r>    3.9237    0.0000 </r>
       <r>    6.0323    0.0000 </r>
       <r>    6.7864    0.0000 </r>
       <r>    8.2982    0.0000 </r>
       <r>    9.0429    0.0000 </r>
       <r>    9.7663    0.0000 </r>
       <r>   11.1638    0.0000 </r>
       <r>   12.5335    0.0000 </r>
      </set>
      <set comment="kpoint 21">
       <r>  -26.1898    1.0000 </r>
       <r>  -26.0208    1.0000 </r>
       <r>  -25.9307    1.0000 </r>
       <r>  -25.8068    1.0000 </r>
       <r>  -10.0151    1.0000 </r>
       <r>   -9.8889    1.0000 </r>
       <r>   -9.1595    1.0000 </r>
       <r>   -9.0403    1.0000 </r>
       <r>   -6.4571    1.0000 </r>
       <r>   -6.0281    1.0000 </r>
       <r>   -5.8143    1.0000 </r>
       <r>   -5.6311    1.0000 </r>
       <r>   -5.4893    1.0000 </r>
       <r>   -5.3987    1.0000 </r>
       <r>   -5.2281    1.0000 </r>
       <r>   -5.2127    1.0000 </r>
       <r>    4.3170    0.0000 </r>
       <r>    6.3027    0.0000 </r>
       <r>    6.9973    0.0000 </r>
       <r>    8.2977    0.0000 </r>
       <r>    9.1658    0.0000 </r>
       <r>    9.9188    0.0000 </r>
       <r>   10.9010    0.0000 </r>
       <r>   12.0888    0.0000 </r>
      </set>
      <set comment="kpoint 22">
       <r>  -26.1282    1.0000 </r>
       <r>  -25.9715    1.0000 </r>
       <r>  -25.9245    1.0000 </r>
       <r>  -25.8047    1.0000 </r>
       <r>   -9.9771    1.0000 </r>
       <r>   -9.8288    1.0000 </r>
       <r>   -9.3272    1.0000 </r>
       <r>   -9.1800    1.0000 </r>
       <r>   -6.3232    1.0000 </r>
       <r>   -5.9818    1.0000 </r>
       <r>   -5.9424    1.0000 </r>
       <r>   -5.7781    1.0000 </r>
       <r>   -5.6598    1.0000 </r>
       <r>   -5.6019    1.0000 </r>
       <r>   -5.2298    1.0000 </r>
       <r>   -5.2277    1.0000 </r>
       <r>    4.8872    0.0000 </r>
       <r>    6.6266    0.0000 </r>
       <r>    7.2672    0.0000 </r>
       <r>    8.2372    0.0000 </r>
       <r>    9.3859    0.0000 </r>
       <r>   10.1616    0.0000 </r>
       <r>   10.4911    0.0000 </r>
       <r>   11.4602    0.0000 </r>
      </set>
      <set comment="kpoint 23">
       <r>  -26.0597    1.0000 </r>
       <r>  -25.9293    1.0000 </r>
       <r>  -25.9171    1.0000 </r>
       <r>  -25.8115    1.0000 </r>
       <r>   -9.9182    1.0000 </r>
       <r>   -9.7470    1.0000 </r>
       <r>   -9.5162    1.0000 </r>
       <r>   -9.3432    1.0000 </r>
       <r>   -6.1740    1.0000 </r>
       <r>   -6.0482    1.0000 </r>
       <r>   -5.9336    1.0000 </r>
       <r>   -5.8836    1.0000 </r>
       <r>   -5.8275    1.0000 </r>
       <r>   -5.7804    1.0000 </r>
       <r>   -5.2478    1.0000 </r>
       <r>   -5.2345    1.0000 </r>
       <r>    5.5449    0.0000 </r>
       <r>    6.8175    0.0000 </r>
       <r>    7.5339    0.0000 </r>
       <r>    8.1130    0.0000 </r>
       <r>    9.7164    0.0000 </r>
       <r>   10.1135    0.0000 </r>
       <r>   10.4324    0.0000 </r>
       <r>   10.8148    0.0000 </r>
      </set>
      <set comment="kpoint 24">
       <r>  -25.9979    1.0000 </r>
       <r>  -25.9527    1.0000 </r>
       <r>  -25.8683    1.0000 </r>
       <r>  -25.8321    1.0000 </r>
       <r>   -9.8261    1.0000 </r>
       <r>   -9.6905    1.0000 </r>
       <r>   -9.6396    1.0000 </r>
       <r>   -9.5030    1.0000 </r>
       <r>   -6.0592    1.0000 </r>
       <r>   -6.0514    1.0000 </r>
       <r>   -5.9585    1.0000 </r>
       <r>   -5.9519    1.0000 </r>
       <r>   -5.9192    1.0000 </r>
       <r>   -5.8905    1.0000 </r>
       <r>   -5.2549    1.0000 </r>
       <r>   -5.2469    1.0000 </r>
       <r>    6.1872    0.0000 </r>
       <r>    6.6700    0.0000 </r>
       <r>    7.7678    0.0000 </r>
       <r>    7.9587    0.0000 </r>
       <r>   10.0179    0.0000 </r>
       <r>   10.1369    0.0000 </r>
       <r>   10.2928    0.0000 </r>
       <r>   10.4834    0.0000 </r>
      </set>
      <set comment="kpoint 25">
       <r>  -26.0988    1.0000 </r>
       <r>  -26.0988    1.0000 </r>
       <r>  -25.9419    1.0000 </r>
       <r>  -25.9419    1.0000 </r>
       <r>   -9.5471    1.0000 </r>
       <r>   -9.5471    1.0000 </r>
       <r>   -9.4433    1.0000 </r>
       <r>   -9.4433    1.0000 </r>
       <r>   -6.3489    1.0000 </r>
       <r>   -6.3489    1.0000 </r>
       <r>   -5.4723    1.0000 </r>
       <r>   -5.4723    1.0000 </r>
       <r>   -5.3132    1.0000 </r>
       <r>   -5.3132    1.0000 </r>
       <r>   -5.2081    1.0000 </r>
       <r>   -5.2081    1.0000 </r>
       <r>    4.8317    0.0000 </r>
       <r>    4.8317    0.0000 </r>
       <r>    7.5776    0.0000 </r>
       <r>    7.5776    0.0000 </r>
       <r>    9.2887    0.0000 </r>
       <r>    9.2887    0.0000 </r>
       <r>   12.0017    0.0000 </r>
       <r>   12.0017    0.0000 </r>
      </set>
      <set comment="kpoint 26">
       <r>  -26.0891    1.0000 </r>
       <r>  -26.0891    1.0000 </r>
       <r>  -25.9342    1.0000 </r>
       <r>  -25.9342    1.0000 </r>
       <r>   -9.5647    1.0000 </r>
       <r>   -9.5647    1.0000 </r>
       <r>   -9.4541    1.0000 </r>
       <r>   -9.4541    1.0000 </r>
       <r>   -6.3231    1.0000 </r>
       <r>   -6.3231    1.0000 </r>
       <r>   -5.5187    1.0000 </r>
       <r>   -5.5187    1.0000 </r>
       <r>   -5.3644    1.0000 </r>
       <r>   -5.3644    1.0000 </r>
       <r>   -5.2089    1.0000 </r>
       <r>   -5.2089    1.0000 </r>
       <r>    4.9495    0.0000 </r>
       <r>    4.9495    0.0000 </r>
       <r>    7.6193    0.0000 </r>
       <r>    7.6193    0.0000 </r>
       <r>    9.3326    0.0000 </r>
       <r>    9.3326    0.0000 </r>
       <r>   11.8551    0.0000 </r>
       <r>   11.8551    0.0000 </r>
      </set>
      <set comment="kpoint 27">
       <r>  -26.0626    1.0000 </r>
       <r>  -26.0626    1.0000 </r>
       <r>  -25.9142    1.0000 </r>
       <r>  -25.9142    1.0000 </r>
       <r>   -9.6151    1.0000 </r>
       <r>   -9.6151    1.0000 </r>
       <r>   -9.4851    1.0000 </r>
       <r>   -9.4851    1.0000 </r>
       <r>   -6.2519    1.0000 </r>
       <r>   -6.2519    1.0000 </r>
       <r>   -5.6341    1.0000 </r>
       <r>   -5.6341    1.0000 </r>
       <r>   -5.4947    1.0000 </r>
       <r>   -5.4947    1.0000 </r>
       <r>   -5.2131    1.0000 </r>
       <r>   -5.2131    1.0000 </r>
       <r>    5.2705    0.0000 </r>
       <r>    5.2705    0.0000 </r>
       <r>    7.7139    0.0000 </r>
       <r>    7.7139    0.0000 </r>
       <r>    9.4663    0.0000 </r>
       <r>    9.4663    0.0000 </r>
       <r>   11.4395    0.0000 </r>
       <r>   11.4395    0.0000 </r>
      </set>
      <set comment="kpoint 28">
       <r>  -26.0273    1.0000 </r>
       <r>  -26.0273    1.0000 </r>
       <r>  -25.8881    1.0000 </r>
       <r>  -25.8881    1.0000 </r>
       <r>   -9.6879    1.0000 </r>
       <r>   -9.6879    1.0000 </r>
       <r>   -9.5308    1.0000 </r>
       <r>   -9.5308    1.0000 </r>
       <r>   -6.1533    1.0000 </r>
       <r>   -6.1533    1.0000 </r>
       <r>   -5.7651    1.0000 </r>
       <r>   -5.7651    1.0000 </r>
       <r>   -5.6518    1.0000 </r>
       <r>   -5.6518    1.0000 </r>
       <r>   -5.2237    1.0000 </r>
       <r>   -5.2237    1.0000 </r>
       <r>    5.7121    0.0000 </r>
       <r>    5.7121    0.0000 </r>
       <r>    7.7998    0.0000 </r>
       <r>    7.7998    0.0000 </r>
       <r>    9.6933    0.0000 </r>
       <r>    9.6933    0.0000 </r>
       <r>   10.8592    0.0000 </r>
       <r>   10.8592    0.0000 </r>
      </set>
      <set comment="kpoint 29">
       <r>  -25.9945    1.0000 </r>
       <r>  -25.9945    1.0000 </r>
       <r>  -25.8640    1.0000 </r>
       <r>  -25.8640    1.0000 </r>
       <r>   -9.7612    1.0000 </r>
       <r>   -9.7612    1.0000 </r>
       <r>   -9.5782    1.0000 </r>
       <r>   -9.5782    1.0000 </r>
       <r>   -6.0571    1.0000 </r>
       <r>   -6.0571    1.0000 </r>
       <r>   -5.8626    1.0000 </r>
       <r>   -5.8626    1.0000 </r>
       <r>   -5.7859    1.0000 </r>
       <r>   -5.7859    1.0000 </r>
       <r>   -5.2404    1.0000 </r>
       <r>   -5.2404    1.0000 </r>
       <r>    6.1597    0.0000 </r>
       <r>    6.1597    0.0000 </r>
       <r>    7.8432    0.0000 </r>
       <r>    7.8432    0.0000 </r>
       <r>   10.0008    0.0000 </r>
       <r>   10.0008    0.0000 </r>
       <r>   10.2903    0.0000 </r>
       <r>   10.2903    0.0000 </r>
      </set>
      <set comment="kpoint 30">
       <r>  -25.9744    1.0000 </r>
       <r>  -25.9744    1.0000 </r>
       <r>  -25.8502    1.0000 </r>
       <r>  -25.8502    1.0000 </r>
       <r>   -9.8074    1.0000 </r>
       <r>   -9.8074    1.0000 </r>
       <r>   -9.6088    1.0000 </r>
       <r>   -9.6088    1.0000 </r>
       <r>   -6.0023    1.0000 </r>
       <r>   -6.0023    1.0000 </r>
       <r>   -5.8996    1.0000 </r>
       <r>   -5.8996    1.0000 </r>
       <r>   -5.8662    1.0000 </r>
       <r>   -5.8662    1.0000 </r>
       <r>   -5.2548    1.0000 </r>
       <r>   -5.2548    1.0000 </r>
       <r>    6.4612    0.0000 </r>
       <r>    6.4612    0.0000 </r>
       <r>    7.8534    0.0000 </r>
       <r>    7.8534    0.0000 </r>
       <r>    9.9186    0.0000 </r>
       <r>    9.9186    0.0000 </r>
       <r>   10.2961    0.0000 </r>
       <r>   10.2961    0.0000 </r>
      </set>
      <set comment="kpoint 31">
       <r>  -26.4627    1.0000 </r>
       <r>  -26.2802    1.0000 </r>
       <r>  -25.6635    1.0000 </r>
       <r>  -25.6144    1.0000 </r>
       <r>  -10.7854    1.0000 </r>
       <r>  -10.7050    1.0000 </r>
       <r>   -7.9969    1.0000 </r>
       <r>   -7.9735    1.0000 </r>
       <r>   -6.8272    1.0000 </r>
       <r>   -5.8770    1.0000 </r>
       <r>   -5.6865    1.0000 </r>
       <r>   -5.4586    1.0000 </r>
       <r>   -5.4286    1.0000 </r>
       <r>   -5.3734    1.0000 </r>
       <r>   -4.9869    1.0000 </r>
       <r>   -4.9618    1.0000 </r>
       <r>    2.2720    0.0000 </r>
       <r>    4.8524    0.0000 </r>
       <r>    7.9584    0.0000 </r>
       <r>    8.7188    0.0000 </r>
       <r>    8.9976    0.0000 </r>
       <r>   10.2540    0.0000 </r>
       <r>   11.4748    0.0000 </r>
       <r>   12.7437    0.0000 </r>
      </set>
      <set comment="kpoint 32">
       <r>  -26.4397    1.0000 </r>
       <r>  -26.2604    1.0000 </r>
       <r>  -25.6720    1.0000 </r>
       <r>  -25.6209    1.0000 </r>
       <r>  -10.7315    1.0000 </r>
       <r>  -10.6514    1.0000 </r>
       <r>   -8.0494    1.0000 </r>
       <r>   -8.0292    1.0000 </r>
       <r>   -6.7891    1.0000 </r>
       <r>   -5.9511    1.0000 </r>
       <r>   -5.7542    1.0000 </r>
       <r>   -5.4690    1.0000 </r>
       <r>   -5.4303    1.0000 </r>
       <r>   -5.3638    1.0000 </r>
       <r>   -5.0918    1.0000 </r>
       <r>   -5.0838    1.0000 </r>
       <r>    2.4851    0.0000 </r>
       <r>    5.0236    0.0000 </r>
       <r>    8.0286    0.0000 </r>
       <r>    8.7074    0.0000 </r>
       <r>    9.0348    0.0000 </r>
       <r>   10.3592    0.0000 </r>
       <r>   11.5771    0.0000 </r>
       <r>   12.7558    0.0000 </r>
      </set>
      <set comment="kpoint 33">
       <r>  -26.3741    1.0000 </r>
       <r>  -26.2032    1.0000 </r>
       <r>  -25.6979    1.0000 </r>
       <r>  -25.6406    1.0000 </r>
       <r>  -10.5731    1.0000 </r>
       <r>  -10.4936    1.0000 </r>
       <r>   -8.2042    1.0000 </r>
       <r>   -8.1942    1.0000 </r>
       <r>   -6.6800    1.0000 </r>
       <r>   -6.1395    1.0000 </r>
       <r>   -5.9258    1.0000 </r>
       <r>   -5.5298    1.0000 </r>
       <r>   -5.5058    1.0000 </r>
       <r>   -5.3622    1.0000 </r>
       <r>   -5.3389    1.0000 </r>
       <r>   -5.2955    1.0000 </r>
       <r>    3.0659    0.0000 </r>
       <r>    5.4906    0.0000 </r>
       <r>    8.1910    0.0000 </r>
       <r>    8.6000    0.0000 </r>
       <r>    9.1506    0.0000 </r>
       <r>   10.6676    0.0000 </r>
       <r>   11.8775    0.0000 </r>
       <r>   12.7441    0.0000 </r>
      </set>
      <set comment="kpoint 34">
       <r>  -26.2748    1.0000 </r>
       <r>  -26.1173    1.0000 </r>
       <r>  -25.7454    1.0000 </r>
       <r>  -25.6773    1.0000 </r>
       <r>  -10.3205    1.0000 </r>
       <r>  -10.2434    1.0000 </r>
       <r>   -8.4598    1.0000 </r>
       <r>   -8.4529    1.0000 </r>
       <r>   -6.5171    1.0000 </r>
       <r>   -6.3629    1.0000 </r>
       <r>   -6.1302    1.0000 </r>
       <r>   -5.8899    1.0000 </r>
       <r>   -5.6959    1.0000 </r>
       <r>   -5.5775    1.0000 </r>
       <r>   -5.3112    1.0000 </r>
       <r>   -5.3076    1.0000 </r>
       <r>    3.8941    0.0000 </r>
       <r>    6.1447    0.0000 </r>
       <r>    8.2753    0.0000 </r>
       <r>    8.3260    0.0000 </r>
       <r>    9.3563    0.0000 </r>
       <r>   11.0742    0.0000 </r>
       <r>   12.2286    0.0000 </r>
       <r>   12.5965    0.0000 </r>
      </set>
      <set comment="kpoint 35">
       <r>  -26.1550    1.0000 </r>
       <r>  -26.0145    1.0000 </r>
       <r>  -25.8175    1.0000 </r>
       <r>  -25.7339    1.0000 </r>
       <r>   -9.9908    1.0000 </r>
       <r>   -9.9188    1.0000 </r>
       <r>   -8.8058    1.0000 </r>
       <r>   -8.7782    1.0000 </r>
       <r>   -6.5352    1.0000 </r>
       <r>   -6.3427    1.0000 </r>
       <r>   -6.2914    1.0000 </r>
       <r>   -6.2486    1.0000 </r>
       <r>   -5.9746    1.0000 </r>
       <r>   -5.6903    1.0000 </r>
       <r>   -5.2867    1.0000 </r>
       <r>   -5.2800    1.0000 </r>
       <r>    4.8596    0.0000 </r>
       <r>    6.8652    0.0000 </r>
       <r>    7.6795    0.0000 </r>
       <r>    8.3083    0.0000 </r>
       <r>    9.6674    0.0000 </r>
       <r>   11.4030    0.0000 </r>
       <r>   11.6318    0.0000 </r>
       <r>   12.2841    0.0000 </r>
      </set>
      <set comment="kpoint 36">
       <r>  -26.0300    1.0000 </r>
       <r>  -25.9139    1.0000 </r>
       <r>  -25.9087    1.0000 </r>
       <r>  -25.8124    1.0000 </r>
       <r>   -9.6076    1.0000 </r>
       <r>   -9.5452    1.0000 </r>
       <r>   -9.2007    1.0000 </r>
       <r>   -9.1535    1.0000 </r>
       <r>   -6.5907    1.0000 </r>
       <r>   -6.4950    1.0000 </r>
       <r>   -6.3540    1.0000 </r>
       <r>   -6.3110    1.0000 </r>
       <r>   -6.0031    1.0000 </r>
       <r>   -5.8425    1.0000 </r>
       <r>   -5.2678    1.0000 </r>
       <r>   -5.2651    1.0000 </r>
       <r>    5.8730    0.0000 </r>
       <r>    6.8469    0.0000 </r>
       <r>    7.5391    0.0000 </r>
       <r>    8.0491    0.0000 </r>
       <r>   10.1125    0.0000 </r>
       <r>   10.7533    0.0000 </r>
       <r>   11.6499    0.0000 </r>
       <r>   11.9348    0.0000 </r>
      </set>
      <set comment="kpoint 37">
       <r>  -26.4354    1.0000 </r>
       <r>  -26.2559    1.0000 </r>
       <r>  -25.6996    1.0000 </r>
       <r>  -25.6391    1.0000 </r>
       <r>  -10.6973    1.0000 </r>
       <r>  -10.6145    1.0000 </r>
       <r>   -8.1348    1.0000 </r>
       <r>   -8.0980    1.0000 </r>
       <r>   -6.7873    1.0000 </r>
       <r>   -5.8466    1.0000 </r>
       <r>   -5.6596    1.0000 </r>
       <r>   -5.5844    1.0000 </r>
       <r>   -5.4151    1.0000 </r>
       <r>   -5.3040    1.0000 </r>
       <r>   -5.0301    1.0000 </r>
       <r>   -4.9846    1.0000 </r>
       <r>    2.4832    0.0000 </r>
       <r>    5.0527    0.0000 </r>
       <r>    7.7112    0.0000 </r>
       <r>    8.7022    0.0000 </r>
       <r>    9.0304    0.0000 </r>
       <r>   10.2899    0.0000 </r>
       <r>   11.0092    0.0000 </r>
       <r>   12.7471    0.0000 </r>
      </set>
      <set comment="kpoint 38">
       <r>  -26.4134    1.0000 </r>
       <r>  -26.2368    1.0000 </r>
       <r>  -25.7061    1.0000 </r>
       <r>  -25.6444    1.0000 </r>
       <r>  -10.6492    1.0000 </r>
       <r>  -10.5659    1.0000 </r>
       <r>   -8.1895    1.0000 </r>
       <r>   -8.1515    1.0000 </r>
       <r>   -6.7500    1.0000 </r>
       <r>   -5.9176    1.0000 </r>
       <r>   -5.7254    1.0000 </r>
       <r>   -5.5821    1.0000 </r>
       <r>   -5.4165    1.0000 </r>
       <r>   -5.3036    1.0000 </r>
       <r>   -5.1259    1.0000 </r>
       <r>   -5.0908    1.0000 </r>
       <r>    2.6830    0.0000 </r>
       <r>    5.2106    0.0000 </r>
       <r>    7.7919    0.0000 </r>
       <r>    8.6940    0.0000 </r>
       <r>    9.0666    0.0000 </r>
       <r>   10.3678    0.0000 </r>
       <r>   11.0676    0.0000 </r>
       <r>   12.7397    0.0000 </r>
      </set>
      <set comment="kpoint 39">
       <r>  -26.3504    1.0000 </r>
       <r>  -26.1824    1.0000 </r>
       <r>  -25.7273    1.0000 </r>
       <r>  -25.6615    1.0000 </r>
       <r>  -10.5084    1.0000 </r>
       <r>  -10.4233    1.0000 </r>
       <r>   -8.3510    1.0000 </r>
       <r>   -8.3073    1.0000 </r>
       <r>   -6.6434    1.0000 </r>
       <r>   -6.0966    1.0000 </r>
       <r>   -5.8900    1.0000 </r>
       <r>   -5.5887    1.0000 </r>
       <r>   -5.5037    1.0000 </r>
       <r>   -5.3619    1.0000 </r>
       <r>   -5.3017    1.0000 </r>
       <r>   -5.2883    1.0000 </r>
       <r>    3.2314    0.0000 </r>
       <r>    5.6421    0.0000 </r>
       <r>    7.9760    0.0000 </r>
       <r>    8.6095    0.0000 </r>
       <r>    9.1790    0.0000 </r>
       <r>   10.5823    0.0000 </r>
       <r>   11.2397    0.0000 </r>
       <r>   12.6666    0.0000 </r>
      </set>
      <set comment="kpoint 40">
       <r>  -26.2557    1.0000 </r>
       <r>  -26.1008    1.0000 </r>
       <r>  -25.7671    1.0000 </r>
       <r>  -25.6938    1.0000 </r>
       <r>  -10.2851    1.0000 </r>
       <r>  -10.1974    1.0000 </r>
       <r>   -8.6077    1.0000 </r>
       <r>   -8.5512    1.0000 </r>
       <r>   -6.4845    1.0000 </r>
       <r>   -6.3054    1.0000 </r>
       <r>   -6.0838    1.0000 </r>
       <r>   -5.8274    1.0000 </r>
       <r>   -5.6636    1.0000 </r>
       <r>   -5.6260    1.0000 </r>
       <r>   -5.3062    1.0000 </r>
       <r>   -5.2938    1.0000 </r>
       <r>    4.0199    0.0000 </r>
       <r>    6.2478    0.0000 </r>
       <r>    8.0603    0.0000 </r>
       <r>    8.4046    0.0000 </r>
       <r>    9.3774    0.0000 </r>
       <r>   10.8232    0.0000 </r>
       <r>   11.4952    0.0000 </r>
       <r>   12.4255    0.0000 </r>
      </set>
      <set comment="kpoint 41">
       <r>  -26.1421    1.0000 </r>
       <r>  -26.0038    1.0000 </r>
       <r>  -25.8302    1.0000 </r>
       <r>  -25.7445    1.0000 </r>
       <r>   -9.9949    1.0000 </r>
       <r>   -9.9049    1.0000 </r>
       <r>   -8.9337    1.0000 </r>
       <r>   -8.8616    1.0000 </r>
       <r>   -6.4604    1.0000 </r>
       <r>   -6.3114    1.0000 </r>
       <r>   -6.2330    1.0000 </r>
       <r>   -6.1581    1.0000 </r>
       <r>   -5.9253    1.0000 </r>
       <r>   -5.7110    1.0000 </r>
       <r>   -5.2853    1.0000 </r>
       <r>   -5.2798    1.0000 </r>
       <r>    4.9445    0.0000 </r>
       <r>    6.9180    0.0000 </r>
       <r>    7.6322    0.0000 </r>
       <r>    8.2870    0.0000 </r>
       <r>    9.6758    0.0000 </r>
       <r>   10.9817    0.0000 </r>
       <r>   11.4340    0.0000 </r>
       <r>   12.0274    0.0000 </r>
      </set>
      <set comment="kpoint 42">
       <r>  -26.0247    1.0000 </r>
       <r>  -25.9175    1.0000 </r>
       <r>  -25.9048    1.0000 </r>
       <r>  -25.8157    1.0000 </r>
       <r>   -9.6571    1.0000 </r>
       <r>   -9.5675    1.0000 </r>
       <r>   -9.2944    1.0000 </r>
       <r>   -9.2103    1.0000 </r>
       <r>   -6.5004    1.0000 </r>
       <r>   -6.3984    1.0000 </r>
       <r>   -6.2866    1.0000 </r>
       <r>   -6.2481    1.0000 </r>
       <r>   -5.9823    1.0000 </r>
       <r>   -5.8427    1.0000 </r>
       <r>   -5.2700    1.0000 </r>
       <r>   -5.2688    1.0000 </r>
       <r>    5.9181    0.0000 </r>
       <r>    6.8515    0.0000 </r>
       <r>    7.5493    0.0000 </r>
       <r>    8.0338    0.0000 </r>
       <r>   10.0977    0.0000 </r>
       <r>   10.6651    0.0000 </r>
       <r>   11.3147    0.0000 </r>
       <r>   11.6180    0.0000 </r>
      </set>
      <set comment="kpoint 43">
       <r>  -26.3568    1.0000 </r>
       <r>  -26.1861    1.0000 </r>
       <r>  -25.7969    1.0000 </r>
       <r>  -25.7116    1.0000 </r>
       <r>  -10.4414    1.0000 </r>
       <r>  -10.3534    1.0000 </r>
       <r>   -8.5016    1.0000 </r>
       <r>   -8.4426    1.0000 </r>
       <r>   -6.6722    1.0000 </r>
       <r>   -5.7905    1.0000 </r>
       <r>   -5.7591    1.0000 </r>
       <r>   -5.5822    1.0000 </r>
       <r>   -5.3791    1.0000 </r>
       <r>   -5.2574    1.0000 </r>
       <r>   -5.1395    1.0000 </r>
       <r>   -5.0612    1.0000 </r>
       <r>    3.0734    0.0000 </r>
       <r>    5.6083    0.0000 </r>
       <r>    7.0187    0.0000 </r>
       <r>    8.5309    0.0000 </r>
       <r>    9.1321    0.0000 </r>
       <r>   10.2319    0.0000 </r>
       <r>   10.7164    0.0000 </r>
       <r>   12.6954    0.0000 </r>
      </set>
      <set comment="kpoint 44">
       <r>  -26.3374    1.0000 </r>
       <r>  -26.1696    1.0000 </r>
       <r>  -25.7989    1.0000 </r>
       <r>  -25.7141    1.0000 </r>
       <r>  -10.4095    1.0000 </r>
       <r>  -10.3191    1.0000 </r>
       <r>   -8.5539    1.0000 </r>
       <r>   -8.4897    1.0000 </r>
       <r>   -6.6375    1.0000 </r>
       <r>   -5.8294    1.0000 </r>
       <r>   -5.7743    1.0000 </r>
       <r>   -5.6393    1.0000 </r>
       <r>   -5.3814    1.0000 </r>
       <r>   -5.2588    1.0000 </r>
       <r>   -5.2104    1.0000 </r>
       <r>   -5.1391    1.0000 </r>
       <r>    3.2426    0.0000 </r>
       <r>    5.7334    0.0000 </r>
       <r>    7.1123    0.0000 </r>
       <r>    8.5415    0.0000 </r>
       <r>    9.1655    0.0000 </r>
       <r>   10.2774    0.0000 </r>
       <r>   10.7000    0.0000 </r>
       <r>   12.6320    0.0000 </r>
      </set>
      <set comment="kpoint 45">
       <r>  -26.2824    1.0000 </r>
       <r>  -26.1226    1.0000 </r>
       <r>  -25.8074    1.0000 </r>
       <r>  -25.7225    1.0000 </r>
       <r>  -10.3171    1.0000 </r>
       <r>  -10.2193    1.0000 </r>
       <r>   -8.7050    1.0000 </r>
       <r>   -8.6256    1.0000 </r>
       <r>   -6.5390    1.0000 </r>
       <r>   -5.9802    1.0000 </r>
       <r>   -5.8024    1.0000 </r>
       <r>   -5.7417    1.0000 </r>
       <r>   -5.4595    1.0000 </r>
       <r>   -5.3835    1.0000 </r>
       <r>   -5.2795    1.0000 </r>
       <r>   -5.2646    1.0000 </r>
       <r>    3.7123    0.0000 </r>
       <r>    6.0750    0.0000 </r>
       <r>    7.3403    0.0000 </r>
       <r>    8.5228    0.0000 </r>
       <r>    9.2678    0.0000 </r>
       <r>   10.4217    0.0000 </r>
       <r>   10.6259    0.0000 </r>
       <r>   12.4001    0.0000 </r>
      </set>
      <set comment="kpoint 46">
       <r>  -26.2008    1.0000 </r>
       <r>  -26.0533    1.0000 </r>
       <r>  -25.8279    1.0000 </r>
       <r>  -25.7412    1.0000 </r>
       <r>  -10.1717    1.0000 </r>
       <r>  -10.0622    1.0000 </r>
       <r>   -8.9348    1.0000 </r>
       <r>   -8.8339    1.0000 </r>
       <r>   -6.3935    1.0000 </r>
       <r>   -6.1528    1.0000 </r>
       <r>   -5.9630    1.0000 </r>
       <r>   -5.7412    1.0000 </r>
       <r>   -5.7103    1.0000 </r>
       <r>   -5.6139    1.0000 </r>
       <r>   -5.2937    1.0000 </r>
       <r>   -5.2737    1.0000 </r>
       <r>    4.3972    0.0000 </r>
       <r>    6.5538    0.0000 </r>
       <r>    7.5371    0.0000 </r>
       <r>    8.4017    0.0000 </r>
       <r>    9.4453    0.0000 </r>
       <r>   10.4647    0.0000 </r>
       <r>   10.6680    0.0000 </r>
       <r>   11.9653    0.0000 </r>
      </set>
      <set comment="kpoint 47">
       <r>  -26.1052    1.0000 </r>
       <r>  -25.9729    1.0000 </r>
       <r>  -25.8665    1.0000 </r>
       <r>  -25.7744    1.0000 </r>
       <r>   -9.9816    1.0000 </r>
       <r>   -9.8590    1.0000 </r>
       <r>   -9.2092    1.0000 </r>
       <r>   -9.0882    1.0000 </r>
       <r>   -6.2705    1.0000 </r>
       <r>   -6.2327    1.0000 </r>
       <r>   -6.0876    1.0000 </r>
       <r>   -5.9730    1.0000 </r>
       <r>   -5.8250    1.0000 </r>
       <r>   -5.7681    1.0000 </r>
       <r>   -5.2818    1.0000 </r>
       <r>   -5.2791    1.0000 </r>
       <r>    5.2072    0.0000 </r>
       <r>    7.0837    0.0000 </r>
       <r>    7.4080    0.0000 </r>
       <r>    8.2267    0.0000 </r>
       <r>    9.7080    0.0000 </r>
       <r>   10.3613    0.0000 </r>
       <r>   10.8282    0.0000 </r>
       <r>   11.4298    0.0000 </r>
      </set>
      <set comment="kpoint 48">
       <r>  -26.0103    1.0000 </r>
       <r>  -25.9280    1.0000 </r>
       <r>  -25.8937    1.0000 </r>
       <r>  -25.8256    1.0000 </r>
       <r>   -9.7528    1.0000 </r>
       <r>   -9.6209    1.0000 </r>
       <r>   -9.4909    1.0000 </r>
       <r>   -9.3588    1.0000 </r>
       <r>   -6.2849    1.0000 </r>
       <r>   -6.1885    1.0000 </r>
       <r>   -6.1301    1.0000 </r>
       <r>   -6.1168    1.0000 </r>
       <r>   -5.9190    1.0000 </r>
       <r>   -5.8437    1.0000 </r>
       <r>   -5.2773    1.0000 </r>
       <r>   -5.2757    1.0000 </r>
       <r>    6.0562    0.0000 </r>
       <r>    6.8437    0.0000 </r>
       <r>    7.5879    0.0000 </r>
       <r>    7.9864    0.0000 </r>
       <r>   10.0599    0.0000 </r>
       <r>   10.3645    0.0000 </r>
       <r>   10.7182    0.0000 </r>
       <r>   10.9468    0.0000 </r>
      </set>
      <set comment="kpoint 49">
       <r>  -26.2361    1.0000 </r>
       <r>  -26.0801    1.0000 </r>
       <r>  -25.9343    1.0000 </r>
       <r>  -25.8226    1.0000 </r>
       <r>  -10.0430    1.0000 </r>
       <r>   -9.9513    1.0000 </r>
       <r>   -9.0038    1.0000 </r>
       <r>   -8.9252    1.0000 </r>
       <r>   -6.4940    1.0000 </r>
       <r>   -6.0281    1.0000 </r>
       <r>   -5.6252    1.0000 </r>
       <r>   -5.4648    1.0000 </r>
       <r>   -5.3313    1.0000 </r>
       <r>   -5.2915    1.0000 </r>
       <r>   -5.2551    1.0000 </r>
       <r>   -5.1815    1.0000 </r>
       <r>    3.9410    0.0000 </r>
       <r>    6.0435    0.0000 </r>
       <r>    6.3996    0.0000 </r>
       <r>    8.0333    0.0000 </r>
       <r>    9.3105    0.0000 </r>
       <r>    9.8715    0.0000 </r>
       <r>   11.1916    0.0000 </r>
       <r>   12.4250    0.0000 </r>
      </set>
      <set comment="kpoint 50">
       <r>  -26.2210    1.0000 </r>
       <r>  -26.0676    1.0000 </r>
       <r>  -25.9308    1.0000 </r>
       <r>  -25.8203    1.0000 </r>
       <r>  -10.0345    1.0000 </r>
       <r>   -9.9383    1.0000 </r>
       <r>   -9.0429    1.0000 </r>
       <r>   -8.9579    1.0000 </r>
       <r>   -6.4640    1.0000 </r>
       <r>   -6.0132    1.0000 </r>
       <r>   -5.6751    1.0000 </r>
       <r>   -5.5179    1.0000 </r>
       <r>   -5.3511    1.0000 </r>
       <r>   -5.3325    1.0000 </r>
       <r>   -5.2543    1.0000 </r>
       <r>   -5.2306    1.0000 </r>
       <r>    4.0783    0.0000 </r>
       <r>    6.1453    0.0000 </r>
       <r>    6.4872    0.0000 </r>
       <r>    8.0681    0.0000 </r>
       <r>    9.3391    0.0000 </r>
       <r>    9.8934    0.0000 </r>
       <r>   11.1074    0.0000 </r>
       <r>   12.2991    0.0000 </r>
      </set>
      <set comment="kpoint 51">
       <r>  -26.1787    1.0000 </r>
       <r>  -26.0325    1.0000 </r>
       <r>  -25.9225    1.0000 </r>
       <r>  -25.8151    1.0000 </r>
       <r>  -10.0101    1.0000 </r>
       <r>   -9.9009    1.0000 </r>
       <r>   -9.1548    1.0000 </r>
       <r>   -9.0517    1.0000 </r>
       <r>   -6.3798    1.0000 </r>
       <r>   -5.9790    1.0000 </r>
       <r>   -5.7939    1.0000 </r>
       <r>   -5.6479    1.0000 </r>
       <r>   -5.4829    1.0000 </r>
       <r>   -5.4345    1.0000 </r>
       <r>   -5.2807    1.0000 </r>
       <r>   -5.2568    1.0000 </r>
       <r>    4.4605    0.0000 </r>
       <r>    6.4112    0.0000 </r>
       <r>    6.7215    0.0000 </r>
       <r>    8.1329    0.0000 </r>
       <r>    9.4251    0.0000 </r>
       <r>    9.9649    0.0000 </r>
       <r>   10.8475    0.0000 </r>
       <r>   11.9233    0.0000 </r>
      </set>
      <set comment="kpoint 52">
       <r>  -26.1178    1.0000 </r>
       <r>  -25.9822    1.0000 </r>
       <r>  -25.9162    1.0000 </r>
       <r>  -25.8129    1.0000 </r>
       <r>   -9.9703    1.0000 </r>
       <r>   -9.8419    1.0000 </r>
       <r>   -9.3204    1.0000 </r>
       <r>   -9.1928    1.0000 </r>
       <r>   -6.2587    1.0000 </r>
       <r>   -5.9880    1.0000 </r>
       <r>   -5.8820    1.0000 </r>
       <r>   -5.7872    1.0000 </r>
       <r>   -5.6554    1.0000 </r>
       <r>   -5.6183    1.0000 </r>
       <r>   -5.2804    1.0000 </r>
       <r>   -5.2660    1.0000 </r>
       <r>    5.0155    0.0000 </r>
       <r>    6.7280    0.0000 </r>
       <r>    7.0366    0.0000 </r>
       <r>    8.1451    0.0000 </r>
       <r>    9.5712    0.0000 </r>
       <r>   10.0887    0.0000 </r>
       <r>   10.4652    0.0000 </r>
       <r>   11.3667    0.0000 </r>
      </set>
      <set comment="kpoint 53">
       <r>  -26.0502    1.0000 </r>
       <r>  -25.9268    1.0000 </r>
       <r>  -25.9212    1.0000 </r>
       <r>  -25.8195    1.0000 </r>
       <r>   -9.9096    1.0000 </r>
       <r>   -9.7613    1.0000 </r>
       <r>   -9.5074    1.0000 </r>
       <r>   -9.3574    1.0000 </r>
       <r>   -6.1308    1.0000 </r>
       <r>   -6.0582    1.0000 </r>
       <r>   -5.9371    1.0000 </r>
       <r>   -5.8308    1.0000 </r>
       <r>   -5.8307    1.0000 </r>
       <r>   -5.7725    1.0000 </r>
       <r>   -5.2784    1.0000 </r>
       <r>   -5.2782    1.0000 </r>
       <r>    5.6560    0.0000 </r>
       <r>    6.9118    0.0000 </r>
       <r>    7.3672    0.0000 </r>
       <r>    8.0616    0.0000 </r>
       <r>    9.7822    0.0000 </r>
       <r>   10.0278    0.0000 </r>
       <r>   10.3360    0.0000 </r>
       <r>   10.7800    0.0000 </r>
      </set>
      <set comment="kpoint 54">
       <r>  -25.9894    1.0000 </r>
       <r>  -25.9448    1.0000 </r>
       <r>  -25.8772    1.0000 </r>
       <r>  -25.8404    1.0000 </r>
       <r>   -9.8163    1.0000 </r>
       <r>   -9.6807    1.0000 </r>
       <r>   -9.6547    1.0000 </r>
       <r>   -9.5181    1.0000 </r>
       <r>   -6.0710    1.0000 </r>
       <r>   -6.0517    1.0000 </r>
       <r>   -5.9814    1.0000 </r>
       <r>   -5.9590    1.0000 </r>
       <r>   -5.8480    1.0000 </r>
       <r>   -5.8399    1.0000 </r>
       <r>   -5.2844    1.0000 </r>
       <r>   -5.2818    1.0000 </r>
       <r>    6.2841    0.0000 </r>
       <r>    6.7610    0.0000 </r>
       <r>    7.6663    0.0000 </r>
       <r>    7.9016    0.0000 </r>
       <r>    9.9387    0.0000 </r>
       <r>    9.9980    0.0000 </r>
       <r>   10.3508    0.0000 </r>
       <r>   10.3677    0.0000 </r>
      </set>
      <set comment="kpoint 55">
       <r>  -26.0885    1.0000 </r>
       <r>  -26.0885    1.0000 </r>
       <r>  -25.9525    1.0000 </r>
       <r>  -25.9525    1.0000 </r>
       <r>   -9.5440    1.0000 </r>
       <r>   -9.5440    1.0000 </r>
       <r>   -9.4544    1.0000 </r>
       <r>   -9.4544    1.0000 </r>
       <r>   -6.2714    1.0000 </r>
       <r>   -6.2714    1.0000 </r>
       <r>   -5.4618    1.0000 </r>
       <r>   -5.4618    1.0000 </r>
       <r>   -5.3240    1.0000 </r>
       <r>   -5.3240    1.0000 </r>
       <r>   -5.2849    1.0000 </r>
       <r>   -5.2849    1.0000 </r>
       <r>    4.9704    0.0000 </r>
       <r>    4.9704    0.0000 </r>
       <r>    7.2662    0.0000 </r>
       <r>    7.2662    0.0000 </r>
       <r>    9.5637    0.0000 </r>
       <r>    9.5637    0.0000 </r>
       <r>   11.8593    0.0000 </r>
       <r>   11.8593    0.0000 </r>
      </set>
      <set comment="kpoint 56">
       <r>  -26.0788    1.0000 </r>
       <r>  -26.0788    1.0000 </r>
       <r>  -25.9449    1.0000 </r>
       <r>  -25.9449    1.0000 </r>
       <r>   -9.5611    1.0000 </r>
       <r>   -9.5611    1.0000 </r>
       <r>   -9.4656    1.0000 </r>
       <r>   -9.4656    1.0000 </r>
       <r>   -6.2480    1.0000 </r>
       <r>   -6.2480    1.0000 </r>
       <r>   -5.5078    1.0000 </r>
       <r>   -5.5078    1.0000 </r>
       <r>   -5.3829    1.0000 </r>
       <r>   -5.3829    1.0000 </r>
       <r>   -5.2754    1.0000 </r>
       <r>   -5.2754    1.0000 </r>
       <r>    5.0850    0.0000 </r>
       <r>    5.0850    0.0000 </r>
       <r>    7.3234    0.0000 </r>
       <r>    7.3234    0.0000 </r>
       <r>    9.5861    0.0000 </r>
       <r>    9.5861    0.0000 </r>
       <r>   11.7258    0.0000 </r>
       <r>   11.7258    0.0000 </r>
      </set>
      <set comment="kpoint 57">
       <r>  -26.0529    1.0000 </r>
       <r>  -26.0529    1.0000 </r>
       <r>  -25.9245    1.0000 </r>
       <r>  -25.9245    1.0000 </r>
       <r>   -9.6100    1.0000 </r>
       <r>   -9.6100    1.0000 </r>
       <r>   -9.4976    1.0000 </r>
       <r>   -9.4976    1.0000 </r>
       <r>   -6.1842    1.0000 </r>
       <r>   -6.1842    1.0000 </r>
       <r>   -5.6214    1.0000 </r>
       <r>   -5.6214    1.0000 </r>
       <r>   -5.5158    1.0000 </r>
       <r>   -5.5158    1.0000 </r>
       <r>   -5.2696    1.0000 </r>
       <r>   -5.2696    1.0000 </r>
       <r>    5.3975    0.0000 </r>
       <r>    5.3975    0.0000 </r>
       <r>    7.4644    0.0000 </r>
       <r>    7.4644    0.0000 </r>
       <r>    9.6536    0.0000 </r>
       <r>    9.6536    0.0000 </r>
       <r>   11.3448    0.0000 </r>
       <r>   11.3448    0.0000 </r>
      </set>
      <set comment="kpoint 58">
       <r>  -26.0181    1.0000 </r>
       <r>  -26.0181    1.0000 </r>
       <r>  -25.8977    1.0000 </r>
       <r>  -25.8977    1.0000 </r>
       <r>   -9.6806    1.0000 </r>
       <r>   -9.6806    1.0000 </r>
       <r>   -9.5446    1.0000 </r>
       <r>   -9.5446    1.0000 </r>
       <r>   -6.0996    1.0000 </r>
       <r>   -6.0996    1.0000 </r>
       <r>   -5.7475    1.0000 </r>
       <r>   -5.7475    1.0000 </r>
       <r>   -5.6714    1.0000 </r>
       <r>   -5.6714    1.0000 </r>
       <r>   -5.2702    1.0000 </r>
       <r>   -5.2702    1.0000 </r>
       <r>    5.8272    0.0000 </r>
       <r>    5.8272    0.0000 </r>
       <r>    7.6204    0.0000 </r>
       <r>    7.6204    0.0000 </r>
       <r>    9.7709    0.0000 </r>
       <r>    9.7709    0.0000 </r>
       <r>   10.8088    0.0000 </r>
       <r>   10.8088    0.0000 </r>
      </set>
      <set comment="kpoint 59">
       <r>  -25.9857    1.0000 </r>
       <r>  -25.9857    1.0000 </r>
       <r>  -25.8730    1.0000 </r>
       <r>  -25.8730    1.0000 </r>
       <r>   -9.7518    1.0000 </r>
       <r>   -9.7518    1.0000 </r>
       <r>   -9.5933    1.0000 </r>
       <r>   -9.5933    1.0000 </r>
       <r>   -6.0296    1.0000 </r>
       <r>   -6.0296    1.0000 </r>
       <r>   -5.8336    1.0000 </r>
       <r>   -5.8336    1.0000 </r>
       <r>   -5.7983    1.0000 </r>
       <r>   -5.7983    1.0000 </r>
       <r>   -5.2774    1.0000 </r>
       <r>   -5.2774    1.0000 </r>
       <r>    6.2617    0.0000 </r>
       <r>    6.2617    0.0000 </r>
       <r>    7.7323    0.0000 </r>
       <r>    7.7323    0.0000 </r>
       <r>    9.9178    0.0000 </r>
       <r>    9.9178    0.0000 </r>
       <r>   10.3042    0.0000 </r>
       <r>   10.3042    0.0000 </r>
      </set>
      <set comment="kpoint 60">
       <r>  -25.9662    1.0000 </r>
       <r>  -25.9662    1.0000 </r>
       <r>  -25.8584    1.0000 </r>
       <r>  -25.8584    1.0000 </r>
       <r>   -9.7970    1.0000 </r>
       <r>   -9.7970    1.0000 </r>
       <r>   -9.6247    1.0000 </r>
       <r>   -9.6247    1.0000 </r>
       <r>   -6.0067    1.0000 </r>
       <r>   -6.0067    1.0000 </r>
       <r>   -5.8864    1.0000 </r>
       <r>   -5.8864    1.0000 </r>
       <r>   -5.8361    1.0000 </r>
       <r>   -5.8361    1.0000 </r>
       <r>   -5.2855    1.0000 </r>
       <r>   -5.2855    1.0000 </r>
       <r>    6.5541    0.0000 </r>
       <r>    6.5541    0.0000 </r>
       <r>    7.7824    0.0000 </r>
       <r>    7.7824    0.0000 </r>
       <r>    9.8392    0.0000 </r>
       <r>    9.8392    0.0000 </r>
       <r>   10.2079    0.0000 </r>
       <r>   10.2079    0.0000 </r>
      </set>
      <set comment="kpoint 61">
       <r>  -26.4248    1.0000 </r>
       <r>  -26.3194    1.0000 </r>
       <r>  -25.6532    1.0000 </r>
       <r>  -25.6251    1.0000 </r>
       <r>  -10.7752    1.0000 </r>
       <r>  -10.7288    1.0000 </r>
       <r>   -7.9912    1.0000 </r>
       <r>   -7.9774    1.0000 </r>
       <r>   -6.5667    1.0000 </r>
       <r>   -5.8374    1.0000 </r>
       <r>   -5.7667    1.0000 </r>
       <r>   -5.7275    1.0000 </r>
       <r>   -5.4231    1.0000 </r>
       <r>   -5.3739    1.0000 </r>
       <r>   -4.9815    1.0000 </r>
       <r>   -4.9670    1.0000 </r>
       <r>    2.7852    0.0000 </r>
       <r>    4.2311    0.0000 </r>
       <r>    8.0840    0.0000 </r>
       <r>    8.5404    0.0000 </r>
       <r>    9.7284    0.0000 </r>
       <r>   10.3296    0.0000 </r>
       <r>   11.0108    0.0000 </r>
       <r>   11.7847    0.0000 </r>
      </set>
      <set comment="kpoint 62">
       <r>  -26.4024    1.0000 </r>
       <r>  -26.2988    1.0000 </r>
       <r>  -25.6611    1.0000 </r>
       <r>  -25.6317    1.0000 </r>
       <r>  -10.7211    1.0000 </r>
       <r>  -10.6748    1.0000 </r>
       <r>   -8.0444    1.0000 </r>
       <r>   -8.0325    1.0000 </r>
       <r>   -6.5368    1.0000 </r>
       <r>   -5.9126    1.0000 </r>
       <r>   -5.7996    1.0000 </r>
       <r>   -5.7634    1.0000 </r>
       <r>   -5.4267    1.0000 </r>
       <r>   -5.3666    1.0000 </r>
       <r>   -5.0868    1.0000 </r>
       <r>   -5.0773    1.0000 </r>
       <r>    2.9833    0.0000 </r>
       <r>    4.4046    0.0000 </r>
       <r>    8.1541    0.0000 </r>
       <r>    8.5699    0.0000 </r>
       <r>    9.7632    0.0000 </r>
       <r>   10.4273    0.0000 </r>
       <r>   11.1087    0.0000 </r>
       <r>   11.8044    0.0000 </r>
      </set>
      <set comment="kpoint 63">
       <r>  -26.3387    1.0000 </r>
       <r>  -26.2401    1.0000 </r>
       <r>  -25.6860    1.0000 </r>
       <r>  -25.6528    1.0000 </r>
       <r>  -10.5624    1.0000 </r>
       <r>  -10.5166    1.0000 </r>
       <r>   -8.2017    1.0000 </r>
       <r>   -8.1960    1.0000 </r>
       <r>   -6.4543    1.0000 </r>
       <r>   -6.1021    1.0000 </r>
       <r>   -5.9805    1.0000 </r>
       <r>   -5.7873    1.0000 </r>
       <r>   -5.4462    1.0000 </r>
       <r>   -5.3537    1.0000 </r>
       <r>   -5.3515    1.0000 </r>
       <r>   -5.3223    1.0000 </r>
       <r>    3.5257    0.0000 </r>
       <r>    4.8803    0.0000 </r>
       <r>    8.3026    0.0000 </r>
       <r>    8.5671    0.0000 </r>
       <r>    9.8639    0.0000 </r>
       <r>   10.7422    0.0000 </r>
       <r>   11.4132    0.0000 </r>
       <r>   11.8370    0.0000 </r>
      </set>
      <set comment="kpoint 64">
       <r>  -26.2421    1.0000 </r>
       <r>  -26.1512    1.0000 </r>
       <r>  -25.7309    1.0000 </r>
       <r>  -25.6918    1.0000 </r>
       <r>  -10.3096    1.0000 </r>
       <r>  -10.2649    1.0000 </r>
       <r>   -8.4588    1.0000 </r>
       <r>   -8.4544    1.0000 </r>
       <r>   -6.3490    1.0000 </r>
       <r>   -6.3262    1.0000 </r>
       <r>   -6.1950    1.0000 </r>
       <r>   -5.9728    1.0000 </r>
       <r>   -5.6635    1.0000 </r>
       <r>   -5.4923    1.0000 </r>
       <r>   -5.4578    1.0000 </r>
       <r>   -5.3394    1.0000 </r>
       <r>    4.3047    0.0000 </r>
       <r>    5.5589    0.0000 </r>
       <r>    8.3650    0.0000 </r>
       <r>    8.3842    0.0000 </r>
       <r>   10.0203    0.0000 </r>
       <r>   11.2183    0.0000 </r>
       <r>   11.8198    0.0000 </r>
       <r>   11.8657    0.0000 </r>
      </set>
      <set comment="kpoint 65">
       <r>  -26.1260    1.0000 </r>
       <r>  -26.0448    1.0000 </r>
       <r>  -25.8000    1.0000 </r>
       <r>  -25.7517    1.0000 </r>
       <r>   -9.9802    1.0000 </r>
       <r>   -9.9383    1.0000 </r>
       <r>   -8.8015    1.0000 </r>
       <r>   -8.7849    1.0000 </r>
       <r>   -6.5009    1.0000 </r>
       <r>   -6.3658    1.0000 </r>
       <r>   -6.3105    1.0000 </r>
       <r>   -6.2643    1.0000 </r>
       <r>   -5.8465    1.0000 </r>
       <r>   -5.5708    1.0000 </r>
       <r>   -5.4422    1.0000 </r>
       <r>   -5.3394    1.0000 </r>
       <r>    5.2173    0.0000 </r>
       <r>    6.3376    0.0000 </r>
       <r>    7.8671    0.0000 </r>
       <r>    8.2475    0.0000 </r>
       <r>   10.2206    0.0000 </r>
       <r>   11.4919    0.0000 </r>
       <r>   11.5047    0.0000 </r>
       <r>   11.7132    0.0000 </r>
      </set>
      <set comment="kpoint 66">
       <r>  -26.0048    1.0000 </r>
       <r>  -25.9350    1.0000 </r>
       <r>  -25.8929    1.0000 </r>
       <r>  -25.8340    1.0000 </r>
       <r>   -9.5979    1.0000 </r>
       <r>   -9.5615    1.0000 </r>
       <r>   -9.1933    1.0000 </r>
       <r>   -9.1654    1.0000 </r>
       <r>   -6.5631    1.0000 </r>
       <r>   -6.4820    1.0000 </r>
       <r>   -6.4372    1.0000 </r>
       <r>   -6.3945    1.0000 </r>
       <r>   -5.8015    1.0000 </r>
       <r>   -5.6808    1.0000 </r>
       <r>   -5.3960    1.0000 </r>
       <r>   -5.3581    1.0000 </r>
       <r>    6.1787    0.0000 </r>
       <r>    7.1003    0.0000 </r>
       <r>    7.1247    0.0000 </r>
       <r>    7.8085    0.0000 </r>
       <r>   10.4764    0.0000 </r>
       <r>   10.8679    0.0000 </r>
       <r>   11.5034    0.0000 </r>
       <r>   11.5744    0.0000 </r>
      </set>
      <set comment="kpoint 67">
       <r>  -26.3981    1.0000 </r>
       <r>  -26.2945    1.0000 </r>
       <r>  -25.6869    1.0000 </r>
       <r>  -25.6517    1.0000 </r>
       <r>  -10.6866    1.0000 </r>
       <r>  -10.6390    1.0000 </r>
       <r>   -8.1288    1.0000 </r>
       <r>   -8.1069    1.0000 </r>
       <r>   -6.5270    1.0000 </r>
       <r>   -5.8077    1.0000 </r>
       <r>   -5.7420    1.0000 </r>
       <r>   -5.6998    1.0000 </r>
       <r>   -5.5088    1.0000 </r>
       <r>   -5.3467    1.0000 </r>
       <r>   -5.0205    1.0000 </r>
       <r>   -4.9942    1.0000 </r>
       <r>    2.9873    0.0000 </r>
       <r>    4.4252    0.0000 </r>
       <r>    7.8820    0.0000 </r>
       <r>    8.4715    0.0000 </r>
       <r>    9.7622    0.0000 </r>
       <r>   10.3034    0.0000 </r>
       <r>   10.7854    0.0000 </r>
       <r>   11.8023    0.0000 </r>
      </set>
      <set comment="kpoint 68">
       <r>  -26.3767    1.0000 </r>
       <r>  -26.2749    1.0000 </r>
       <r>  -25.6930    1.0000 </r>
       <r>  -25.6574    1.0000 </r>
       <r>  -10.6382    1.0000 </r>
       <r>  -10.5902    1.0000 </r>
       <r>   -8.1832    1.0000 </r>
       <r>   -8.1607    1.0000 </r>
       <r>   -6.4976    1.0000 </r>
       <r>   -5.8804    1.0000 </r>
       <r>   -5.7699    1.0000 </r>
       <r>   -5.7380    1.0000 </r>
       <r>   -5.5039    1.0000 </r>
       <r>   -5.3439    1.0000 </r>
       <r>   -5.1150    1.0000 </r>
       <r>   -5.0920    1.0000 </r>
       <r>    3.1729    0.0000 </r>
       <r>    4.5864    0.0000 </r>
       <r>    7.9618    0.0000 </r>
       <r>    8.5080    0.0000 </r>
       <r>    9.7936    0.0000 </r>
       <r>   10.3694    0.0000 </r>
       <r>   10.8305    0.0000 </r>
       <r>   11.8103    0.0000 </r>
      </set>
      <set comment="kpoint 69">
       <r>  -26.3155    1.0000 </r>
       <r>  -26.2187    1.0000 </r>
       <r>  -25.7132    1.0000 </r>
       <r>  -25.6754    1.0000 </r>
       <r>  -10.4966    1.0000 </r>
       <r>  -10.4475    1.0000 </r>
       <r>   -8.3436    1.0000 </r>
       <r>   -8.3178    1.0000 </r>
       <r>   -6.4163    1.0000 </r>
       <r>   -6.0612    1.0000 </r>
       <r>   -5.9435    1.0000 </r>
       <r>   -5.7552    1.0000 </r>
       <r>   -5.5039    1.0000 </r>
       <r>   -5.3528    1.0000 </r>
       <r>   -5.3400    1.0000 </r>
       <r>   -5.3154    1.0000 </r>
       <r>    3.6847    0.0000 </r>
       <r>    5.0303    0.0000 </r>
       <r>    8.1366    0.0000 </r>
       <r>    8.5337    0.0000 </r>
       <r>    9.8835    0.0000 </r>
       <r>   10.5762    0.0000 </r>
       <r>   10.9591    0.0000 </r>
       <r>   11.8068    0.0000 </r>
      </set>
      <set comment="kpoint 70">
       <r>  -26.2234    1.0000 </r>
       <r>  -26.1339    1.0000 </r>
       <r>  -25.7517    1.0000 </r>
       <r>  -25.7093    1.0000 </r>
       <r>  -10.2720    1.0000 </r>
       <r>  -10.2214    1.0000 </r>
       <r>   -8.5977    1.0000 </r>
       <r>   -8.5646    1.0000 </r>
       <r>   -6.3099    1.0000 </r>
       <r>   -6.2713    1.0000 </r>
       <r>   -6.1466    1.0000 </r>
       <r>   -5.9137    1.0000 </r>
       <r>   -5.6349    1.0000 </r>
       <r>   -5.5275    1.0000 </r>
       <r>   -5.4468    1.0000 </r>
       <r>   -5.3387    1.0000 </r>
       <r>    4.4249    0.0000 </r>
       <r>    5.6667    0.0000 </r>
       <r>    8.2090    0.0000 </r>
       <r>    8.4168    0.0000 </r>
       <r>   10.0201    0.0000 </r>
       <r>   10.8344    0.0000 </r>
       <r>   11.1524    0.0000 </r>
       <r>   11.7283    0.0000 </r>
      </set>
      <set comment="kpoint 71">
       <r>  -26.1134    1.0000 </r>
       <r>  -26.0334    1.0000 </r>
       <r>  -25.8124    1.0000 </r>
       <r>  -25.7628    1.0000 </r>
       <r>   -9.9806    1.0000 </r>
       <r>   -9.9284    1.0000 </r>
       <r>   -8.9208    1.0000 </r>
       <r>   -8.8787    1.0000 </r>
       <r>   -6.4296    1.0000 </r>
       <r>   -6.3042    1.0000 </r>
       <r>   -6.2559    1.0000 </r>
       <r>   -6.1792    1.0000 </r>
       <r>   -5.8164    1.0000 </r>
       <r>   -5.5869    1.0000 </r>
       <r>   -5.4359    1.0000 </r>
       <r>   -5.3435    1.0000 </r>
       <r>    5.2972    0.0000 </r>
       <r>    6.4016    0.0000 </r>
       <r>    7.8305    0.0000 </r>
       <r>    8.2275    0.0000 </r>
       <r>   10.1899    0.0000 </r>
       <r>   10.9037    0.0000 </r>
       <r>   11.2090    0.0000 </r>
       <r>   11.5473    0.0000 </r>
      </set>
      <set comment="kpoint 72">
       <r>  -25.9998    1.0000 </r>
       <r>  -25.9305    1.0000 </r>
       <r>  -25.8964    1.0000 </r>
       <r>  -25.8375    1.0000 </r>
       <r>   -9.6421    1.0000 </r>
       <r>   -9.5899    1.0000 </r>
       <r>   -9.2797    1.0000 </r>
       <r>   -9.2308    1.0000 </r>
       <r>   -6.4772    1.0000 </r>
       <r>   -6.3900    1.0000 </r>
       <r>   -6.3649    1.0000 </r>
       <r>   -6.3205    1.0000 </r>
       <r>   -5.7886    1.0000 </r>
       <r>   -5.6817    1.0000 </r>
       <r>   -5.3947    1.0000 </r>
       <r>   -5.3611    1.0000 </r>
       <r>    6.2199    0.0000 </r>
       <r>    7.1046    0.0000 </r>
       <r>    7.1498    0.0000 </r>
       <r>    7.8044    0.0000 </r>
       <r>   10.3978    0.0000 </r>
       <r>   10.6753    0.0000 </r>
       <r>   11.1840    0.0000 </r>
       <r>   11.3311    0.0000 </r>
      </set>
      <set comment="kpoint 73">
       <r>  -26.3213    1.0000 </r>
       <r>  -26.2229    1.0000 </r>
       <r>  -25.7791    1.0000 </r>
       <r>  -25.7297    1.0000 </r>
       <r>  -10.4299    1.0000 </r>
       <r>  -10.3793    1.0000 </r>
       <r>   -8.4946    1.0000 </r>
       <r>   -8.4603    1.0000 </r>
       <r>   -6.4174    1.0000 </r>
       <r>   -5.7223    1.0000 </r>
       <r>   -5.6768    1.0000 </r>
       <r>   -5.6645    1.0000 </r>
       <r>   -5.6201    1.0000 </r>
       <r>   -5.3566    1.0000 </r>
       <r>   -5.1230    1.0000 </r>
       <r>   -5.0778    1.0000 </r>
       <r>    3.5523    0.0000 </r>
       <r>    4.9649    0.0000 </r>
       <r>    7.2745    0.0000 </r>
       <r>    8.1436    0.0000 </r>
       <r>    9.8598    0.0000 </r>
       <r>   10.2692    0.0000 </r>
       <r>   10.6578    0.0000 </r>
       <r>   11.8193    0.0000 </r>
      </set>
      <set comment="kpoint 74">
       <r>  -26.3025    1.0000 </r>
       <r>  -26.2057    1.0000 </r>
       <r>  -25.7812    1.0000 </r>
       <r>  -25.7322    1.0000 </r>
       <r>  -10.3973    1.0000 </r>
       <r>  -10.3453    1.0000 </r>
       <r>   -8.5458    1.0000 </r>
       <r>   -8.5084    1.0000 </r>
       <r>   -6.3900    1.0000 </r>
       <r>   -5.7932    1.0000 </r>
       <r>   -5.6922    1.0000 </r>
       <r>   -5.6727    1.0000 </r>
       <r>   -5.6392    1.0000 </r>
       <r>   -5.3520    1.0000 </r>
       <r>   -5.1937    1.0000 </r>
       <r>   -5.1501    1.0000 </r>
       <r>    3.7091    0.0000 </r>
       <r>    5.0966    0.0000 </r>
       <r>    7.3659    0.0000 </r>
       <r>    8.1987    0.0000 </r>
       <r>    9.8809    0.0000 </r>
       <r>   10.2785    0.0000 </r>
       <r>   10.6301    0.0000 </r>
       <r>   11.7931    0.0000 </r>
      </set>
      <set comment="kpoint 75">
       <r>  -26.2492    1.0000 </r>
       <r>  -26.1571    1.0000 </r>
       <r>  -25.7895    1.0000 </r>
       <r>  -25.7405    1.0000 </r>
       <r>  -10.3029    1.0000 </r>
       <r>  -10.2465    1.0000 </r>
       <r>   -8.6932    1.0000 </r>
       <r>   -8.6472    1.0000 </r>
       <r>   -6.3145    1.0000 </r>
       <r>   -5.9514    1.0000 </r>
       <r>   -5.8439    1.0000 </r>
       <r>   -5.6830    1.0000 </r>
       <r>   -5.6225    1.0000 </r>
       <r>   -5.3732    1.0000 </r>
       <r>   -5.3468    1.0000 </r>
       <r>   -5.3170    1.0000 </r>
       <r>    4.1459    0.0000 </r>
       <r>    5.4615    0.0000 </r>
       <r>    7.5858    0.0000 </r>
       <r>    8.2998    0.0000 </r>
       <r>    9.9382    0.0000 </r>
       <r>   10.3189    0.0000 </r>
       <r>   10.5330    0.0000 </r>
       <r>   11.6875    0.0000 </r>
      </set>
      <set comment="kpoint 76">
       <r>  -26.1701    1.0000 </r>
       <r>  -26.0849    1.0000 </r>
       <r>  -25.8094    1.0000 </r>
       <r>  -25.7595    1.0000 </r>
       <r>  -10.1544    1.0000 </r>
       <r>  -10.0912    1.0000 </r>
       <r>   -8.9180    1.0000 </r>
       <r>   -8.8595    1.0000 </r>
       <r>   -6.2129    1.0000 </r>
       <r>   -6.1273    1.0000 </r>
       <r>   -6.0197    1.0000 </r>
       <r>   -5.7976    1.0000 </r>
       <r>   -5.6135    1.0000 </r>
       <r>   -5.5899    1.0000 </r>
       <r>   -5.4232    1.0000 </r>
       <r>   -5.3478    1.0000 </r>
       <r>    4.7855    0.0000 </r>
       <r>    5.9882    0.0000 </r>
       <r>    7.7693    0.0000 </r>
       <r>    8.3035    0.0000 </r>
       <r>   10.0170    0.0000 </r>
       <r>   10.3607    0.0000 </r>
       <r>   10.4193    0.0000 </r>
       <r>   11.4560    0.0000 </r>
      </set>
      <set comment="kpoint 77">
       <r>  -26.0778    1.0000 </r>
       <r>  -26.0012    1.0000 </r>
       <r>  -25.8472    1.0000 </r>
       <r>  -25.7940    1.0000 </r>
       <r>   -9.9609    1.0000 </r>
       <r>   -9.8900    1.0000 </r>
       <r>   -9.1880    1.0000 </r>
       <r>   -9.1177    1.0000 </r>
       <r>   -6.2500    1.0000 </r>
       <r>   -6.1499    1.0000 </r>
       <r>   -6.1408    1.0000 </r>
       <r>   -6.0043    1.0000 </r>
       <r>   -5.7481    1.0000 </r>
       <r>   -5.6311    1.0000 </r>
       <r>   -5.4193    1.0000 </r>
       <r>   -5.3548    1.0000 </r>
       <r>    5.5450    0.0000 </r>
       <r>    6.6011    0.0000 </r>
       <r>    7.6386    0.0000 </r>
       <r>    8.1397    0.0000 </r>
       <r>   10.1034    0.0000 </r>
       <r>   10.2463    0.0000 </r>
       <r>   10.5037    0.0000 </r>
       <r>   11.1195    0.0000 </r>
      </set>
      <set comment="kpoint 78">
       <r>  -25.9861    1.0000 </r>
       <r>  -25.9185    1.0000 </r>
       <r>  -25.9067    1.0000 </r>
       <r>  -25.8474    1.0000 </r>
       <r>   -9.7296    1.0000 </r>
       <r>   -9.6531    1.0000 </r>
       <r>   -9.4673    1.0000 </r>
       <r>   -9.3906    1.0000 </r>
       <r>   -6.2734    1.0000 </r>
       <r>   -6.1943    1.0000 </r>
       <r>   -6.1904    1.0000 </r>
       <r>   -6.1557    1.0000 </r>
       <r>   -5.7537    1.0000 </r>
       <r>   -5.6847    1.0000 </r>
       <r>   -5.3909    1.0000 </r>
       <r>   -5.3681    1.0000 </r>
       <r>    6.3472    0.0000 </r>
       <r>    7.0973    0.0000 </r>
       <r>    7.2296    0.0000 </r>
       <r>    7.7809    0.0000 </r>
       <r>   10.1890    0.0000 </r>
       <r>   10.2365    0.0000 </r>
       <r>   10.5672    0.0000 </r>
       <r>   10.7800    0.0000 </r>
      </set>
      <set comment="kpoint 79">
       <r>  -26.2035    1.0000 </r>
       <r>  -26.1135    1.0000 </r>
       <r>  -25.9109    1.0000 </r>
       <r>  -25.8465    1.0000 </r>
       <r>  -10.0312    1.0000 </r>
       <r>   -9.9785    1.0000 </r>
       <r>   -8.9945    1.0000 </r>
       <r>   -8.9495    1.0000 </r>
       <r>   -6.2558    1.0000 </r>
       <r>   -5.8563    1.0000 </r>
       <r>   -5.5917    1.0000 </r>
       <r>   -5.5883    1.0000 </r>
       <r>   -5.4991    1.0000 </r>
       <r>   -5.4105    1.0000 </r>
       <r>   -5.2685    1.0000 </r>
       <r>   -5.2050    1.0000 </r>
       <r>    4.3823    0.0000 </r>
       <r>    5.7431    0.0000 </r>
       <r>    6.3745    0.0000 </r>
       <r>    7.4796    0.0000 </r>
       <r>   10.0013    0.0000 </r>
       <r>   10.2138    0.0000 </r>
       <r>   10.9819    0.0000 </r>
       <r>   11.7303    0.0000 </r>
      </set>
      <set comment="kpoint 80">
       <r>  -26.1889    1.0000 </r>
       <r>  -26.1002    1.0000 </r>
       <r>  -25.9074    1.0000 </r>
       <r>  -25.8439    1.0000 </r>
       <r>  -10.0215    1.0000 </r>
       <r>   -9.9662    1.0000 </r>
       <r>   -9.0321    1.0000 </r>
       <r>   -8.9832    1.0000 </r>
       <r>   -6.2327    1.0000 </r>
       <r>   -5.8514    1.0000 </r>
       <r>   -5.6368    1.0000 </r>
       <r>   -5.5877    1.0000 </r>
       <r>   -5.5603    1.0000 </r>
       <r>   -5.3962    1.0000 </r>
       <r>   -5.3198    1.0000 </r>
       <r>   -5.2542    1.0000 </r>
       <r>    4.5096    0.0000 </r>
       <r>    5.8436    0.0000 </r>
       <r>    6.4709    0.0000 </r>
       <r>    7.5464    0.0000 </r>
       <r>   10.0058    0.0000 </r>
       <r>   10.1931    0.0000 </r>
       <r>   10.9055    0.0000 </r>
       <r>   11.6584    0.0000 </r>
      </set>
      <set comment="kpoint 81">
       <r>  -26.1481    1.0000 </r>
       <r>  -26.0637    1.0000 </r>
       <r>  -25.9000    1.0000 </r>
       <r>  -25.8382    1.0000 </r>
       <r>   -9.9939    1.0000 </r>
       <r>   -9.9311    1.0000 </r>
       <r>   -9.1396    1.0000 </r>
       <r>   -9.0802    1.0000 </r>
       <r>   -6.1699    1.0000 </r>
       <r>   -5.8682    1.0000 </r>
       <r>   -5.7328    1.0000 </r>
       <r>   -5.6794    1.0000 </r>
       <r>   -5.6094    1.0000 </r>
       <r>   -5.4492    1.0000 </r>
       <r>   -5.3806    1.0000 </r>
       <r>   -5.3585    1.0000 </r>
       <r>    4.8632    0.0000 </r>
       <r>    6.1189    0.0000 </r>
       <r>    6.7211    0.0000 </r>
       <r>    7.7062    0.0000 </r>
       <r>   10.0118    0.0000 </r>
       <r>   10.1332    0.0000 </r>
       <r>   10.6755    0.0000 </r>
       <r>   11.4285    0.0000 </r>
      </set>
      <set comment="kpoint 82">
       <r>  -26.0894    1.0000 </r>
       <r>  -26.0111    1.0000 </r>
       <r>  -25.8945    1.0000 </r>
       <r>  -25.8348    1.0000 </r>
       <r>   -9.9494    1.0000 </r>
       <r>   -9.8753    1.0000 </r>
       <r>   -9.2994    1.0000 </r>
       <r>   -9.2257    1.0000 </r>
       <r>   -6.0884    1.0000 </r>
       <r>   -5.9649    1.0000 </r>
       <r>   -5.8651    1.0000 </r>
       <r>   -5.7167    1.0000 </r>
       <r>   -5.7038    1.0000 </r>
       <r>   -5.6001    1.0000 </r>
       <r>   -5.4078    1.0000 </r>
       <r>   -5.3718    1.0000 </r>
       <r>    5.3765    0.0000 </r>
       <r>    6.5086    0.0000 </r>
       <r>    7.0150    0.0000 </r>
       <r>    7.8548    0.0000 </r>
       <r>   10.0067    0.0000 </r>
       <r>   10.0459    0.0000 </r>
       <r>   10.3428    0.0000 </r>
       <r>   11.0480    0.0000 </r>
      </set>
      <set comment="kpoint 83">
       <r>  -26.0248    1.0000 </r>
       <r>  -25.9533    1.0000 </r>
       <r>  -25.8999    1.0000 </r>
       <r>  -25.8411    1.0000 </r>
       <r>   -9.8839    1.0000 </r>
       <r>   -9.7982    1.0000 </r>
       <r>   -9.4813    1.0000 </r>
       <r>   -9.3944    1.0000 </r>
       <r>   -6.0534    1.0000 </r>
       <r>   -6.0315    1.0000 </r>
       <r>   -5.9763    1.0000 </r>
       <r>   -5.8690    1.0000 </r>
       <r>   -5.7041    1.0000 </r>
       <r>   -5.6863    1.0000 </r>
       <r>   -5.4002    1.0000 </r>
       <r>   -5.3704    1.0000 </r>
       <r>    5.9711    0.0000 </r>
       <r>    6.9468    0.0000 </r>
       <r>    7.1753    0.0000 </r>
       <r>    7.8727    0.0000 </r>
       <r>    9.9060    0.0000 </r>
       <r>    9.9848    0.0000 </r>
       <r>   10.1237    0.0000 </r>
       <r>   10.6051    0.0000 </r>
      </set>
      <set comment="kpoint 84">
       <r>  -25.9659    1.0000 </r>
       <r>  -25.9230    1.0000 </r>
       <r>  -25.9013    1.0000 </r>
       <r>  -25.8627    1.0000 </r>
       <r>   -9.7874    1.0000 </r>
       <r>   -9.6939    1.0000 </r>
       <r>   -9.6516    1.0000 </r>
       <r>   -9.5574    1.0000 </r>
       <r>   -6.0751    1.0000 </r>
       <r>   -6.0422    1.0000 </r>
       <r>   -6.0204    1.0000 </r>
       <r>   -5.9854    1.0000 </r>
       <r>   -5.7146    1.0000 </r>
       <r>   -5.6897    1.0000 </r>
       <r>   -5.3849    1.0000 </r>
       <r>   -5.3749    1.0000 </r>
       <r>    6.5597    0.0000 </r>
       <r>    7.0168    0.0000 </r>
       <r>    7.3705    0.0000 </r>
       <r>    7.7041    0.0000 </r>
       <r>    9.8389    0.0000 </r>
       <r>    9.9317    0.0000 </r>
       <r>   10.1128    0.0000 </r>
       <r>   10.2475    0.0000 </r>
      </set>
      <set comment="kpoint 85">
       <r>  -26.0600    1.0000 </r>
       <r>  -26.0600    1.0000 </r>
       <r>  -25.9817    1.0000 </r>
       <r>  -25.9817    1.0000 </r>
       <r>   -9.5328    1.0000 </r>
       <r>   -9.5328    1.0000 </r>
       <r>   -9.4816    1.0000 </r>
       <r>   -9.4816    1.0000 </r>
       <r>   -6.0615    1.0000 </r>
       <r>   -6.0615    1.0000 </r>
       <r>   -5.4937    1.0000 </r>
       <r>   -5.4937    1.0000 </r>
       <r>   -5.4330    1.0000 </r>
       <r>   -5.4330    1.0000 </r>
       <r>   -5.3534    1.0000 </r>
       <r>   -5.3534    1.0000 </r>
       <r>    5.3627    0.0000 </r>
       <r>    5.3627    0.0000 </r>
       <r>    6.6269    0.0000 </r>
       <r>    6.6269    0.0000 </r>
       <r>   10.1369    0.0000 </r>
       <r>   10.1369    0.0000 </r>
       <r>   11.4281    0.0000 </r>
       <r>   11.4281    0.0000 </r>
      </set>
      <set comment="kpoint 86">
       <r>  -26.0508    1.0000 </r>
       <r>  -26.0508    1.0000 </r>
       <r>  -25.9734    1.0000 </r>
       <r>  -25.9734    1.0000 </r>
       <r>   -9.5485    1.0000 </r>
       <r>   -9.5485    1.0000 </r>
       <r>   -9.4936    1.0000 </r>
       <r>   -9.4936    1.0000 </r>
       <r>   -6.0450    1.0000 </r>
       <r>   -6.0450    1.0000 </r>
       <r>   -5.5098    1.0000 </r>
       <r>   -5.5098    1.0000 </r>
       <r>   -5.4757    1.0000 </r>
       <r>   -5.4757    1.0000 </r>
       <r>   -5.3815    1.0000 </r>
       <r>   -5.3815    1.0000 </r>
       <r>    5.4691    0.0000 </r>
       <r>    5.4691    0.0000 </r>
       <r>    6.7052    0.0000 </r>
       <r>    6.7052    0.0000 </r>
       <r>   10.1227    0.0000 </r>
       <r>   10.1227    0.0000 </r>
       <r>   11.3313    0.0000 </r>
       <r>   11.3313    0.0000 </r>
      </set>
      <set comment="kpoint 87">
       <r>  -26.0259    1.0000 </r>
       <r>  -26.0259    1.0000 </r>
       <r>  -25.9519    1.0000 </r>
       <r>  -25.9519    1.0000 </r>
       <r>   -9.5932    1.0000 </r>
       <r>   -9.5932    1.0000 </r>
       <r>   -9.5286    1.0000 </r>
       <r>   -9.5286    1.0000 </r>
       <r>   -6.0040    1.0000 </r>
       <r>   -6.0040    1.0000 </r>
       <r>   -5.6003    1.0000 </r>
       <r>   -5.6003    1.0000 </r>
       <r>   -5.5761    1.0000 </r>
       <r>   -5.5761    1.0000 </r>
       <r>   -5.4051    1.0000 </r>
       <r>   -5.4051    1.0000 </r>
       <r>    5.7584    0.0000 </r>
       <r>    5.7584    0.0000 </r>
       <r>    6.9108    0.0000 </r>
       <r>    6.9108    0.0000 </r>
       <r>   10.0750    0.0000 </r>
       <r>   10.0750    0.0000 </r>
       <r>   11.0454    0.0000 </r>
       <r>   11.0454    0.0000 </r>
      </set>
      <set comment="kpoint 88">
       <r>  -25.9928    1.0000 </r>
       <r>  -25.9928    1.0000 </r>
       <r>  -25.9233    1.0000 </r>
       <r>  -25.9233    1.0000 </r>
       <r>   -9.6583    1.0000 </r>
       <r>   -9.6583    1.0000 </r>
       <r>   -9.5798    1.0000 </r>
       <r>   -9.5798    1.0000 </r>
       <r>   -5.9669    1.0000 </r>
       <r>   -5.9669    1.0000 </r>
       <r>   -5.7363    1.0000 </r>
       <r>   -5.7363    1.0000 </r>
       <r>   -5.6786    1.0000 </r>
       <r>   -5.6786    1.0000 </r>
       <r>   -5.3970    1.0000 </r>
       <r>   -5.3970    1.0000 </r>
       <r>    6.1540    0.0000 </r>
       <r>    6.1540    0.0000 </r>
       <r>    7.1739    0.0000 </r>
       <r>    7.1739    0.0000 </r>
       <r>    9.9935    0.0000 </r>
       <r>    9.9935    0.0000 </r>
       <r>   10.6219    0.0000 </r>
       <r>   10.6219    0.0000 </r>
      </set>
      <set comment="kpoint 89">
       <r>  -25.9622    1.0000 </r>
       <r>  -25.9622    1.0000 </r>
       <r>  -25.8971    1.0000 </r>
       <r>  -25.8971    1.0000 </r>
       <r>   -9.7242    1.0000 </r>
       <r>   -9.7242    1.0000 </r>
       <r>   -9.6325    1.0000 </r>
       <r>   -9.6325    1.0000 </r>
       <r>   -5.9734    1.0000 </r>
       <r>   -5.9734    1.0000 </r>
       <r>   -5.8568    1.0000 </r>
       <r>   -5.8568    1.0000 </r>
       <r>   -5.7097    1.0000 </r>
       <r>   -5.7097    1.0000 </r>
       <r>   -5.3853    1.0000 </r>
       <r>   -5.3853    1.0000 </r>
       <r>    6.5512    0.0000 </r>
       <r>    6.5512    0.0000 </r>
       <r>    7.4116    0.0000 </r>
       <r>    7.4116    0.0000 </r>
       <r>    9.8864    0.0000 </r>
       <r>    9.8864    0.0000 </r>
       <r>   10.2023    0.0000 </r>
       <r>   10.2023    0.0000 </r>
      </set>
      <set comment="kpoint 90">
       <r>  -25.9437    1.0000 </r>
       <r>  -25.9437    1.0000 </r>
       <r>  -25.8814    1.0000 </r>
       <r>  -25.8814    1.0000 </r>
       <r>   -9.7661    1.0000 </r>
       <r>   -9.7661    1.0000 </r>
       <r>   -9.6664    1.0000 </r>
       <r>   -9.6664    1.0000 </r>
       <r>   -5.9973    1.0000 </r>
       <r>   -5.9973    1.0000 </r>
       <r>   -5.9255    1.0000 </r>
       <r>   -5.9255    1.0000 </r>
       <r>   -5.6964    1.0000 </r>
       <r>   -5.6964    1.0000 </r>
       <r>   -5.3793    1.0000 </r>
       <r>   -5.3793    1.0000 </r>
       <r>    6.8167    0.0000 </r>
       <r>    6.8167    0.0000 </r>
       <r>    7.5512    0.0000 </r>
       <r>    7.5512    0.0000 </r>
       <r>    9.7466    0.0000 </r>
       <r>    9.7466    0.0000 </r>
       <r>    9.9971    0.0000 </r>
       <r>    9.9971    0.0000 </r>
      </set>
      <set comment="kpoint 91">
       <r>  -26.3724    1.0000 </r>
       <r>  -26.3724    1.0000 </r>
       <r>  -25.6390    1.0000 </r>
       <r>  -25.6390    1.0000 </r>
       <r>  -10.7552    1.0000 </r>
       <r>  -10.7552    1.0000 </r>
       <r>   -7.9839    1.0000 </r>
       <r>   -7.9839    1.0000 </r>
       <r>   -6.1854    1.0000 </r>
       <r>   -6.1854    1.0000 </r>
       <r>   -5.7828    1.0000 </r>
       <r>   -5.7828    1.0000 </r>
       <r>   -5.3898    1.0000 </r>
       <r>   -5.3898    1.0000 </r>
       <r>   -4.9742    1.0000 </r>
       <r>   -4.9742    1.0000 </r>
       <r>    3.4867    0.0000 </r>
       <r>    3.4867    0.0000 </r>
       <r>    8.2946    0.0000 </r>
       <r>    8.2946    0.0000 </r>
       <r>   10.5922    0.0000 </r>
       <r>   10.5922    0.0000 </r>
       <r>   10.7041    0.0000 </r>
       <r>   10.7041    0.0000 </r>
      </set>
      <set comment="kpoint 92">
       <r>  -26.3510    1.0000 </r>
       <r>  -26.3510    1.0000 </r>
       <r>  -25.6461    1.0000 </r>
       <r>  -25.6461    1.0000 </r>
       <r>  -10.7011    1.0000 </r>
       <r>  -10.7011    1.0000 </r>
       <r>   -8.0381    1.0000 </r>
       <r>   -8.0381    1.0000 </r>
       <r>   -6.1682    1.0000 </r>
       <r>   -6.1682    1.0000 </r>
       <r>   -5.8576    1.0000 </r>
       <r>   -5.8576    1.0000 </r>
       <r>   -5.3870    1.0000 </r>
       <r>   -5.3870    1.0000 </r>
       <r>   -5.0806    1.0000 </r>
       <r>   -5.0806    1.0000 </r>
       <r>    3.6697    0.0000 </r>
       <r>    3.6697    0.0000 </r>
       <r>    8.3543    0.0000 </r>
       <r>    8.3543    0.0000 </r>
       <r>   10.6855    0.0000 </r>
       <r>   10.6855    0.0000 </r>
       <r>   10.7319    0.0000 </r>
       <r>   10.7319    0.0000 </r>
      </set>
      <set comment="kpoint 93">
       <r>  -26.2897    1.0000 </r>
       <r>  -26.2897    1.0000 </r>
       <r>  -25.6693    1.0000 </r>
       <r>  -25.6693    1.0000 </r>
       <r>  -10.5424    1.0000 </r>
       <r>  -10.5424    1.0000 </r>
       <r>   -8.1986    1.0000 </r>
       <r>   -8.1986    1.0000 </r>
       <r>   -6.1307    1.0000 </r>
       <r>   -6.1307    1.0000 </r>
       <r>   -6.0452    1.0000 </r>
       <r>   -6.0452    1.0000 </r>
       <r>   -5.3876    1.0000 </r>
       <r>   -5.3876    1.0000 </r>
       <r>   -5.3403    1.0000 </r>
       <r>   -5.3403    1.0000 </r>
       <r>    4.1727    0.0000 </r>
       <r>    4.1727    0.0000 </r>
       <r>    8.4534    0.0000 </r>
       <r>    8.4534    0.0000 </r>
       <r>   10.8027    0.0000 </r>
       <r>   10.8027    0.0000 </r>
       <r>   10.9906    0.0000 </r>
       <r>   10.9906    0.0000 </r>
      </set>
      <set comment="kpoint 94">
       <r>  -26.1968    1.0000 </r>
       <r>  -26.1968    1.0000 </r>
       <r>  -25.7117    1.0000 </r>
       <r>  -25.7117    1.0000 </r>
       <r>  -10.2900    1.0000 </r>
       <r>  -10.2900    1.0000 </r>
       <r>   -8.4565    1.0000 </r>
       <r>   -8.4565    1.0000 </r>
       <r>   -6.2669    1.0000 </r>
       <r>   -6.2669    1.0000 </r>
       <r>   -6.1382    1.0000 </r>
       <r>   -6.1382    1.0000 </r>
       <r>   -5.5905    1.0000 </r>
       <r>   -5.5905    1.0000 </r>
       <r>   -5.4032    1.0000 </r>
       <r>   -5.4032    1.0000 </r>
       <r>    4.8963    0.0000 </r>
       <r>    4.8963    0.0000 </r>
       <r>    8.4141    0.0000 </r>
       <r>    8.4141    0.0000 </r>
       <r>   10.8839    0.0000 </r>
       <r>   10.8839    0.0000 </r>
       <r>   11.4881    0.0000 </r>
       <r>   11.4881    0.0000 </r>
      </set>
      <set comment="kpoint 95">
       <r>  -26.0855    1.0000 </r>
       <r>  -26.0855    1.0000 </r>
       <r>  -25.7763    1.0000 </r>
       <r>  -25.7763    1.0000 </r>
       <r>   -9.9614    1.0000 </r>
       <r>   -9.9614    1.0000 </r>
       <r>   -8.7936    1.0000 </r>
       <r>   -8.7936    1.0000 </r>
       <r>   -6.4421    1.0000 </r>
       <r>   -6.4421    1.0000 </r>
       <r>   -6.2848    1.0000 </r>
       <r>   -6.2848    1.0000 </r>
       <r>   -5.6497    1.0000 </r>
       <r>   -5.6497    1.0000 </r>
       <r>   -5.4414    1.0000 </r>
       <r>   -5.4414    1.0000 </r>
       <r>    5.7420    0.0000 </r>
       <r>    5.7420    0.0000 </r>
       <r>    8.0897    0.0000 </r>
       <r>    8.0897    0.0000 </r>
       <r>   10.9459    0.0000 </r>
       <r>   10.9459    0.0000 </r>
       <r>   11.5043    0.0000 </r>
       <r>   11.5043    0.0000 </r>
      </set>
      <set comment="kpoint 96">
       <r>  -25.9699    1.0000 </r>
       <r>  -25.9699    1.0000 </r>
       <r>  -25.8636    1.0000 </r>
       <r>  -25.8636    1.0000 </r>
       <r>   -9.5814    1.0000 </r>
       <r>   -9.5814    1.0000 </r>
       <r>   -9.1803    1.0000 </r>
       <r>   -9.1803    1.0000 </r>
       <r>   -6.5115    1.0000 </r>
       <r>   -6.5115    1.0000 </r>
       <r>   -6.4506    1.0000 </r>
       <r>   -6.4506    1.0000 </r>
       <r>   -5.5857    1.0000 </r>
       <r>   -5.5857    1.0000 </r>
       <r>   -5.5049    1.0000 </r>
       <r>   -5.5049    1.0000 </r>
       <r>    6.6271    0.0000 </r>
       <r>    6.6271    0.0000 </r>
       <r>    7.4555    0.0000 </r>
       <r>    7.4555    0.0000 </r>
       <r>   11.0100    0.0000 </r>
       <r>   11.0100    0.0000 </r>
       <r>   11.1674    0.0000 </r>
       <r>   11.1674    0.0000 </r>
      </set>
      <set comment="kpoint 97">
       <r>  -26.3465    1.0000 </r>
       <r>  -26.3465    1.0000 </r>
       <r>  -25.6693    1.0000 </r>
       <r>  -25.6693    1.0000 </r>
       <r>  -10.6662    1.0000 </r>
       <r>  -10.6662    1.0000 </r>
       <r>   -8.1185    1.0000 </r>
       <r>   -8.1185    1.0000 </r>
       <r>   -6.1506    1.0000 </r>
       <r>   -6.1506    1.0000 </r>
       <r>   -5.7541    1.0000 </r>
       <r>   -5.7541    1.0000 </r>
       <r>   -5.4195    1.0000 </r>
       <r>   -5.4195    1.0000 </r>
       <r>   -5.0073    1.0000 </r>
       <r>   -5.0073    1.0000 </r>
       <r>    3.6817    0.0000 </r>
       <r>    3.6817    0.0000 </r>
       <r>    8.1564    0.0000 </r>
       <r>    8.1564    0.0000 </r>
       <r>   10.4964    0.0000 </r>
       <r>   10.4964    0.0000 </r>
       <r>   10.7326    0.0000 </r>
       <r>   10.7326    0.0000 </r>
      </set>
      <set comment="kpoint 98">
       <r>  -26.3260    1.0000 </r>
       <r>  -26.3260    1.0000 </r>
       <r>  -25.6751    1.0000 </r>
       <r>  -25.6751    1.0000 </r>
       <r>  -10.6175    1.0000 </r>
       <r>  -10.6175    1.0000 </r>
       <r>   -8.1726    1.0000 </r>
       <r>   -8.1726    1.0000 </r>
       <r>   -6.1334    1.0000 </r>
       <r>   -6.1334    1.0000 </r>
       <r>   -5.8266    1.0000 </r>
       <r>   -5.8266    1.0000 </r>
       <r>   -5.4147    1.0000 </r>
       <r>   -5.4147    1.0000 </r>
       <r>   -5.1023    1.0000 </r>
       <r>   -5.1023    1.0000 </r>
       <r>    3.8528    0.0000 </r>
       <r>    3.8528    0.0000 </r>
       <r>    8.2248    0.0000 </r>
       <r>    8.2248    0.0000 </r>
       <r>   10.5469    0.0000 </r>
       <r>   10.5469    0.0000 </r>
       <r>   10.7538    0.0000 </r>
       <r>   10.7538    0.0000 </r>
      </set>
      <set comment="kpoint 99">
       <r>  -26.2673    1.0000 </r>
       <r>  -26.2673    1.0000 </r>
       <r>  -25.6944    1.0000 </r>
       <r>  -25.6944    1.0000 </r>
       <r>  -10.4752    1.0000 </r>
       <r>  -10.4752    1.0000 </r>
       <r>   -8.3314    1.0000 </r>
       <r>   -8.3314    1.0000 </r>
       <r>   -6.0940    1.0000 </r>
       <r>   -6.0940    1.0000 </r>
       <r>   -6.0063    1.0000 </r>
       <r>   -6.0063    1.0000 </r>
       <r>   -5.4109    1.0000 </r>
       <r>   -5.4109    1.0000 </r>
       <r>   -5.3363    1.0000 </r>
       <r>   -5.3363    1.0000 </r>
       <r>    4.3254    0.0000 </r>
       <r>    4.3254    0.0000 </r>
       <r>    8.3534    0.0000 </r>
       <r>    8.3534    0.0000 </r>
       <r>   10.7030    0.0000 </r>
       <r>   10.7030    0.0000 </r>
       <r>   10.8035    0.0000 </r>
       <r>   10.8035    0.0000 </r>
      </set>
      <set comment="kpoint 100">
       <r>  -26.1790    1.0000 </r>
       <r>  -26.1790    1.0000 </r>
       <r>  -25.7306    1.0000 </r>
       <r>  -25.7306    1.0000 </r>
       <r>  -10.2495    1.0000 </r>
       <r>  -10.2495    1.0000 </r>
       <r>   -8.5820    1.0000 </r>
       <r>   -8.5820    1.0000 </r>
       <r>   -6.2153    1.0000 </r>
       <r>   -6.2153    1.0000 </r>
       <r>   -6.0890    1.0000 </r>
       <r>   -6.0890    1.0000 </r>
       <r>   -5.5695    1.0000 </r>
       <r>   -5.5695    1.0000 </r>
       <r>   -5.4206    1.0000 </r>
       <r>   -5.4206    1.0000 </r>
       <r>    5.0098    0.0000 </r>
       <r>    5.0098    0.0000 </r>
       <r>    8.3567    0.0000 </r>
       <r>    8.3567    0.0000 </r>
       <r>   10.8480    0.0000 </r>
       <r>   10.8480    0.0000 </r>
       <r>   10.9129    0.0000 </r>
       <r>   10.9129    0.0000 </r>
      </set>
      <set comment="kpoint 101">
       <r>  -26.0736    1.0000 </r>
       <r>  -26.0736    1.0000 </r>
       <r>  -25.7876    1.0000 </r>
       <r>  -25.7876    1.0000 </r>
       <r>   -9.9568    1.0000 </r>
       <r>   -9.9568    1.0000 </r>
       <r>   -8.9008    1.0000 </r>
       <r>   -8.9008    1.0000 </r>
       <r>   -6.3756    1.0000 </r>
       <r>   -6.3756    1.0000 </r>
       <r>   -6.2108    1.0000 </r>
       <r>   -6.2108    1.0000 </r>
       <r>   -5.6348    1.0000 </r>
       <r>   -5.6348    1.0000 </r>
       <r>   -5.4515    1.0000 </r>
       <r>   -5.4515    1.0000 </r>
       <r>    5.8149    0.0000 </r>
       <r>    5.8149    0.0000 </r>
       <r>    8.0653    0.0000 </r>
       <r>    8.0653    0.0000 </r>
       <r>   10.8587    0.0000 </r>
       <r>   10.8587    0.0000 </r>
       <r>   10.9700    0.0000 </r>
       <r>   10.9700    0.0000 </r>
      </set>
      <set comment="kpoint 102">
       <r>  -25.9655    1.0000 </r>
       <r>  -25.9655    1.0000 </r>
       <r>  -25.8671    1.0000 </r>
       <r>  -25.8671    1.0000 </r>
       <r>   -9.6178    1.0000 </r>
       <r>   -9.6178    1.0000 </r>
       <r>   -9.2567    1.0000 </r>
       <r>   -9.2567    1.0000 </r>
       <r>   -6.4320    1.0000 </r>
       <r>   -6.4320    1.0000 </r>
       <r>   -6.3663    1.0000 </r>
       <r>   -6.3663    1.0000 </r>
       <r>   -5.5795    1.0000 </r>
       <r>   -5.5795    1.0000 </r>
       <r>   -5.5069    1.0000 </r>
       <r>   -5.5069    1.0000 </r>
       <r>    6.6617    0.0000 </r>
       <r>    6.6617    0.0000 </r>
       <r>    7.4580    0.0000 </r>
       <r>    7.4580    0.0000 </r>
       <r>   10.8525    0.0000 </r>
       <r>   10.8525    0.0000 </r>
       <r>   10.8884    0.0000 </r>
       <r>   10.8884    0.0000 </r>
      </set>
      <set comment="kpoint 103">
       <r>  -26.2722    1.0000 </r>
       <r>  -26.2722    1.0000 </r>
       <r>  -25.7545    1.0000 </r>
       <r>  -25.7545    1.0000 </r>
       <r>  -10.4081    1.0000 </r>
       <r>  -10.4081    1.0000 </r>
       <r>   -8.4800    1.0000 </r>
       <r>   -8.4800    1.0000 </r>
       <r>   -6.0576    1.0000 </r>
       <r>   -6.0576    1.0000 </r>
       <r>   -5.6715    1.0000 </r>
       <r>   -5.6715    1.0000 </r>
       <r>   -5.5038    1.0000 </r>
       <r>   -5.5038    1.0000 </r>
       <r>   -5.1004    1.0000 </r>
       <r>   -5.1004    1.0000 </r>
       <r>    4.2258    0.0000 </r>
       <r>    4.2258    0.0000 </r>
       <r>    7.6741    0.0000 </r>
       <r>    7.6741    0.0000 </r>
       <r>   10.4573    0.0000 </r>
       <r>   10.4573    0.0000 </r>
       <r>   10.8004    0.0000 </r>
       <r>   10.8004    0.0000 </r>
      </set>
      <set comment="kpoint 104">
       <r>  -26.2544    1.0000 </r>
       <r>  -26.2544    1.0000 </r>
       <r>  -25.7566    1.0000 </r>
       <r>  -25.7566    1.0000 </r>
       <r>  -10.3748    1.0000 </r>
       <r>  -10.3748    1.0000 </r>
       <r>   -8.5295    1.0000 </r>
       <r>   -8.5295    1.0000 </r>
       <r>   -6.0413    1.0000 </r>
       <r>   -6.0413    1.0000 </r>
       <r>   -5.7405    1.0000 </r>
       <r>   -5.7405    1.0000 </r>
       <r>   -5.4915    1.0000 </r>
       <r>   -5.4915    1.0000 </r>
       <r>   -5.1713    1.0000 </r>
       <r>   -5.1713    1.0000 </r>
       <r>    4.3690    0.0000 </r>
       <r>    4.3690    0.0000 </r>
       <r>    7.7555    0.0000 </r>
       <r>    7.7555    0.0000 </r>
       <r>   10.4410    0.0000 </r>
       <r>   10.4410    0.0000 </r>
       <r>   10.8019    0.0000 </r>
       <r>   10.8019    0.0000 </r>
      </set>
      <set comment="kpoint 105">
       <r>  -26.2034    1.0000 </r>
       <r>  -26.2034    1.0000 </r>
       <r>  -25.7651    1.0000 </r>
       <r>  -25.7651    1.0000 </r>
       <r>  -10.2780    1.0000 </r>
       <r>  -10.2780    1.0000 </r>
       <r>   -8.6725    1.0000 </r>
       <r>   -8.6725    1.0000 </r>
       <r>   -6.0025    1.0000 </r>
       <r>   -6.0025    1.0000 </r>
       <r>   -5.9011    1.0000 </r>
       <r>   -5.9011    1.0000 </r>
       <r>   -5.4752    1.0000 </r>
       <r>   -5.4752    1.0000 </r>
       <r>   -5.3478    1.0000 </r>
       <r>   -5.3478    1.0000 </r>
       <r>    4.7676    0.0000 </r>
       <r>    4.7676    0.0000 </r>
       <r>    7.9418    0.0000 </r>
       <r>    7.9418    0.0000 </r>
       <r>   10.3880    0.0000 </r>
       <r>   10.3880    0.0000 </r>
       <r>   10.7910    0.0000 </r>
       <r>   10.7910    0.0000 </r>
      </set>
      <set comment="kpoint 106">
       <r>  -26.1278    1.0000 </r>
       <r>  -26.1278    1.0000 </r>
       <r>  -25.7846    1.0000 </r>
       <r>  -25.7846    1.0000 </r>
       <r>  -10.1257    1.0000 </r>
       <r>  -10.1257    1.0000 </r>
       <r>   -8.8909    1.0000 </r>
       <r>   -8.8909    1.0000 </r>
       <r>   -6.0799    1.0000 </r>
       <r>   -6.0799    1.0000 </r>
       <r>   -5.9830    1.0000 </r>
       <r>   -5.9830    1.0000 </r>
       <r>   -5.5319    1.0000 </r>
       <r>   -5.5319    1.0000 </r>
       <r>   -5.4687    1.0000 </r>
       <r>   -5.4687    1.0000 </r>
       <r>    5.3503    0.0000 </r>
       <r>    5.3503    0.0000 </r>
       <r>    8.0689    0.0000 </r>
       <r>    8.0689    0.0000 </r>
       <r>   10.3080    0.0000 </r>
       <r>   10.3080    0.0000 </r>
       <r>   10.7351    0.0000 </r>
       <r>   10.7351    0.0000 </r>
      </set>
      <set comment="kpoint 107">
       <r>  -26.0397    1.0000 </r>
       <r>  -26.0397    1.0000 </r>
       <r>  -25.8208    1.0000 </r>
       <r>  -25.8208    1.0000 </r>
       <r>   -9.9280    1.0000 </r>
       <r>   -9.9280    1.0000 </r>
       <r>   -9.1549    1.0000 </r>
       <r>   -9.1549    1.0000 </r>
       <r>   -6.2085    1.0000 </r>
       <r>   -6.2085    1.0000 </r>
       <r>   -6.0584    1.0000 </r>
       <r>   -6.0584    1.0000 </r>
       <r>   -5.5979    1.0000 </r>
       <r>   -5.5979    1.0000 </r>
       <r>   -5.4795    1.0000 </r>
       <r>   -5.4795    1.0000 </r>
       <r>    6.0417    0.0000 </r>
       <r>    6.0417    0.0000 </r>
       <r>    7.9261    0.0000 </r>
       <r>    7.9261    0.0000 </r>
       <r>   10.2686    0.0000 </r>
       <r>   10.2686    0.0000 </r>
       <r>   10.6175    0.0000 </r>
       <r>   10.6175    0.0000 </r>
      </set>
      <set comment="kpoint 108">
       <r>  -25.9525    1.0000 </r>
       <r>  -25.9525    1.0000 </r>
       <r>  -25.8772    1.0000 </r>
       <r>  -25.8772    1.0000 </r>
       <r>   -9.6936    1.0000 </r>
       <r>   -9.6936    1.0000 </r>
       <r>   -9.4310    1.0000 </r>
       <r>   -9.4310    1.0000 </r>
       <r>   -6.2438    1.0000 </r>
       <r>   -6.2438    1.0000 </r>
       <r>   -6.1804    1.0000 </r>
       <r>   -6.1804    1.0000 </r>
       <r>   -5.5626    1.0000 </r>
       <r>   -5.5626    1.0000 </r>
       <r>   -5.5126    1.0000 </r>
       <r>   -5.5126    1.0000 </r>
       <r>    6.7710    0.0000 </r>
       <r>    6.7710    0.0000 </r>
       <r>    7.4478    0.0000 </r>
       <r>    7.4478    0.0000 </r>
       <r>   10.3312    0.0000 </r>
       <r>   10.3312    0.0000 </r>
       <r>   10.4657    0.0000 </r>
       <r>   10.4657    0.0000 </r>
      </set>
      <set comment="kpoint 109">
       <r>  -26.1588    1.0000 </r>
       <r>  -26.1588    1.0000 </r>
       <r>  -25.8787    1.0000 </r>
       <r>  -25.8787    1.0000 </r>
       <r>  -10.0087    1.0000 </r>
       <r>  -10.0087    1.0000 </r>
       <r>   -8.9756    1.0000 </r>
       <r>   -8.9756    1.0000 </r>
       <r>   -5.9267    1.0000 </r>
       <r>   -5.9267    1.0000 </r>
       <r>   -5.6294    1.0000 </r>
       <r>   -5.6294    1.0000 </r>
       <r>   -5.5457    1.0000 </r>
       <r>   -5.5457    1.0000 </r>
       <r>   -5.2368    1.0000 </r>
       <r>   -5.2368    1.0000 </r>
       <r>    5.0205    0.0000 </r>
       <r>    5.0205    0.0000 </r>
       <r>    6.8796    0.0000 </r>
       <r>    6.8796    0.0000 </r>
       <r>   10.6187    0.0000 </r>
       <r>   10.6187    0.0000 </r>
       <r>   10.8520    0.0000 </r>
       <r>   10.8520    0.0000 </r>
      </set>
      <set comment="kpoint 110">
       <r>  -26.1447    1.0000 </r>
       <r>  -26.1447    1.0000 </r>
       <r>  -25.8756    1.0000 </r>
       <r>  -25.8756    1.0000 </r>
       <r>   -9.9976    1.0000 </r>
       <r>   -9.9976    1.0000 </r>
       <r>   -9.0112    1.0000 </r>
       <r>   -9.0112    1.0000 </r>
       <r>   -5.9140    1.0000 </r>
       <r>   -5.9140    1.0000 </r>
       <r>   -5.6597    1.0000 </r>
       <r>   -5.6597    1.0000 </r>
       <r>   -5.5588    1.0000 </r>
       <r>   -5.5588    1.0000 </r>
       <r>   -5.2873    1.0000 </r>
       <r>   -5.2873    1.0000 </r>
       <r>    5.1346    0.0000 </r>
       <r>    5.1346    0.0000 </r>
       <r>    6.9655    0.0000 </r>
       <r>    6.9655    0.0000 </r>
       <r>   10.5657    0.0000 </r>
       <r>   10.5657    0.0000 </r>
       <r>   10.8240    0.0000 </r>
       <r>   10.8240    0.0000 </r>
      </set>
      <set comment="kpoint 111">
       <r>  -26.1061    1.0000 </r>
       <r>  -26.1061    1.0000 </r>
       <r>  -25.8690    1.0000 </r>
       <r>  -25.8690    1.0000 </r>
       <r>   -9.9659    1.0000 </r>
       <r>   -9.9659    1.0000 </r>
       <r>   -9.1131    1.0000 </r>
       <r>   -9.1131    1.0000 </r>
       <r>   -5.8856    1.0000 </r>
       <r>   -5.8856    1.0000 </r>
       <r>   -5.7745    1.0000 </r>
       <r>   -5.7745    1.0000 </r>
       <r>   -5.5519    1.0000 </r>
       <r>   -5.5519    1.0000 </r>
       <r>   -5.4101    1.0000 </r>
       <r>   -5.4101    1.0000 </r>
       <r>    5.4507    0.0000 </r>
       <r>    5.4507    0.0000 </r>
       <r>    7.1846    0.0000 </r>
       <r>    7.1846    0.0000 </r>
       <r>   10.4047    0.0000 </r>
       <r>   10.4047    0.0000 </r>
       <r>   10.7269    0.0000 </r>
       <r>   10.7269    0.0000 </r>
      </set>
      <set comment="kpoint 112">
       <r>  -26.0505    1.0000 </r>
       <r>  -26.0505    1.0000 </r>
       <r>  -25.8647    1.0000 </r>
       <r>  -25.8647    1.0000 </r>
       <r>   -9.9154    1.0000 </r>
       <r>   -9.9154    1.0000 </r>
       <r>   -9.2655    1.0000 </r>
       <r>   -9.2655    1.0000 </r>
       <r>   -5.9174    1.0000 </r>
       <r>   -5.9174    1.0000 </r>
       <r>   -5.8778    1.0000 </r>
       <r>   -5.8778    1.0000 </r>
       <r>   -5.5310    1.0000 </r>
       <r>   -5.5310    1.0000 </r>
       <r>   -5.5288    1.0000 </r>
       <r>   -5.5288    1.0000 </r>
       <r>    5.9071    0.0000 </r>
       <r>    5.9071    0.0000 </r>
       <r>    7.4289    0.0000 </r>
       <r>    7.4289    0.0000 </r>
       <r>   10.1599    0.0000 </r>
       <r>   10.1599    0.0000 </r>
       <r>   10.5431    0.0000 </r>
       <r>   10.5431    0.0000 </r>
      </set>
      <set comment="kpoint 113">
       <r>  -25.9892    1.0000 </r>
       <r>  -25.9892    1.0000 </r>
       <r>  -25.8705    1.0000 </r>
       <r>  -25.8705    1.0000 </r>
       <r>   -9.8439    1.0000 </r>
       <r>   -9.8439    1.0000 </r>
       <r>   -9.4406    1.0000 </r>
       <r>   -9.4406    1.0000 </r>
       <r>   -6.0223    1.0000 </r>
       <r>   -6.0223    1.0000 </r>
       <r>   -5.9369    1.0000 </r>
       <r>   -5.9369    1.0000 </r>
       <r>   -5.5636    1.0000 </r>
       <r>   -5.5636    1.0000 </r>
       <r>   -5.5165    1.0000 </r>
       <r>   -5.5165    1.0000 </r>
       <r>    6.4342    0.0000 </r>
       <r>    6.4342    0.0000 </r>
       <r>    7.5387    0.0000 </r>
       <r>    7.5387    0.0000 </r>
       <r>    9.9391    0.0000 </r>
       <r>    9.9391    0.0000 </r>
       <r>   10.2940    0.0000 </r>
       <r>   10.2940    0.0000 </r>
      </set>
      <set comment="kpoint 114">
       <r>  -25.9338    1.0000 </r>
       <r>  -25.9338    1.0000 </r>
       <r>  -25.8929    1.0000 </r>
       <r>  -25.8929    1.0000 </r>
       <r>   -9.7433    1.0000 </r>
       <r>   -9.7433    1.0000 </r>
       <r>   -9.6071    1.0000 </r>
       <r>   -9.6071    1.0000 </r>
       <r>   -6.0561    1.0000 </r>
       <r>   -6.0561    1.0000 </r>
       <r>   -6.0184    1.0000 </r>
       <r>   -6.0184    1.0000 </r>
       <r>   -5.5418    1.0000 </r>
       <r>   -5.5418    1.0000 </r>
       <r>   -5.5197    1.0000 </r>
       <r>   -5.5197    1.0000 </r>
       <r>    6.9574    0.0000 </r>
       <r>    6.9574    0.0000 </r>
       <r>    7.3717    0.0000 </r>
       <r>    7.3717    0.0000 </r>
       <r>    9.8957    0.0000 </r>
       <r>    9.8957    0.0000 </r>
       <r>   10.0469    0.0000 </r>
       <r>   10.0469    0.0000 </r>
      </set>
      <set comment="kpoint 115">
       <r>  -26.0208    1.0000 </r>
       <r>  -26.0208    1.0000 </r>
       <r>  -26.0208    1.0000 </r>
       <r>  -26.0208    1.0000 </r>
       <r>   -9.5111    1.0000 </r>
       <r>   -9.5111    1.0000 </r>
       <r>   -9.5111    1.0000 </r>
       <r>   -9.5111    1.0000 </r>
       <r>   -5.7773    1.0000 </r>
       <r>   -5.7773    1.0000 </r>
       <r>   -5.7773    1.0000 </r>
       <r>   -5.7773    1.0000 </r>
       <r>   -5.3934    1.0000 </r>
       <r>   -5.3934    1.0000 </r>
       <r>   -5.3934    1.0000 </r>
       <r>   -5.3934    1.0000 </r>
       <r>    5.9461    0.0000 </r>
       <r>    5.9461    0.0000 </r>
       <r>    5.9461    0.0000 </r>
       <r>    5.9461    0.0000 </r>
       <r>   10.7997    0.0000 </r>
       <r>   10.7997    0.0000 </r>
       <r>   10.7997    0.0000 </r>
       <r>   10.7997    0.0000 </r>
      </set>
      <set comment="kpoint 116">
       <r>  -26.0123    1.0000 </r>
       <r>  -26.0123    1.0000 </r>
       <r>  -26.0123    1.0000 </r>
       <r>  -26.0123    1.0000 </r>
       <r>   -9.5249    1.0000 </r>
       <r>   -9.5249    1.0000 </r>
       <r>   -9.5249    1.0000 </r>
       <r>   -9.5249    1.0000 </r>
       <r>   -5.7722    1.0000 </r>
       <r>   -5.7722    1.0000 </r>
       <r>   -5.7722    1.0000 </r>
       <r>   -5.7722    1.0000 </r>
       <r>   -5.4334    1.0000 </r>
       <r>   -5.4334    1.0000 </r>
       <r>   -5.4334    1.0000 </r>
       <r>   -5.4334    1.0000 </r>
       <r>    6.0404    0.0000 </r>
       <r>    6.0404    0.0000 </r>
       <r>    6.0404    0.0000 </r>
       <r>    6.0404    0.0000 </r>
       <r>   10.7459    0.0000 </r>
       <r>   10.7459    0.0000 </r>
       <r>   10.7459    0.0000 </r>
       <r>   10.7459    0.0000 </r>
      </set>
      <set comment="kpoint 117">
       <r>  -25.9890    1.0000 </r>
       <r>  -25.9890    1.0000 </r>
       <r>  -25.9890    1.0000 </r>
       <r>  -25.9890    1.0000 </r>
       <r>   -9.5644    1.0000 </r>
       <r>   -9.5644    1.0000 </r>
       <r>   -9.5644    1.0000 </r>
       <r>   -9.5644    1.0000 </r>
       <r>   -5.7741    1.0000 </r>
       <r>   -5.7741    1.0000 </r>
       <r>   -5.7741    1.0000 </r>
       <r>   -5.7741    1.0000 </r>
       <r>   -5.5172    1.0000 </r>
       <r>   -5.5172    1.0000 </r>
       <r>   -5.5172    1.0000 </r>
       <r>   -5.5172    1.0000 </r>
       <r>    6.2944    0.0000 </r>
       <r>    6.2944    0.0000 </r>
       <r>    6.2944    0.0000 </r>
       <r>    6.2944    0.0000 </r>
       <r>   10.5795    0.0000 </r>
       <r>   10.5795    0.0000 </r>
       <r>   10.5795    0.0000 </r>
       <r>   10.5795    0.0000 </r>
      </set>
      <set comment="kpoint 118">
       <r>  -25.9582    1.0000 </r>
       <r>  -25.9582    1.0000 </r>
       <r>  -25.9582    1.0000 </r>
       <r>  -25.9582    1.0000 </r>
       <r>   -9.6222    1.0000 </r>
       <r>   -9.6222    1.0000 </r>
       <r>   -9.6222    1.0000 </r>
       <r>   -9.6222    1.0000 </r>
       <r>   -5.8289    1.0000 </r>
       <r>   -5.8289    1.0000 </r>
       <r>   -5.8289    1.0000 </r>
       <r>   -5.8289    1.0000 </r>
       <r>   -5.5580    1.0000 </r>
       <r>   -5.5580    1.0000 </r>
       <r>   -5.5580    1.0000 </r>
       <r>   -5.5580    1.0000 </r>
       <r>    6.6358    0.0000 </r>
       <r>    6.6358    0.0000 </r>
       <r>    6.6358    0.0000 </r>
       <r>    6.6358    0.0000 </r>
       <r>   10.3120    0.0000 </r>
       <r>   10.3120    0.0000 </r>
       <r>   10.3120    0.0000 </r>
       <r>   10.3120    0.0000 </r>
      </set>
      <set comment="kpoint 119">
       <r>  -25.9298    1.0000 </r>
       <r>  -25.9298    1.0000 </r>
       <r>  -25.9298    1.0000 </r>
       <r>  -25.9298    1.0000 </r>
       <r>   -9.6812    1.0000 </r>
       <r>   -9.6812    1.0000 </r>
       <r>   -9.6812    1.0000 </r>
       <r>   -9.6812    1.0000 </r>
       <r>   -5.9143    1.0000 </r>
       <r>   -5.9143    1.0000 </r>
       <r>   -5.9143    1.0000 </r>
       <r>   -5.9143    1.0000 </r>
       <r>   -5.5449    1.0000 </r>
       <r>   -5.5449    1.0000 </r>
       <r>   -5.5449    1.0000 </r>
       <r>   -5.5449    1.0000 </r>
       <r>    6.9705    0.0000 </r>
       <r>    6.9705    0.0000 </r>
       <r>    6.9705    0.0000 </r>
       <r>    6.9705    0.0000 </r>
       <r>   10.0123    0.0000 </r>
       <r>   10.0123    0.0000 </r>
       <r>   10.0123    0.0000 </r>
       <r>   10.0123    0.0000 </r>
      </set>
      <set comment="kpoint 120">
       <r>  -25.9128    1.0000 </r>
       <r>  -25.9128    1.0000 </r>
       <r>  -25.9128    1.0000 </r>
       <r>  -25.9128    1.0000 </r>
       <r>   -9.7190    1.0000 </r>
       <r>   -9.7190    1.0000 </r>
       <r>   -9.7190    1.0000 </r>
       <r>   -9.7190    1.0000 </r>
       <r>   -5.9679    1.0000 </r>
       <r>   -5.9679    1.0000 </r>
       <r>   -5.9679    1.0000 </r>
       <r>   -5.9679    1.0000 </r>
       <r>   -5.5274    1.0000 </r>
       <r>   -5.5274    1.0000 </r>
       <r>   -5.5274    1.0000 </r>
       <r>   -5.5274    1.0000 </r>
       <r>    7.1881    0.0000 </r>
       <r>    7.1881    0.0000 </r>
       <r>    7.1881    0.0000 </r>
       <r>    7.1881    0.0000 </r>
       <r>    9.8040    0.0000 </r>
       <r>    9.8040    0.0000 </r>
       <r>    9.8040    0.0000 </r>
       <r>    9.8040    0.0000 </r>
      </set>
     </set>
    </set>
   </array>
  </eigenvalues>
  <separator name="orbital magnetization" >
   <v name="MAGDIPOLOUT">      0.00000000      0.00000000      0.00000000</v>
  </separator>
  <dos>
   <i name="efermi">     -4.47170141 </i>
   <total>
    <array>
     <dimension dim="1">gridpoints</dimension>
     <dimension dim="2">spin</dimension>
     <field>energy</field>
     <field>total</field>
     <field>integrated</field>
     <set>
      <set comment="spin 1">
       <r>   -28.4581     0.0000     0.0000 </r>
       <r>   -28.3128     0.0000     0.0000 </r>
       <r>   -28.1675     0.0000     0.0000 </r>
       <r>   -28.0222     0.0000     0.0000 </r>
       <r>   -27.8769     0.0000     0.0000 </r>
       <r>   -27.7316     0.0000     0.0000 </r>
       <r>   -27.5862     0.0000     0.0000 </r>
       <r>   -27.4409     0.0000     0.0000 </r>
       <r>   -27.2956     0.0000     0.0000 </r>
       <r>   -27.1503     0.0000     0.0000 </r>
       <r>   -27.0050     0.0000     0.0000 </r>
       <r>   -26.8597     0.0000     0.0000 </r>
       <r>   -26.7143     0.0000     0.0000 </r>
       <r>   -26.5690     0.0282     0.0041 </r>
       <r>   -26.4237     0.8327     0.1251 </r>
       <r>   -26.2784     3.7707     0.6731 </r>
       <r>   -26.1331     7.2920     1.7327 </r>
       <r>   -25.9877    11.0332     3.3360 </r>
       <r>   -25.8424    15.0920     5.5291 </r>
       <r>   -25.6971    12.0267     7.2768 </r>
       <r>   -25.5518     4.6646     7.9547 </r>
       <r>   -25.4065     0.3109     7.9998 </r>
       <r>   -25.2612     0.0011     8.0000 </r>
       <r>   -25.1158     0.0000     8.0000 </r>
       <r>   -24.9705     0.0000     8.0000 </r>
       <r>   -24.8252     0.0000     8.0000 </r>
       <r>   -24.6799     0.0000     8.0000 </r>
       <r>   -24.5346     0.0000     8.0000 </r>
       <r>   -24.3893     0.0000     8.0000 </r>
       <r>   -24.2439     0.0000     8.0000 </r>
       <r>   -24.0986     0.0000     8.0000 </r>
       <r>   -23.9533     0.0000     8.0000 </r>
       <r>   -23.8080     0.0000     8.0000 </r>
       <r>   -23.6627     0.0000     8.0000 </r>
       <r>   -23.5174     0.0000     8.0000 </r>
       <r>   -23.3720     0.0000     8.0000 </r>
       <r>   -23.2267     0.0000     8.0000 </r>
       <r>   -23.0814     0.0000     8.0000 </r>
       <r>   -22.9361     0.0000     8.0000 </r>
       <r>   -22.7908     0.0000     8.0000 </r>
       <r>   -22.6455     0.0000     8.0000 </r>
       <r>   -22.5001     0.0000     8.0000 </r>
       <r>   -22.3548     0.0000     8.0000 </r>
       <r>   -22.2095     0.0000     8.0000 </r>
       <r>   -22.0642     0.0000     8.0000 </r>
       <r>   -21.9189     0.0000     8.0000 </r>
       <r>   -21.7735     0.0000     8.0000 </r>
       <r>   -21.6282     0.0000     8.0000 </r>
       <r>   -21.4829     0.0000     8.0000 </r>
       <r>   -21.3376     0.0000     8.0000 </r>
       <r>   -21.1923     0.0000     8.0000 </r>
       <r>   -21.0470     0.0000     8.0000 </r>
       <r>   -20.9016     0.0000     8.0000 </r>
       <r>   -20.7563     0.0000     8.0000 </r>
       <r>   -20.6110     0.0000     8.0000 </r>
       <r>   -20.4657     0.0000     8.0000 </r>
       <r>   -20.3204     0.0000     8.0000 </r>
       <r>   -20.1751     0.0000     8.0000 </r>
       <r>   -20.0297     0.0000     8.0000 </r>
       <r>   -19.8844     0.0000     8.0000 </r>
       <r>   -19.7391     0.0000     8.0000 </r>
       <r>   -19.5938     0.0000     8.0000 </r>
       <r>   -19.4485     0.0000     8.0000 </r>
       <r>   -19.3032     0.0000     8.0000 </r>
       <r>   -19.1578     0.0000     8.0000 </r>
       <r>   -19.0125     0.0000     8.0000 </r>
       <r>   -18.8672     0.0000     8.0000 </r>
       <r>   -18.7219     0.0000     8.0000 </r>
       <r>   -18.5766     0.0000     8.0000 </r>
       <r>   -18.4312     0.0000     8.0000 </r>
       <r>   -18.2859     0.0000     8.0000 </r>
       <r>   -18.1406     0.0000     8.0000 </r>
       <r>   -17.9953     0.0000     8.0000 </r>
       <r>   -17.8500     0.0000     8.0000 </r>
       <r>   -17.7047     0.0000     8.0000 </r>
       <r>   -17.5593     0.0000     8.0000 </r>
       <r>   -17.4140     0.0000     8.0000 </r>
       <r>   -17.2687     0.0000     8.0000 </r>
       <r>   -17.1234     0.0000     8.0000 </r>
       <r>   -16.9781     0.0000     8.0000 </r>
       <r>   -16.8328     0.0000     8.0000 </r>
       <r>   -16.6874     0.0000     8.0000 </r>
       <r>   -16.5421     0.0000     8.0000 </r>
       <r>   -16.3968     0.0000     8.0000 </r>
       <r>   -16.2515     0.0000     8.0000 </r>
       <r>   -16.1062     0.0000     8.0000 </r>
       <r>   -15.9609     0.0000     8.0000 </r>
       <r>   -15.8155     0.0000     8.0000 </r>
       <r>   -15.6702     0.0000     8.0000 </r>
       <r>   -15.5249     0.0000     8.0000 </r>
       <r>   -15.3796     0.0000     8.0000 </r>
       <r>   -15.2343     0.0000     8.0000 </r>
       <r>   -15.0889     0.0000     8.0000 </r>
       <r>   -14.9436     0.0000     8.0000 </r>
       <r>   -14.7983     0.0000     8.0000 </r>
       <r>   -14.6530     0.0000     8.0000 </r>
       <r>   -14.5077     0.0000     8.0000 </r>
       <r>   -14.3624     0.0000     8.0000 </r>
       <r>   -14.2170     0.0000     8.0000 </r>
       <r>   -14.0717     0.0000     8.0000 </r>
       <r>   -13.9264     0.0000     8.0000 </r>
       <r>   -13.7811     0.0000     8.0000 </r>
       <r>   -13.6358     0.0000     8.0000 </r>
       <r>   -13.4905     0.0000     8.0000 </r>
       <r>   -13.3451     0.0000     8.0000 </r>
       <r>   -13.1998     0.0000     8.0000 </r>
       <r>   -13.0545     0.0000     8.0000 </r>
       <r>   -12.9092     0.0000     8.0000 </r>
       <r>   -12.7639     0.0000     8.0000 </r>
       <r>   -12.6186     0.0000     8.0000 </r>
       <r>   -12.4732     0.0000     8.0000 </r>
       <r>   -12.3279     0.0000     8.0000 </r>
       <r>   -12.1826     0.0000     8.0000 </r>
       <r>   -12.0373     0.0000     8.0000 </r>
       <r>   -11.8920     0.0000     8.0000 </r>
       <r>   -11.7467     0.0000     8.0000 </r>
       <r>   -11.6013     0.0000     8.0000 </r>
       <r>   -11.4560     0.0000     8.0000 </r>
       <r>   -11.3107     0.0000     8.0000 </r>
       <r>   -11.1654     0.0000     8.0000 </r>
       <r>   -11.0201     0.0001     8.0000 </r>
       <r>   -10.8747     0.0244     8.0036 </r>
       <r>   -10.7294     0.5722     8.0867 </r>
       <r>   -10.5841     1.8681     8.3582 </r>
       <r>   -10.4388     2.1835     8.6755 </r>
       <r>   -10.2935     2.7648     9.0772 </r>
       <r>   -10.1482     2.5753     9.4515 </r>
       <r>   -10.0028     3.0611     9.8963 </r>
       <r>    -9.8575     5.1546    10.6454 </r>
       <r>    -9.7122     4.2707    11.2660 </r>
       <r>    -9.5669     5.9609    12.1322 </r>
       <r>    -9.4216     4.7957    12.8291 </r>
       <r>    -9.2763     2.5678    13.2023 </r>
       <r>    -9.1309     3.0222    13.6414 </r>
       <r>    -8.9856     2.7069    14.0348 </r>
       <r>    -8.8403     2.6783    14.4240 </r>
       <r>    -8.6950     1.6273    14.6605 </r>
       <r>    -8.5497     2.1383    14.9712 </r>
       <r>    -8.4044     2.2469    15.2977 </r>
       <r>    -8.2590     1.4627    15.5103 </r>
       <r>    -8.1137     1.8929    15.7853 </r>
       <r>    -7.9684     1.2325    15.9644 </r>
       <r>    -7.8231     0.2404    15.9994 </r>
       <r>    -7.6778     0.0044    16.0000 </r>
       <r>    -7.5324     0.0000    16.0000 </r>
       <r>    -7.3871     0.0000    16.0000 </r>
       <r>    -7.2418     0.0000    16.0000 </r>
       <r>    -7.0965     0.0003    16.0000 </r>
       <r>    -6.9512     0.0356    16.0052 </r>
       <r>    -6.8059     0.3768    16.0600 </r>
       <r>    -6.6605     0.9521    16.1983 </r>
       <r>    -6.5152     2.2093    16.5194 </r>
       <r>    -6.3699     4.6218    17.1910 </r>
       <r>    -6.2246     6.9824    18.2057 </r>
       <r>    -6.0793     9.0339    19.5185 </r>
       <r>    -5.9340    11.4881    21.1879 </r>
       <r>    -5.7886    12.3880    22.9881 </r>
       <r>    -5.6433    12.7718    24.8440 </r>
       <r>    -5.4980    12.3848    26.6438 </r>
       <r>    -5.3527    14.4485    28.7434 </r>
       <r>    -5.2074    15.0618    30.9321 </r>
       <r>    -5.0621     5.6824    31.7579 </r>
       <r>    -4.9167     1.5165    31.9783 </r>
       <r>    -4.7714     0.1484    31.9998 </r>
       <r>    -4.6261     0.0011    32.0000 </r>
       <r>    -4.4808     0.0000    32.0000 </r>
       <r>    -4.3355     0.0000    32.0000 </r>
       <r>    -4.1901     0.0000    32.0000 </r>
       <r>    -4.0448     0.0000    32.0000 </r>
       <r>    -3.8995     0.0000    32.0000 </r>
       <r>    -3.7542     0.0000    32.0000 </r>
       <r>    -3.6089     0.0000    32.0000 </r>
       <r>    -3.4636     0.0000    32.0000 </r>
       <r>    -3.3182     0.0000    32.0000 </r>
       <r>    -3.1729     0.0000    32.0000 </r>
       <r>    -3.0276     0.0000    32.0000 </r>
       <r>    -2.8823     0.0000    32.0000 </r>
       <r>    -2.7370     0.0000    32.0000 </r>
       <r>    -2.5917     0.0000    32.0000 </r>
       <r>    -2.4463     0.0000    32.0000 </r>
       <r>    -2.3010     0.0000    32.0000 </r>
       <r>    -2.1557     0.0000    32.0000 </r>
       <r>    -2.0104     0.0000    32.0000 </r>
       <r>    -1.8651     0.0000    32.0000 </r>
       <r>    -1.7198     0.0000    32.0000 </r>
       <r>    -1.5744     0.0000    32.0000 </r>
       <r>    -1.4291     0.0000    32.0000 </r>
       <r>    -1.2838     0.0000    32.0000 </r>
       <r>    -1.1385     0.0000    32.0000 </r>
       <r>    -0.9932     0.0000    32.0000 </r>
       <r>    -0.8479     0.0000    32.0000 </r>
       <r>    -0.7025     0.0000    32.0000 </r>
       <r>    -0.5572     0.0000    32.0000 </r>
       <r>    -0.4119     0.0000    32.0000 </r>
       <r>    -0.2666     0.0000    32.0000 </r>
       <r>    -0.1213     0.0000    32.0000 </r>
       <r>     0.0241     0.0000    32.0000 </r>
       <r>     0.1694     0.0000    32.0000 </r>
       <r>     0.3147     0.0000    32.0000 </r>
       <r>     0.4600     0.0000    32.0000 </r>
       <r>     0.6053     0.0000    32.0000 </r>
       <r>     0.7506     0.0000    32.0000 </r>
       <r>     0.8960     0.0000    32.0000 </r>
       <r>     1.0413     0.0000    32.0000 </r>
       <r>     1.1866     0.0000    32.0000 </r>
       <r>     1.3319     0.0000    32.0000 </r>
       <r>     1.4772     0.0000    32.0000 </r>
       <r>     1.6225     0.0000    32.0000 </r>
       <r>     1.7679     0.0000    32.0000 </r>
       <r>     1.9132     0.0002    32.0000 </r>
       <r>     2.0585     0.0097    32.0014 </r>
       <r>     2.2038     0.0332    32.0063 </r>
       <r>     2.3491     0.1148    32.0230 </r>
       <r>     2.4944     0.1887    32.0504 </r>
       <r>     2.6398     0.2004    32.0795 </r>
       <r>     2.7851     0.1734    32.1047 </r>
       <r>     2.9304     0.1609    32.1281 </r>
       <r>     3.0757     0.4113    32.1878 </r>
       <r>     3.2210     0.5146    32.2626 </r>
       <r>     3.3664     0.2937    32.3053 </r>
       <r>     3.5117     0.1497    32.3271 </r>
       <r>     3.6570     0.4634    32.3944 </r>
       <r>     3.8023     0.6936    32.4952 </r>
       <r>     3.9476     0.5267    32.5717 </r>
       <r>     4.0929     0.4681    32.6397 </r>
       <r>     4.2383     0.5232    32.7158 </r>
       <r>     4.3836     0.8680    32.8419 </r>
       <r>     4.5289     0.8988    32.9725 </r>
       <r>     4.6742     0.3416    33.0222 </r>
       <r>     4.8195     0.5743    33.1056 </r>
       <r>     4.9648     1.1405    33.2714 </r>
       <r>     5.1102     1.3624    33.4693 </r>
       <r>     5.2555     0.9569    33.6084 </r>
       <r>     5.4008     1.0028    33.7541 </r>
       <r>     5.5461     1.1095    33.9153 </r>
       <r>     5.6914     1.0098    34.0621 </r>
       <r>     5.8367     1.2942    34.2502 </r>
       <r>     5.9821     1.4499    34.4609 </r>
       <r>     6.1274     1.5807    34.6906 </r>
       <r>     6.2727     1.4310    34.8985 </r>
       <r>     6.4180     1.4743    35.1128 </r>
       <r>     6.5633     1.6610    35.3541 </r>
       <r>     6.7087     1.7959    35.6151 </r>
       <r>     6.8540     1.9891    35.9041 </r>
       <r>     6.9993     2.0270    36.1987 </r>
       <r>     7.1446     2.0266    36.4932 </r>
       <r>     7.2899     1.7518    36.7478 </r>
       <r>     7.4352     2.0064    37.0393 </r>
       <r>     7.5806     2.3314    37.3781 </r>
       <r>     7.7259     2.5349    37.7465 </r>
       <r>     7.8712     2.5724    38.1203 </r>
       <r>     8.0165     2.3030    38.4550 </r>
       <r>     8.1618     2.7255    38.8510 </r>
       <r>     8.3071     2.7376    39.2488 </r>
       <r>     8.4525     2.2387    39.5742 </r>
       <r>     8.5978     1.5877    39.8049 </r>
       <r>     8.7431     1.1610    39.9736 </r>
       <r>     8.8884     0.6151    40.0630 </r>
       <r>     9.0337     0.5376    40.1411 </r>
       <r>     9.1790     0.9259    40.2756 </r>
       <r>     9.3244     0.8865    40.4045 </r>
       <r>     9.4697     1.0117    40.5515 </r>
       <r>     9.6150     0.8882    40.6806 </r>
       <r>     9.7603     1.5449    40.9051 </r>
       <r>     9.9056     2.8254    41.3156 </r>
       <r>    10.0510     4.3014    41.9407 </r>
       <r>    10.1963     3.8212    42.4960 </r>
       <r>    10.3416     4.3767    43.1320 </r>
       <r>    10.4869     4.2503    43.7496 </r>
       <r>    10.6322     3.7114    44.2890 </r>
       <r>    10.7775     4.4662    44.9380 </r>
       <r>    10.9229     4.3040    45.5634 </r>
       <r>    11.0682     2.5473    45.9336 </r>
       <r>    11.2135     1.7429    46.1869 </r>
       <r>    11.3588     1.5327    46.4096 </r>
       <r>    11.5041     2.0510    46.7077 </r>
       <r>    11.6494     1.5720    46.9361 </r>
       <r>    11.7948     1.7077    47.1843 </r>
       <r>    11.9401     1.3999    47.3877 </r>
       <r>    12.0854     0.6791    47.4864 </r>
       <r>    12.2307     0.4082    47.5457 </r>
       <r>    12.3760     0.4746    47.6147 </r>
       <r>    12.5213     0.5188    47.6901 </r>
       <r>    12.6667     0.6500    47.7845 </r>
       <r>    12.8120     0.8359    47.9060 </r>
       <r>    12.9573     0.2423    47.9412 </r>
       <r>    13.1026     0.2541    47.9781 </r>
       <r>    13.2479     0.1389    47.9983 </r>
       <r>    13.3932     0.0116    48.0000 </r>
       <r>    13.5386     0.0000    48.0000 </r>
       <r>    13.6839     0.0000    48.0000 </r>
       <r>    13.8292     0.0000    48.0000 </r>
       <r>    13.9745     0.0000    48.0000 </r>
       <r>    14.1198     0.0000    48.0000 </r>
       <r>    14.2652     0.0000    48.0000 </r>
       <r>    14.4105     0.0000    48.0000 </r>
       <r>    14.5558     0.0000    48.0000 </r>
       <r>    14.7011     0.0000    48.0000 </r>
       <r>    14.8464     0.0000    48.0000 </r>
       <r>    14.9917     0.0000    48.0000 </r>
       <r>    15.1371     0.0000    48.0000 </r>
      </set>
     </set>
    </array>
   </total>
  </dos>
 </calculation>
 <structure name="finalpos" >
  <crystal>
   <varray name="basis" >
    <v>       3.02310188       0.00000000       0.00000000 </v>
    <v>       0.00000000       4.47716667       0.00000000 </v>
    <v>       0.00000000       0.00000000       5.46129726 </v>
   </varray>
   <i name="volume">     73.91828130 </i>
   <varray name="rec_basis" >
    <v>       0.33078607      -0.00000000       0.00000000 </v>
    <v>       0.00000000       0.22335554       0.00000000 </v>
    <v>      -0.00000000      -0.00000000       0.18310668 </v>
   </varray>
  </crystal>
  <varray name="positions" >
   <v>       0.50000000       0.06556863       0.41607187 </v>
   <v>       0.50000000       0.93443137       0.91607187 </v>
   <v>       0.00000000       0.56556863       0.41607187 </v>
   <v>       0.00000000       0.43443137       0.91607187 </v>
   <v>       0.50000000       0.85210171       0.42192813 </v>
   <v>       0.50000000       0.14789829       0.92192813 </v>
   <v>       0.00000000       0.35210171       0.42192813 </v>
   <v>       0.00000000       0.64789829       0.92192813 </v>
  </varray>
 </structure>
</modeling>
