unknown system                          
           1
     3.023102    0.000000    0.000000
     0.000000    4.477167    0.000000
     0.000000    0.000000    5.461297
   H    F 
   4   4
Direct configuration=     1
   0.50000000  0.06556863  0.41607187
   0.50000000  0.93443137  0.91607187
   0.00000000  0.56556863  0.41607187
   0.00000000  0.43443137  0.91607187
   0.50000000  0.85210171  0.42192813
   0.50000000  0.14789829  0.92192813
   0.00000000  0.35210171  0.42192813
   0.00000000  0.64789829  0.92192813
