MoS2-H.POSCAR                           
   1.00000000000000     
     3.1904063769892548    0.0000000000000000    0.0000000000000000
    -1.5952031884946274    2.7629729709066906    0.0000000000000000
     0.0000000000000000    0.0000000000000000   17.6585355706663840
   Mo   S 
     1     2
Direct
  0.3333333429999996  0.6666666870000029  0.5000000000000000
  0.6666666870000029  0.3333333429999996  0.4117002781430017
  0.6666666870000029  0.3333333429999996  0.5882996918569958
 
  0.00000000E+00  0.00000000E+00  0.00000000E+00
  0.00000000E+00  0.00000000E+00  0.00000000E+00
  0.00000000E+00  0.00000000E+00  0.00000000E+00
