G	19	6	2	# Parameters to Generate KPOINTS (Don't Edit This Line)
	31
Reciprocal lattice
	0.000000	0.000000	0.000000	1
	0.083333	0.000000	0.000000	6
	0.166667	0.000000	0.000000	6
	0.250000	0.000000	0.000000	6
	0.333333	0.000000	0.000000	6
	0.416667	0.000000	0.000000	6
	0.500000	0.000000	0.000000	3
	0.083333	0.083333	0.000000	6
	0.166667	0.083333	0.000000	12
	0.250000	0.083333	0.000000	12
	0.333333	0.083333	0.000000	12
	0.416667	0.083333	0.000000	12
	0.166667	0.166667	0.000000	6
	0.250000	0.166667	0.000000	12
	0.333333	0.166667	0.000000	12
	0.416667	0.166667	0.000000	6
	0.250000	0.250000	0.000000	6
	0.333333	0.250000	0.000000	12
	0.333333	0.333333	0.000000	2
	0.333333	0.333333	0.000000	0
	0.330640	0.328669	0.000000	0
	0.327947	0.324005	0.000000	0
	0.325254	0.319341	0.000000	0
	0.322562	0.314677	0.000000	0
	0.319869	0.310013	0.000000	0
	0.333333	0.333333	0.000000	0
	0.340145	0.327434	0.000000	0
	0.346958	0.321534	0.000000	0
	0.353770	0.315634	0.000000	0
	0.360583	0.309734	0.000000	0
	0.367395	0.303835	0.000000	0
